Cs Sn I  Cs Sn I  Cs Sn Br I  Cs Sn I  Cs Sn I  Cs Sn I  Cs Sn I  Br I  Cs Sn I 
 1.0000000000000000
    13.4452111801934873    0.0000000000000000    0.0000000000000000
     0.0000000000000000   13.4452111801934873    0.0000000000000000
     0.0000000000000000    0.0000000000000000   13.4452111801934873
 Cs  Sn  I   Cs  Sn  I   Cs  Sn  Br  I   Cs  Sn  I   Cs  Sn  I   Cs  Sn  I   Cs  Sn  I   Br  I   Cs  Sn  I  
   1   1   3   1   1   3   1   1   1   2   1   1   3   1   1   3   1   1   3   1   1   1   1   1   1   1   3
Cartesian
  0.0000000000000000  0.0000000000000000  0.0000000000000000
  3.3613027950483718  3.3613027950483718  3.3613027950483718
  3.3613027950483718  3.3613027950483718  0.0000000000000000
  3.3613027950483718  0.0000000000000000  3.3613027950483718
  0.0000000000000000  3.3613027950483718  3.3613027950483718
  0.0000000000000000  0.0000000000000000  6.7226055900967427
  3.3613027950483718  3.3613027950483718 10.0839083851451150
  3.3613027950483718  3.3613027950483718  6.7226055900967427
  3.3613027950483718  0.0000000000000000 10.0839083851451150
  0.0000000000000000  3.3613027950483718 10.0839083851451150
  0.0000000000000000  6.7226055900967427  0.0000000000000000
  3.3613027950483718 10.0839083851451150  3.3613027950483718
  3.3613027950483718 10.0839083851451150  0.0000000000000000
  3.3613027950483718  6.7226055900967427  3.3613027950483718
  0.0000000000000000 10.0839083851451150  3.3613027950483718
  0.0000000000000000  6.7226055900967427  6.7226055900967427
  3.3613027950483718 10.0839083851451150 10.0839083851451150
  3.3613027950483718 10.0839083851451150  6.7226055900967427
  3.3613027950483718  6.7226055900967427 10.0839083851451150
  0.0000000000000000 10.0839083851451150 10.0839083851451150
  6.7226055900967427  0.0000000000000000  0.0000000000000000
 10.0839083851451150  3.3613027950483718  3.3613027950483718
 10.0839083851451150  3.3613027950483718  0.0000000000000000
 10.0839083851451150  0.0000000000000000  3.3613027950483718
  6.7226055900967427  3.3613027950483718  3.3613027950483718
  6.7226055900967427  0.0000000000000000  6.7226055900967427
 10.0839083851451150  3.3613027950483718 10.0839083851451150
 10.0839083851451150  3.3613027950483718  6.7226055900967427
 10.0839083851451150  0.0000000000000000 10.0839083851451150
  6.7226055900967427  3.3613027950483718 10.0839083851451150
  6.7226055900967427  6.7226055900967427  0.0000000000000000
 10.0839083851451150 10.0839083851451150  3.3613027950483718
 10.0839083851451150 10.0839083851451150  0.0000000000000000
 10.0839083851451150  6.7226055900967427  3.3613027950483718
  6.7226055900967427 10.0839083851451150  3.3613027950483718
  6.7226055900967427  6.7226055900967427  6.7226055900967427
 10.0839083851451150 10.0839083851451150 10.0839083851451150
 10.0839083851451150 10.0839083851451150  6.7226055900967427
 10.0839083851451150  6.7226055900967427 10.0839083851451150
  6.7226055900967427 10.0839083851451150 10.0839083851451150
