40
Lattice="11.463492905243688 0.0 0.0 0.012977261131705504 11.463485559778034 0.0 0.012977261131724437 -0.01299196038125777 11.46347819766006" Properties=species:S:1:pos:R:3:spacegroup_kinds:I:1:forces:R:3 spacegroup="P 1" unit_cell=conventional occupancy="_JSON {\"0\": {\"Cs\": 1.0}, \"1\": {\"Sn\": 1.0}, \"2\": {\"I\": 1.0}, \"3\": {\"Cl\": 1.0}, \"4\": {\"Cl\": 1.0}, \"5\": {\"Cs\": 1.0}, \"6\": {\"Sn\": 1.0}, \"7\": {\"Cl\": 1.0}, \"8\": {\"Cl\": 1.0}, \"9\": {\"Cl\": 1.0}, \"10\": {\"Cs\": 1.0}, \"11\": {\"Sn\": 1.0}, \"12\": {\"Cl\": 1.0}, \"13\": {\"Cl\": 1.0}, \"14\": {\"I\": 1.0}, \"15\": {\"Cs\": 1.0}, \"16\": {\"Sn\": 1.0}, \"17\": {\"Cl\": 1.0}, \"18\": {\"Cl\": 1.0}, \"19\": {\"Cl\": 1.0}, \"20\": {\"Cs\": 1.0}, \"21\": {\"Sn\": 1.0}, \"22\": {\"Cl\": 1.0}, \"23\": {\"Cl\": 1.0}, \"24\": {\"Cl\": 1.0}, \"25\": {\"Cs\": 1.0}, \"26\": {\"Sn\": 1.0}, \"27\": {\"Cl\": 1.0}, \"28\": {\"I\": 1.0}, \"29\": {\"Cl\": 1.0}, \"30\": {\"Cs\": 1.0}, \"31\": {\"Sn\": 1.0}, \"32\": {\"Cl\": 1.0}, \"33\": {\"Cl\": 1.0}, \"34\": {\"Cl\": 1.0}, \"35\": {\"Cs\": 1.0}, \"36\": {\"Sn\": 1.0}, \"37\": {\"Cl\": 1.0}, \"38\": {\"Cl\": 1.0}, \"39\": {\"Cl\": 1.0}}" candidate_id=a1da1302f1a7ea9e formula=MASnCl0.88I0.123 config_index=0 rattle_stdev=0.0 method=PBE fidelity=phase2_force energy=-135.68103427828925 stress="-0.0006113141732184685 -0.0002990593576490811 -0.00029939848413141474 -0.0002990593576490811 -0.0006106370717632171 0.00029973761061364223 -0.00029939848413141474 0.00029973761061364223 -0.0006099576655489202" pbc="T T T"
Cs       0.01297726      11.46348556       0.00000000        0       0.00000000       0.00000000       0.00000000
Sn       2.88931278       2.88878626       2.99444999        1       0.07049288      -0.01074056       0.28391849
I        2.92251132       2.89325022      11.46347820        2      -0.02304962      -0.02302354       0.00000000
Cl       2.89753725      -0.00328016       2.89425709        3       0.01674433      -0.00001896       0.01672537
Cl       0.27263007       2.93800096       3.04650569        4      -0.23552710      -0.02928033      -0.00474407
Cs       0.08785420       0.07477753       5.73173910        5       0.04239851       0.04235054       0.00000000
Sn       2.90503252       2.87304871       8.46902821        6      -0.01066075       0.07050499      -0.28391849
Cl       2.89527587       2.87902285       5.73173910        7      -0.01739082      -0.01737114       0.00000000
Cl       2.95128497       0.25631197       8.41697251        8      -0.02954694      -0.23549381       0.00474407
Cl      11.47647017       2.88454715       8.56922111        9      -0.00000000       0.01674434      -0.01672537
Cs      11.40159322       5.71884293      11.38220474       10      -0.04239851       0.00004800      -0.04235051
Sn       3.00742030       8.56803858       2.88264510       11       0.28401010       0.01033925       0.07018317
Cl       3.05645794       8.52173059       0.26585105       12      -0.00497751       0.02955259      -0.23548828
Cl       2.94954387       5.72841109       2.93972354       13       0.03351420      -0.00003794       0.03347626
I       11.47647017       8.55394964       2.90624031       14      -0.00000000       0.02304963      -0.02302352
Cs       0.01297726       5.67807692       5.77885555       15       0.00000000      -0.03930004       0.03925553
Sn       2.93130421       8.54185304       8.55153931       16       0.11664082      -0.11677294      -0.11690536
Cl       3.01646479       8.55826957       5.90823257       17      -0.04195749       0.05814141       0.17540360
Cl       2.91479129       5.89864450       8.46340167       18      -0.05809388       0.17535586       0.04222204
Cl      11.21681736       8.40731960       8.52202642       19       0.23552710       0.00471089       0.02928569
Cs       5.74472371      11.38211994       0.08127346       20       0.00000000      -0.04239854       0.04235051
Sn       8.55814322       2.90864056       2.91193889       21      -0.11664082       0.11677294       0.11690536
Cl       8.53816246       3.03381699      11.19762715       22       0.02954694      -0.00501096       0.23548828
Cl       8.43298949      11.19430069       2.94145178       23       0.00497751       0.23552162      -0.02928569
Cl       5.91491767       2.89511989       3.00007653       24       0.17528998      -0.05829235      -0.04222204
Cs       5.70404250      11.45704298       5.68462265       25      -0.03930002       0.00004449      -0.03925553
Sn       8.58441490       2.98472695       8.58083309       26       0.01066075       0.28399821      -0.07018317
Cl       8.57465614       2.99378250       5.55524563       27       0.05809388      -0.04202328      -0.17540360
I        8.56693611      -0.00969822       8.55723789       28       0.02304962      -0.00002609       0.02302352
Cl       5.74472371       2.93006516       8.52375465       29      -0.00000000       0.03351422      -0.03347626
Cs       5.78540493       5.77885926       0.00000000       30       0.03930002       0.03925555       0.00000000
Sn       8.48202713       8.57756080       2.89217812       31      -0.28401010      -0.07017141      -0.01041878
Cl       8.59191018       8.55623465      11.46347820       32      -0.01674433      -0.01672538       0.00000000
Cl       8.47298263       5.55196420       2.89851812       33       0.04195749      -0.17533759      -0.05834016
Cl       5.74472371       8.57469647       2.88551698       34      -0.00000000       0.01739083      -0.01737113
Cs       5.74472371       5.72524680       5.73173910       35      -0.00000000      -0.00000000       0.00000000
Sn       8.60013465       8.45931950       8.57130008       36      -0.07049288      -0.28393048       0.01041878
Cl       8.53990356       8.51726415       5.73173910       37      -0.03351420      -0.03347628       0.00000000
Cl       8.59417156       5.72202108       8.57796122       38       0.01739082      -0.00001969       0.01737113
Cl       5.57452976       8.45370014       8.56496007       39      -0.17528998       0.04215595       0.05834016
40
Lattice="11.463492905243688 0.0 0.0 0.012977261131705504 11.463485559778034 0.0 0.012977261131724437 -0.01299196038125777 11.46347819766006" Properties=species:S:1:pos:R:3:spacegroup_kinds:I:1:forces:R:3 spacegroup="P 1" unit_cell=conventional occupancy="_JSON {\"0\": {\"Cs\": 1.0}, \"1\": {\"Sn\": 1.0}, \"2\": {\"I\": 1.0}, \"3\": {\"Cl\": 1.0}, \"4\": {\"Cl\": 1.0}, \"5\": {\"Cs\": 1.0}, \"6\": {\"Sn\": 1.0}, \"7\": {\"Cl\": 1.0}, \"8\": {\"Cl\": 1.0}, \"9\": {\"Cl\": 1.0}, \"10\": {\"Cs\": 1.0}, \"11\": {\"Sn\": 1.0}, \"12\": {\"Cl\": 1.0}, \"13\": {\"Cl\": 1.0}, \"14\": {\"I\": 1.0}, \"15\": {\"Cs\": 1.0}, \"16\": {\"Sn\": 1.0}, \"17\": {\"Cl\": 1.0}, \"18\": {\"Cl\": 1.0}, \"19\": {\"Cl\": 1.0}, \"20\": {\"Cs\": 1.0}, \"21\": {\"Sn\": 1.0}, \"22\": {\"Cl\": 1.0}, \"23\": {\"Cl\": 1.0}, \"24\": {\"Cl\": 1.0}, \"25\": {\"Cs\": 1.0}, \"26\": {\"Sn\": 1.0}, \"27\": {\"Cl\": 1.0}, \"28\": {\"I\": 1.0}, \"29\": {\"Cl\": 1.0}, \"30\": {\"Cs\": 1.0}, \"31\": {\"Sn\": 1.0}, \"32\": {\"Cl\": 1.0}, \"33\": {\"Cl\": 1.0}, \"34\": {\"Cl\": 1.0}, \"35\": {\"Cs\": 1.0}, \"36\": {\"Sn\": 1.0}, \"37\": {\"Cl\": 1.0}, \"38\": {\"Cl\": 1.0}, \"39\": {\"Cl\": 1.0}}" candidate_id=a1da1302f1a7ea9e formula=MASnCl0.88I0.123 config_index=1 rattle_stdev=0.08 method=PBE fidelity=phase2_force energy=-134.7859374903493 stress="-0.004820200208967852 -0.0002124135541713773 -0.00020978038038088568 -0.0002124135541713773 -0.003184643362751015 -0.00023841848672138976 -0.00020978038038088568 -0.00023841848672138976 -0.00452127614323125" pbc="T T T"
Cs      -0.07393845      11.39180035      -0.02450395        0      -0.03458883       0.07823758       0.06575159
Sn       2.78211808       2.79225942       2.94311184        1       0.29282427       0.21523322       0.69269243
I        3.02714697       3.04088705      11.52980739        2      -0.17603801      -0.14429394      -0.14691362
Cl       2.89567335      -0.01996528       2.82092751        3      -0.07117704       0.04473082      -0.03673021
Cl       0.18665066       2.93110948       3.14057277        4      -0.08453079      -0.06939785      -0.04946560
Cs      -0.04295314       0.17303305       5.81785000        5       0.11133723       0.09468188      -0.10394630
Sn       2.93661435       2.84203265       8.51610035        6       0.06463426       0.64256511      -0.44031405
Cl       2.78061197       2.85313688       5.83197787        7       0.03141197       0.00285173      -0.11092083
Cl       2.89282556       0.37059077       8.49254482        8      -0.02010733      -1.00739822       0.00584399
Cl      11.45534994       2.87149008       8.49209253        9      -0.04071185       0.03078857       0.00418103
Cs      11.37418144       5.72275525      11.34223418       10      -0.07214082      -0.06106109       0.01824323
Sn       2.83046794       8.59282553       2.75547300       11       1.85215860      -0.22731429       0.14835299
Cl       3.11481431       8.51309849       0.21383733       12      -0.13551143       0.06557408      -0.36588389
Cl       2.81409935       5.69893316       2.81249381       13      -0.00178636       0.01233192       0.10813137
I       11.59491063       8.59190485       2.97934942       14      -1.70335284       0.02103732       0.08915050
Cs       0.08981488       5.68484033       5.91623402       15       0.03454602      -0.11134327      -0.05175511
Sn       2.99945563       8.48146222       8.36852896       16       0.14729704       0.05086772       0.73145131
Cl       3.02520389       8.52225692       5.87519477       17      -0.01327562      -0.02865972      -0.35688588
Cl       2.94030999       5.85535586       8.53929499       18      -0.03448494       0.35919450      -0.11128008
Cl      11.22893216       8.41347180       8.51727438       19       1.27471121       0.01556914      -0.08757217
Cs       5.73911262      11.33682801       0.10615389       20       0.03772824      -0.00146589       0.09082728
Sn       8.61607992       2.94995656       2.99402134       21      -0.28831341      -0.22672907      -0.86708977
Cl       8.57977467       2.96422990      11.31767236       22       0.12559114       0.02328995      -0.37280000
Cl       8.52630726      11.23365385       2.88287080       23      -0.01959765      -0.08750932       0.04168186
Cl       5.96934216       2.93583964       2.93307363       24      -0.05785539      -0.08024432       0.03829938
Cs       5.75585409      11.45804614       5.80938978       25      -0.08967469       0.01352027      -0.15639232
Sn       8.66718253       3.01174237       8.47662426       26      -0.13503654       0.65166981       0.57057767
Cl       8.48517259       3.09854371       5.51378827       27       0.05942262      -0.00294697       0.65096133
I        8.53548616       0.07373926       8.56321510       28       0.02493259      -0.17046057       0.02203353
Cl       5.75187868       2.93437775       8.55723041       29      -0.02575900      -0.00321323      -0.10672886
Cs       5.68718652       5.69169593       0.02536995       30       0.17855254       0.09828285       0.01793969
Sn       8.41959469       8.50907031       2.78658841       31      -0.28422962       0.32282013      -0.12529722
Cl       8.62821271       8.63637664      11.57657697       32      -0.03171895      -0.03429478       0.16528221
Cl       8.45776800       5.55437305       2.74864479       33       0.08643554       0.12181150       0.00403505
Cl       5.73538156       8.56449724       2.95769172       34       0.40944744       0.01546364      -0.04511707
Cs       5.63957394       5.71728274       5.74298309       35       0.01419362      -0.03051914      -0.04453830
Sn       8.81043913       8.59978180       8.36044825       36      -1.43556080      -0.77698518       0.74680628
Cl       8.43697200       8.50352637       5.87577540       37       0.11323028       0.03062513      -0.60677791
Cl       8.64286721       5.72454312       8.46064824       38       0.07506394       0.15240821       0.00473123
Cl       5.59928502       8.54507756       8.52409254       39      -0.19702066      -0.00327683      -0.03599791
40
Lattice="11.463492905243688 0.0 0.0 0.012977261131705504 11.463485559778034 0.0 0.012977261131724437 -0.01299196038125777 11.46347819766006" Properties=species:S:1:pos:R:3:spacegroup_kinds:I:1:forces:R:3 spacegroup="P 1" unit_cell=conventional occupancy="_JSON {\"0\": {\"Cs\": 1.0}, \"1\": {\"Sn\": 1.0}, \"2\": {\"I\": 1.0}, \"3\": {\"Cl\": 1.0}, \"4\": {\"Cl\": 1.0}, \"5\": {\"Cs\": 1.0}, \"6\": {\"Sn\": 1.0}, \"7\": {\"Cl\": 1.0}, \"8\": {\"Cl\": 1.0}, \"9\": {\"Cl\": 1.0}, \"10\": {\"Cs\": 1.0}, \"11\": {\"Sn\": 1.0}, \"12\": {\"Cl\": 1.0}, \"13\": {\"Cl\": 1.0}, \"14\": {\"I\": 1.0}, \"15\": {\"Cs\": 1.0}, \"16\": {\"Sn\": 1.0}, \"17\": {\"Cl\": 1.0}, \"18\": {\"Cl\": 1.0}, \"19\": {\"Cl\": 1.0}, \"20\": {\"Cs\": 1.0}, \"21\": {\"Sn\": 1.0}, \"22\": {\"Cl\": 1.0}, \"23\": {\"Cl\": 1.0}, \"24\": {\"Cl\": 1.0}, \"25\": {\"Cs\": 1.0}, \"26\": {\"Sn\": 1.0}, \"27\": {\"Cl\": 1.0}, \"28\": {\"I\": 1.0}, \"29\": {\"Cl\": 1.0}, \"30\": {\"Cs\": 1.0}, \"31\": {\"Sn\": 1.0}, \"32\": {\"Cl\": 1.0}, \"33\": {\"Cl\": 1.0}, \"34\": {\"Cl\": 1.0}, \"35\": {\"Cs\": 1.0}, \"36\": {\"Sn\": 1.0}, \"37\": {\"Cl\": 1.0}, \"38\": {\"Cl\": 1.0}, \"39\": {\"Cl\": 1.0}}" candidate_id=a1da1302f1a7ea9e formula=MASnCl0.88I0.123 config_index=2 rattle_stdev=0.08 method=PBE fidelity=phase2_force energy=-134.75423105528077 stress="-0.0024781595120879894 -0.0008943878784055432 -0.0004724451322161562 -0.0008943878784055432 6.897609263452509e-05 0.0006582721473730004 -0.0004724451322161562 0.0006582721473730004 -0.0013566195258958675" pbc="T T T"
Cs       0.00396022      11.37736044       0.14280215        0       0.06068357      -0.00266625      -0.10988034
Sn       2.77275411       2.86268060       2.89365827        1       2.00187678       0.21062382       0.58774665
I        2.95258064       2.82299843      11.43548014        2      -0.09030278       0.01656071      -0.19776180
Cl       2.92127007       0.09279279       2.76873747        3      -0.09495207      -0.55189737       0.04481075
Cl       0.42095237       2.97751790       3.03604878        4      -2.14052978       0.01355727      -0.00054283
Cs       0.05560454      -0.00311545       5.69434176        5       0.02768455       0.03900444       0.13429737
Sn       2.84759881       2.97076018       8.40685221        6       0.27941770      -0.09384894      -0.30259591
Cl       2.84819382       2.87441335       5.73810549        7      -0.02883672      -0.10582029      -0.00545409
Cl       2.85662888       0.13241257       8.48995300        8      -0.00546215      -0.12179924      -0.05896231
Cl      11.50948383       2.82888563       8.38611936        9      -0.04052085       0.09673630       0.08973135
Cs      11.33861390       5.63656160      11.38966938       10       0.01276072       0.06608921      -0.09089477
Sn       2.96508477       8.63045817       2.86657993       11       0.51994284      -0.22756073      -0.00040496
Cl       3.01800925       8.43890962       0.22563230       12      -0.02407704       0.04891039       0.07714192
Cl       3.01273508       5.65441128       3.11652637       13      -0.06845380       0.44364210      -0.11543019
I       11.36445127       8.53482185       2.92362757       14       0.94122659      -0.02397417       0.05246081
Cs      -0.01521356       5.68494697       5.78738770       15       0.00173955      -0.00573186       0.08159395
Sn       2.91554171       8.64960775       8.57915323       16       0.07192521      -0.29297893      -0.15299932
Cl       3.06107635       8.51064675       5.96685915       17      -0.12203694       0.19875446      -0.08339553
Cl       3.02129150       5.84024186       8.42454121       18      -0.14499451       0.06649568       0.10999650
Cl      11.30297050       8.19969101       8.53538067       19       0.12815033       0.11467022       0.04464467
Cs       5.82784049      11.23743403       0.14196474       20      -0.08831292       0.02315567      -0.00669782
Sn       8.51813419       2.72109711       2.90330547       21      -0.63352425       0.80888709       0.45463790
Cl       8.41793944       3.07291928      11.15337287       22       0.13275180       0.04808097       0.66896666
Cl       8.51759009      11.12475526       2.93544449       23       0.03670002       0.54269380      -0.07580595
Cl       5.90634527       3.06302566       2.97283349       24       0.49234739      -0.42523102      -0.13696548
Cs       5.66181009      11.35347363       5.70175057       25       0.00398186       0.02012868       0.03025504
Sn       8.67451647       3.01684982       8.64207992       26      -0.41776730       0.02280825      -0.66636696
Cl       8.46640594       3.03969118       5.53763466       27       0.18353087      -0.27162274      -0.31849512
I        8.61855123      -0.09007576       8.70921697       28       0.06765740       0.78537190      -0.00336845
Cl       5.76207258       2.97006279       8.47362737       29       0.07129736      -0.01236066      -0.02126365
Cs       5.70517419       5.71635444       0.01634222       30       0.00961955       0.00677327       0.00236998
Sn       8.52491449       8.49156100       2.71474974       31      -1.02149630      -0.37660374       0.38895032
Cl       8.64366459       8.53044779      11.44967306       32      -0.01959244      -0.03721256       0.16641908
Cl       8.28990889       5.54300070       2.97494323       33       0.32243342      -0.26428843      -0.23559281
Cl       5.78110277       8.73965066       2.89051382       34      -0.45963531       0.05434610      -0.08471127
Cs       5.74495111       5.68896249       5.76161770       35       0.00501768      -0.00973739      -0.01423621
Sn       8.53508537       8.45119489       8.60695713       36       0.17403201      -0.38560122      -0.51849677
Cl       8.43789327       8.52589069       5.79991805       37       0.05694937       0.03214196       0.00187710
Cl       8.58162339       5.81712662       8.46018014       38       0.02272975      -0.61001155       0.08318683
Cl       5.64381302       8.38222898       8.52104242       39      -0.21647346       0.16680998       0.17343223
40
Lattice="11.463492905243688 0.0 0.0 0.012977261131705504 11.463485559778034 0.0 0.012977261131724437 -0.01299196038125777 11.46347819766006" Properties=species:S:1:pos:R:3:spacegroup_kinds:I:1:forces:R:3 spacegroup="P 1" unit_cell=conventional occupancy="_JSON {\"0\": {\"Cs\": 1.0}, \"1\": {\"Sn\": 1.0}, \"2\": {\"I\": 1.0}, \"3\": {\"Cl\": 1.0}, \"4\": {\"Cl\": 1.0}, \"5\": {\"Cs\": 1.0}, \"6\": {\"Sn\": 1.0}, \"7\": {\"Cl\": 1.0}, \"8\": {\"Cl\": 1.0}, \"9\": {\"Cl\": 1.0}, \"10\": {\"Cs\": 1.0}, \"11\": {\"Sn\": 1.0}, \"12\": {\"Cl\": 1.0}, \"13\": {\"Cl\": 1.0}, \"14\": {\"I\": 1.0}, \"15\": {\"Cs\": 1.0}, \"16\": {\"Sn\": 1.0}, \"17\": {\"Cl\": 1.0}, \"18\": {\"Cl\": 1.0}, \"19\": {\"Cl\": 1.0}, \"20\": {\"Cs\": 1.0}, \"21\": {\"Sn\": 1.0}, \"22\": {\"Cl\": 1.0}, \"23\": {\"Cl\": 1.0}, \"24\": {\"Cl\": 1.0}, \"25\": {\"Cs\": 1.0}, \"26\": {\"Sn\": 1.0}, \"27\": {\"Cl\": 1.0}, \"28\": {\"I\": 1.0}, \"29\": {\"Cl\": 1.0}, \"30\": {\"Cs\": 1.0}, \"31\": {\"Sn\": 1.0}, \"32\": {\"Cl\": 1.0}, \"33\": {\"Cl\": 1.0}, \"34\": {\"Cl\": 1.0}, \"35\": {\"Cs\": 1.0}, \"36\": {\"Sn\": 1.0}, \"37\": {\"Cl\": 1.0}, \"38\": {\"Cl\": 1.0}, \"39\": {\"Cl\": 1.0}}" candidate_id=a1da1302f1a7ea9e formula=MASnCl0.88I0.123 config_index=3 rattle_stdev=0.08 method=PBE fidelity=phase2_force energy=-134.90141708169736 stress="-0.00363627279026693 -0.0002751862030961309 -0.00016794105624216277 -0.0002751862030961309 -0.0030113111247748003 0.0004700626079892074 -0.00016794105624216277 0.0004700626079892074 -0.001582720201275882" pbc="T T T"
Cs      -0.09270622      11.62482579       0.00380516        0       0.01564387       0.09008207       0.06167401
Sn       2.87029908       2.89551608       3.07121337        1      -0.19648684      -0.29231302      -0.81407933
I        2.86798344       2.93557585      11.40148474        2       0.03617110      -0.02711914      -0.07815479
Cl       3.00993375      -0.02125460       2.78978623        3       0.01610130      -0.15685418       0.08972520
Cl       0.21834725       2.80832630       2.94410781        4      -0.00186158      -0.00370013       0.09422578
Cs       0.06991047       0.00673265       5.67127989        5      -0.02134154       0.07191464      -0.03284310
Sn       2.92608619       2.66863327       8.33540554        6       0.09476571       0.79562323       0.58394637
Cl       2.83833706       2.68328081       5.62960431        7      -0.04806531      -0.09361554       0.33552659
Cl       3.00437477       0.15400525       8.35373973        8       0.00613015      -0.35289651      -0.01618861
Cl      11.35628050       2.78938395       8.75055632        9       0.15667112       0.03228837      -0.13162304
Cs      11.36345100       5.79057605      11.23780968       10      -0.01094050      -0.12581183      -0.02500311
Sn       2.96812313       8.47207885       2.81822748       11       0.24535144       0.34000936      -0.01992143
Cl       3.16892343       8.50330534       0.20875533       12      -0.08826821      -0.05528585       0.19208511
Cl       2.93653686       5.67410070       3.06085296       13      -0.01735014       0.22111978       0.04033571
I       11.33666434       8.60663200       2.87871101       14       1.77647571      -0.06319208      -0.08218052
Cs      -0.04771859       5.69183903       5.72627226       15      -0.04840455      -0.06114363       0.03653439
Sn       2.97551985       8.57246170       8.52183608       16      -0.23963251      -0.36913138       0.36537712
Cl       3.14271631       8.57561337       6.00515990       17      -0.03747322       0.11262217      -0.58813633
Cl       2.97330974       5.95256418       8.41697718       18      -0.08922951      -0.05016985       0.01465060
Cl      11.20887019       8.28053041       8.51604910       19       0.02326571       0.02913748       0.05463726
Cs       5.84062842      11.36088612       0.02912949       20      -0.07527293       0.00625183       0.05728950
Sn       8.40642029       2.78541664       2.88051303       21       0.55747092       0.38282916       0.00301779
Cl       8.50500399       3.09070241      11.24902918       22      -0.00605130      -0.11807672       0.03898034
Cl       8.62477639      11.18071811       2.86038109       23      -0.14852714       0.18981651       0.02087714
Cl       5.87943318       2.96279807       3.03962525       24      -0.27799728      -0.14962986       0.05903593
Cs       5.72633356      11.49881025       5.71003199       25      -0.01404063      -0.05420793      -0.07867917
Sn       8.60258581       2.95349971       8.52339169       26       0.01387096       0.52256091       0.21692293
Cl       8.69818503       2.92474689       5.52653942       27      -0.02022541      -0.12147906      -0.01040157
I        8.57364025       0.12463955       8.46289091       28       0.01039081      -1.56185413       0.07428971
Cl       5.71282554       2.89619402       8.56850160       29      -0.27458325      -0.06769491      -0.17156140
Cs       5.73922535       5.78455905       0.06937641       30       0.05309293      -0.04210679      -0.04599009
Sn       8.51521985       8.55946202       2.95262557       31      -0.66448637      -0.27821864       0.14762618
Cl       8.60992057       8.52105441      11.51580454       32       0.01074957      -0.01106877      -0.01447087
Cl       8.40129277       5.43800831       3.03791685       33       0.10473062       0.02951420      -0.11877945
Cl       5.97826976       8.52079845       2.82383504       34      -1.16581496       0.06215212      -0.03520624
Cs       5.82916310       5.81690384       5.74138894       35       0.01774554      -0.00215915       0.03967586
Sn       8.60113412       8.40335778       8.72140401       36      -0.00236147      -0.03994685      -0.28373813
Cl       8.50385089       8.49276541       5.84475845       37      -0.02416063      -0.01164321      -0.03031292
Cl       8.54188427       5.54069575       8.62638937       38       0.02794234       1.12046176      -0.01549014
Cl       5.53258432       8.47029932       8.65267224       39       0.28506910       0.08950983       0.07064871
