Cs Pb I  Cs Pb I  Cs Pb Br I  Cs Pb I  Br I  Cs Pb I  Br Cs Pb I  Cs Pb I  Br I  Cs Pb I 
 1.0000000000000000
    13.3679951196879170    0.0000000000000000    0.0000000000000000
     0.0000000000000000   13.3679951196879170    0.0000000000000000
     0.0000000000000000    0.0000000000000000   13.3679951196879170
 Cs  Pb  I   Cs  Pb  I   Cs  Pb  Br  I   Cs  Pb  I   Br  I   Cs  Pb  I   Br  Cs  Pb  I   Cs  Pb  I   Br  I   Cs  Pb  I  
   1   1   3   1   1   3   1   1   2   1   1   1   1   1   1   1   1   2   1   1   1   3   1   1   1   1   1   1   1   3
Cartesian
  0.0000000000000000  0.0000000000000000  0.0000000000000000
  3.3419987799219792  3.3419987799219792  3.3419987799219792
  3.3419987799219792  3.3419987799219792  0.0000000000000000
  3.3419987799219792  0.0000000000000000  3.3419987799219792
  0.0000000000000000  3.3419987799219792  3.3419987799219792
  0.0000000000000000  0.0000000000000000  6.6839975598439576
  3.3419987799219792  3.3419987799219792 10.0259963397659373
  3.3419987799219792  3.3419987799219792  6.6839975598439576
  3.3419987799219792  0.0000000000000000 10.0259963397659373
  0.0000000000000000  3.3419987799219792 10.0259963397659373
  0.0000000000000000  6.6839975598439576  0.0000000000000000
  3.3419987799219792 10.0259963397659373  3.3419987799219792
  3.3419987799219792 10.0259963397659373  0.0000000000000000
  3.3419987799219792  6.6839975598439576  3.3419987799219792
  0.0000000000000000 10.0259963397659373  3.3419987799219792
  0.0000000000000000  6.6839975598439576  6.6839975598439576
  3.3419987799219792 10.0259963397659373 10.0259963397659373
  3.3419987799219792 10.0259963397659373  6.6839975598439576
  3.3419987799219792  6.6839975598439576 10.0259963397659373
  0.0000000000000000 10.0259963397659373 10.0259963397659373
  6.6839975598439576  0.0000000000000000  0.0000000000000000
 10.0259963397659373  3.3419987799219792  3.3419987799219792
 10.0259963397659373  3.3419987799219792  0.0000000000000000
 10.0259963397659373  0.0000000000000000  3.3419987799219792
  6.6839975598439576  3.3419987799219792  3.3419987799219792
  6.6839975598439576  0.0000000000000000  6.6839975598439576
 10.0259963397659373  3.3419987799219792 10.0259963397659373
 10.0259963397659373  3.3419987799219792  6.6839975598439576
 10.0259963397659373  0.0000000000000000 10.0259963397659373
  6.6839975598439576  3.3419987799219792 10.0259963397659373
  6.6839975598439576  6.6839975598439576  0.0000000000000000
 10.0259963397659373 10.0259963397659373  3.3419987799219792
 10.0259963397659373 10.0259963397659373  0.0000000000000000
 10.0259963397659373  6.6839975598439576  3.3419987799219792
  6.6839975598439576 10.0259963397659373  3.3419987799219792
  6.6839975598439576  6.6839975598439576  6.6839975598439576
 10.0259963397659373 10.0259963397659373 10.0259963397659373
 10.0259963397659373 10.0259963397659373  6.6839975598439576
 10.0259963397659373  6.6839975598439576 10.0259963397659373
  6.6839975598439576 10.0259963397659373 10.0259963397659373
