Cs Pb I  Cs Pb I  Cs Pb Br I  Cs Pb I  Cs Pb I  Cs Pb I  Cs Pb I  Br I  Cs Pb I 
 1.0000000000000000
    13.4775966707718311    0.0000000000000000    0.0000000000000000
     0.0000000000000000   13.4775966707718311    0.0000000000000000
     0.0000000000000000    0.0000000000000000   13.4775966707718311
 Cs  Pb  I   Cs  Pb  I   Cs  Pb  Br  I   Cs  Pb  I   Cs  Pb  I   Cs  Pb  I   Cs  Pb  I   Br  I   Cs  Pb  I  
   1   1   3   1   1   3   1   1   1   2   1   1   3   1   1   3   1   1   3   1   1   1   1   1   1   1   3
Cartesian
  0.0000000000000000  0.0000000000000000  0.0000000000000000
  3.3693991676929578  3.3693991676929578  3.3693991676929578
  3.3693991676929578  3.3693991676929578  0.0000000000000000
  3.3693991676929578  0.0000000000000000  3.3693991676929578
  0.0000000000000000  3.3693991676929578  3.3693991676929578
  0.0000000000000000  0.0000000000000000  6.7387983353859147
  3.3693991676929578  3.3693991676929578 10.1081975030788751
  3.3693991676929578  3.3693991676929578  6.7387983353859147
  3.3693991676929578  0.0000000000000000 10.1081975030788751
  0.0000000000000000  3.3693991676929578 10.1081975030788751
  0.0000000000000000  6.7387983353859147  0.0000000000000000
  3.3693991676929578 10.1081975030788751  3.3693991676929578
  3.3693991676929578 10.1081975030788751  0.0000000000000000
  3.3693991676929578  6.7387983353859147  3.3693991676929578
  0.0000000000000000 10.1081975030788751  3.3693991676929578
  0.0000000000000000  6.7387983353859147  6.7387983353859147
  3.3693991676929578 10.1081975030788751 10.1081975030788751
  3.3693991676929578 10.1081975030788751  6.7387983353859147
  3.3693991676929578  6.7387983353859147 10.1081975030788751
  0.0000000000000000 10.1081975030788751 10.1081975030788751
  6.7387983353859147  0.0000000000000000  0.0000000000000000
 10.1081975030788751  3.3693991676929578  3.3693991676929578
 10.1081975030788751  3.3693991676929578  0.0000000000000000
 10.1081975030788751  0.0000000000000000  3.3693991676929578
  6.7387983353859147  3.3693991676929578  3.3693991676929578
  6.7387983353859147  0.0000000000000000  6.7387983353859147
 10.1081975030788751  3.3693991676929578 10.1081975030788751
 10.1081975030788751  3.3693991676929578  6.7387983353859147
 10.1081975030788751  0.0000000000000000 10.1081975030788751
  6.7387983353859147  3.3693991676929578 10.1081975030788751
  6.7387983353859147  6.7387983353859147  0.0000000000000000
 10.1081975030788751 10.1081975030788751  3.3693991676929578
 10.1081975030788751 10.1081975030788751  0.0000000000000000
 10.1081975030788751  6.7387983353859147  3.3693991676929578
  6.7387983353859147 10.1081975030788751  3.3693991676929578
  6.7387983353859147  6.7387983353859147  6.7387983353859147
 10.1081975030788751 10.1081975030788751 10.1081975030788751
 10.1081975030788751 10.1081975030788751  6.7387983353859147
 10.1081975030788751  6.7387983353859147 10.1081975030788751
  6.7387983353859147 10.1081975030788751 10.1081975030788751
