Cs Sn I  Cs Sn I  Cs Sn Cl I  Cs Sn I  Cl I  Cs Sn I  Cl Cs Sn I  Cs Sn I  Cl Cs Sn I  Cl
 1.0000000000000000
    13.0646463105588868    0.0000000000000000    0.0000000000000000
     0.0000000000000000   13.0646463105588868    0.0000000000000000
     0.0000000000000000    0.0000000000000000   13.0646463105588868
 Cs  Sn  I   Cs  Sn  I   Cs  Sn  Cl  I   Cs  Sn  I   Cl  I   Cs  Sn  I   Cl  Cs  Sn  I   Cs  Sn  I   Cl  Cs  Sn  I   Cl 
   1   1   3   1   1   3   1   1   2   1   1   1   1   1   1   1   1   2   1   1   1   3   1   1   1   2   1   1   2   1
Cartesian
  0.0000000000000000  0.0000000000000000  0.0000000000000000
  3.2661615776397217  3.2661615776397217  3.2661615776397217
  3.2661615776397217  3.2661615776397217  0.0000000000000000
  3.2661615776397217  0.0000000000000000  3.2661615776397217
  0.0000000000000000  3.2661615776397217  3.2661615776397217
  0.0000000000000000  0.0000000000000000  6.5323231552794425
  3.2661615776397217  3.2661615776397217  9.7984847329191673
  3.2661615776397217  3.2661615776397217  6.5323231552794425
  3.2661615776397217  0.0000000000000000  9.7984847329191673
  0.0000000000000000  3.2661615776397217  9.7984847329191673
  0.0000000000000000  6.5323231552794425  0.0000000000000000
  3.2661615776397217  9.7984847329191673  3.2661615776397217
  3.2661615776397217  9.7984847329191673  0.0000000000000000
  3.2661615776397217  6.5323231552794425  3.2661615776397217
  0.0000000000000000  9.7984847329191673  3.2661615776397217
  0.0000000000000000  6.5323231552794425  6.5323231552794425
  3.2661615776397217  9.7984847329191673  9.7984847329191673
  3.2661615776397217  9.7984847329191673  6.5323231552794425
  3.2661615776397217  6.5323231552794425  9.7984847329191673
  0.0000000000000000  9.7984847329191673  9.7984847329191673
  6.5323231552794425  0.0000000000000000  0.0000000000000000
  9.7984847329191673  3.2661615776397217  3.2661615776397217
  9.7984847329191673  3.2661615776397217  0.0000000000000000
  9.7984847329191673  0.0000000000000000  3.2661615776397217
  6.5323231552794425  3.2661615776397217  3.2661615776397217
  6.5323231552794425  0.0000000000000000  6.5323231552794425
  9.7984847329191673  3.2661615776397217  9.7984847329191673
  9.7984847329191673  3.2661615776397217  6.5323231552794425
  9.7984847329191673  0.0000000000000000  9.7984847329191673
  6.5323231552794425  3.2661615776397217  9.7984847329191673
  6.5323231552794425  6.5323231552794425  0.0000000000000000
  9.7984847329191673  9.7984847329191673  3.2661615776397217
  9.7984847329191673  9.7984847329191673  0.0000000000000000
  9.7984847329191673  6.5323231552794425  3.2661615776397217
  6.5323231552794425  9.7984847329191673  3.2661615776397217
  6.5323231552794425  6.5323231552794425  6.5323231552794425
  9.7984847329191673  9.7984847329191673  9.7984847329191673
  9.7984847329191673  9.7984847329191673  6.5323231552794425
  9.7984847329191673  6.5323231552794425  9.7984847329191673
  6.5323231552794425  9.7984847329191673  9.7984847329191673
