40
Lattice="12.305149926151008 0.0 0.0 0.0 12.309193252767205 0.0 0.0 1.7147226046877244e-14 12.305149926150948" Properties=species:S:1:pos:R:3:spacegroup_kinds:I:1:forces:R:3 spacegroup="P 1" unit_cell=conventional occupancy="_JSON {\"0\": {\"Rb\": 1.0}, \"1\": {\"Sn\": 1.0}, \"2\": {\"I\": 1.0}, \"3\": {\"I\": 1.0}, \"4\": {\"I\": 1.0}, \"5\": {\"Rb\": 1.0}, \"6\": {\"Sn\": 1.0}, \"7\": {\"I\": 1.0}, \"8\": {\"I\": 1.0}, \"9\": {\"I\": 1.0}, \"10\": {\"Rb\": 1.0}, \"11\": {\"Sn\": 1.0}, \"12\": {\"I\": 1.0}, \"13\": {\"I\": 1.0}, \"14\": {\"I\": 1.0}, \"15\": {\"Rb\": 1.0}, \"16\": {\"Ge\": 1.0}, \"17\": {\"I\": 1.0}, \"18\": {\"I\": 1.0}, \"19\": {\"I\": 1.0}, \"20\": {\"Rb\": 1.0}, \"21\": {\"Sn\": 1.0}, \"22\": {\"I\": 1.0}, \"23\": {\"I\": 1.0}, \"24\": {\"I\": 1.0}, \"25\": {\"Rb\": 1.0}, \"26\": {\"Sn\": 1.0}, \"27\": {\"I\": 1.0}, \"28\": {\"I\": 1.0}, \"29\": {\"I\": 1.0}, \"30\": {\"Rb\": 1.0}, \"31\": {\"Ge\": 1.0}, \"32\": {\"I\": 1.0}, \"33\": {\"I\": 1.0}, \"34\": {\"I\": 1.0}, \"35\": {\"Rb\": 1.0}, \"36\": {\"Sn\": 1.0}, \"37\": {\"I\": 1.0}, \"38\": {\"I\": 1.0}, \"39\": {\"I\": 1.0}}" candidate_id=438a766ee2bceb07 formula=RbGe0.29Sn0.71I3 config_index=0 rattle_stdev=0.0 method=PBE fidelity=phase2_force energy=-110.32844235402162 stress="-0.0013986892938096759 1.7683073629097103e-32 -6.6104025594601704e-09 1.7683073629097103e-32 -0.0015263836969768572 2.1270156351941084e-18 -6.6104025594601704e-09 2.1270156351941084e-18 -0.0013986892938096889" pbc="T T T"
Rb      12.30514993      12.16667920       0.00000000        0       0.00000000       0.00112504      -0.00000000
Sn       3.07628748       3.07729831       3.07628748        1       0.00021214       0.00020931       0.00021214
I        3.07628748       3.07729831      12.29996533        2       0.00000326      -0.00000020       0.02633733
I        3.07628748      12.29630126       3.07628748        3      -0.00000011       0.03302742      -0.00000011
I       12.29996533       3.07729831       3.07628748        4       0.02633733      -0.00000020       0.00000326
Rb       0.00000000      12.16667920       6.15257496        5      -0.00000000       0.00113008       0.00000000
Sn       3.07628748       3.07729831       9.22886244        6       0.00021427       0.00014776      -0.00021427
I        3.07628748       3.07729831       6.15775956        7       0.00000368      -0.00000057      -0.02633780
I        3.07628748      12.20605202       9.22886244        8      -0.00000056       0.11862973       0.00000056
I        0.00518460       3.07729831       9.22886244        9      -0.02633733      -0.00000020      -0.00000326
Rb       0.00000000       6.29711068       0.00000000       10       0.00000000      -0.00112564       0.00000000
Sn       3.07628748       9.23189494       3.07628748       11       0.00015140      -0.00021379       0.00015140
I        3.07628748       9.23189494      12.21257837       12      -0.00000371       0.00000083       0.11587360
I        3.07628748       6.16748862       3.07628748       13      -0.00000066      -0.03302848      -0.00000066
I       12.21257837       9.23189494       3.07628748       14       0.11587360       0.00000083      -0.00000371
Rb      12.30514993       6.29711068       6.15257496       15       0.00000000      -0.00113100       0.00000000
Ge       3.07628748       9.23189494       9.22886244       16       0.00000117      -0.00000533      -0.00000117
I        3.07628748       9.23189494       6.24514652       17      -0.00000390       0.00000110      -0.11584289
I        3.07628748       6.25773786       9.22886244       18      -0.00000063      -0.11860165       0.00000063
I        0.09257155       9.23189494       9.22886244       19      -0.11587360       0.00000083       0.00000371
Rb       6.15257496      12.16667920       0.00000000       20       0.00000000       0.00113008       0.00000000
Sn       9.22886244       3.07729831       3.07628748       21      -0.00021427       0.00014776       0.00021427
I        9.22886244       3.07729831       0.00518460       22      -0.00000326      -0.00000020      -0.02633733
I        9.22886244      12.20605202       3.07628748       23       0.00000056       0.11862973      -0.00000056
I        6.15775956       3.07729831       3.07628748       24      -0.02633780      -0.00000057       0.00000368
Rb       6.15257496      12.16667920       6.15257496       25      -0.00000000       0.00113530       0.00000000
Sn       9.22886244       3.07729831       9.22886244       26      -0.00021214       0.00020931      -0.00021214
I        9.22886244       3.07729831       6.14739037       27      -0.00000368      -0.00000057       0.02633780
I        9.22886244      12.29630126       9.22886244       28       0.00000011       0.03302742       0.00000011
I        6.14739037       3.07729831       9.22886244       29       0.02633780      -0.00000057      -0.00000368
Rb       6.15257496       6.29711068       0.00000000       30      -0.00000000      -0.00113100       0.00000000
Ge       9.22886244       9.23189494       3.07628748       31      -0.00000117      -0.00000533       0.00000117
I        9.22886244       9.23189494       0.09257155       32       0.00000371       0.00000083      -0.11587360
I        9.22886244       6.25773786       3.07628748       33       0.00000063      -0.11860165      -0.00000063
I        6.24514652       9.23189494       3.07628748       34      -0.11584289       0.00000110      -0.00000390
Rb       6.15257496       6.29711068       6.15257496       35       0.00000000      -0.00113640      -0.00000000
Sn       9.22886244       9.23189494       9.22886244       36      -0.00015140      -0.00021379      -0.00015140
I        9.22886244       9.23189494       6.06000341       37       0.00000390       0.00000110       0.11584289
I        9.22886244       6.16748862       9.22886244       38       0.00000066      -0.03302848       0.00000066
I        6.06000341       9.23189494       9.22886244       39       0.11584289       0.00000110       0.00000390
40
Lattice="12.305149926151008 0.0 0.0 0.0 12.309193252767205 0.0 0.0 1.7147226046877244e-14 12.305149926150948" Properties=species:S:1:pos:R:3:spacegroup_kinds:I:1:forces:R:3 spacegroup="P 1" unit_cell=conventional occupancy="_JSON {\"0\": {\"Rb\": 1.0}, \"1\": {\"Sn\": 1.0}, \"2\": {\"I\": 1.0}, \"3\": {\"I\": 1.0}, \"4\": {\"I\": 1.0}, \"5\": {\"Rb\": 1.0}, \"6\": {\"Sn\": 1.0}, \"7\": {\"I\": 1.0}, \"8\": {\"I\": 1.0}, \"9\": {\"I\": 1.0}, \"10\": {\"Rb\": 1.0}, \"11\": {\"Sn\": 1.0}, \"12\": {\"I\": 1.0}, \"13\": {\"I\": 1.0}, \"14\": {\"I\": 1.0}, \"15\": {\"Rb\": 1.0}, \"16\": {\"Ge\": 1.0}, \"17\": {\"I\": 1.0}, \"18\": {\"I\": 1.0}, \"19\": {\"I\": 1.0}, \"20\": {\"Rb\": 1.0}, \"21\": {\"Sn\": 1.0}, \"22\": {\"I\": 1.0}, \"23\": {\"I\": 1.0}, \"24\": {\"I\": 1.0}, \"25\": {\"Rb\": 1.0}, \"26\": {\"Sn\": 1.0}, \"27\": {\"I\": 1.0}, \"28\": {\"I\": 1.0}, \"29\": {\"I\": 1.0}, \"30\": {\"Rb\": 1.0}, \"31\": {\"Ge\": 1.0}, \"32\": {\"I\": 1.0}, \"33\": {\"I\": 1.0}, \"34\": {\"I\": 1.0}, \"35\": {\"Rb\": 1.0}, \"36\": {\"Sn\": 1.0}, \"37\": {\"I\": 1.0}, \"38\": {\"I\": 1.0}, \"39\": {\"I\": 1.0}}" candidate_id=438a766ee2bceb07 formula=RbGe0.29Sn0.71I3 config_index=1 rattle_stdev=0.08 method=PBE fidelity=phase2_force energy=-109.93574230530172 stress="-0.003111501355289087 7.139417353170612e-05 -1.1312829651708258e-05 7.139417353170612e-05 -0.0025023282506700666 -9.792877876501119e-05 -1.1312829651708258e-05 -9.792877876501119e-05 -0.003608718499685469" pbc="T T T"
Rb      12.21823422      12.09499399      -0.02450395        0      -0.01871825       0.03509538       0.02550443
Sn       2.96909279       2.98077147       3.02494934        1       0.29568859       0.29477335       0.23989180
I        3.18092313       3.22493515      12.36629453        2      -0.06536801      -0.03375401      -0.03636263
I        3.07442358      12.27961614       3.00295790        3       0.02394673       0.04320285      -0.01155363
I       12.21398592       3.07040683       3.17035456        4       0.57414081      -0.00878695       0.01690391
Rb      -0.13080734      12.26493472       6.23868586        5       0.03452866       0.04917619      -0.03170685
Sn       3.10786931       3.04628225       9.27593459        6       0.08304159      -0.08375329      -0.15544825
I        2.96162358       3.05141234       6.25799833        7       0.05448727       0.02514113      -0.23988051
I        3.01782807      12.32033083       9.30443476        8      -0.01032018      -0.21883338       0.00035375
I       -0.01593563       3.06424125       9.15173386        9       0.08099528       0.00735234       0.03463943
Rb      -0.02741179       6.30102301      -0.03997056       10      -0.00075041      -0.03307611       0.01671019
Sn       2.89933512       9.25668189       2.94911538       11       0.49384856      -0.31177893      -0.15672291
I        3.13464385       9.22326284      12.16056465       12      -0.05601343       0.03299921       0.23307519
I        2.94084296       6.13801069       2.94905774       13       0.00210252       0.03361960       0.07264064
I       12.33101884       9.26985016       3.14939659       14      -0.49424030       0.00622022       0.04382177
Rb      12.38198755       6.30387409       6.28995344       15       0.02818768      -0.04795482      -0.00462748
Ge       3.14443890       9.17150411       9.04585210       16       0.26851178      -0.00422464       0.17483691
I        3.08502658       9.19588229       6.21210872       17       0.00369185      -0.00808561      -0.09337194
I        3.10180618       6.21444922       9.30475576       18      -0.01492650       0.28386523      -0.08157517
I        0.10468636       9.23804713       9.22411041       19       0.06826473       0.02585389      -0.02005755
Rb       6.14696387      12.12138727       0.02488043       20       0.00525247       0.02366593       0.01950573
Sn       9.28679915       3.11861432       3.15836994       21      -0.47506965      -0.21644086      -0.54120170
I        9.27047465       3.00771123       0.12522981       22       0.05456641       0.02308059      -0.47015326
I        9.32218022      12.24540518       3.01770650       23      -0.00674856       0.04281070       0.14448985
I        6.21218405       3.11801806       3.00928458       24      -0.37854382      -0.00644969       0.06378536
Rb       6.20438655      12.16768235       6.27734209       25      -0.02529500       0.01458359      -0.01246637
Sn       9.31163007       3.10431373       9.12465361       26      -0.16851782       0.27880520       0.34682187
I        9.13937890       3.18205952       6.10593301       27      -0.03772215      -0.03343526       0.49543679
I        9.19741250      12.37973874       9.23483966       28       0.01969177      -0.17088828      -0.03973522
I        6.15454533       3.08161090       9.26233820       29      -0.00569108      -0.00150828      -0.01257322
Rb       6.05435656       6.20994736       0.02536995       30      -0.00876984      -0.03243690       0.02641054
Ge       9.16643000       9.16340446       2.97069777       31      -0.24586968       0.16227834      -0.02410170
I        9.26516498       9.31203693       0.20567033       32      -0.00153049      -0.03485206      -0.24342198
I        9.21364781       6.26014670       2.92641415       33       0.04612175       0.02337909       0.03800060
I        6.23580436       9.22169571       3.14846222       34       0.21687839      -0.00079256      -0.00900142
Rb       6.04742519       6.28914663       6.16381895       35      -0.00733634      -0.02271879      -0.00325745
Sn       9.43916692       9.37235725       9.01801062       36      -0.34262999      -0.34865807       0.57391732
I        9.12593089       9.21815716       6.20403971       37       0.06934627       0.05043920      -0.52259572
I        9.27755810       6.17001066       9.11154947       38       0.01342289       0.16533418       0.06643550
I        6.08475867       9.32327237       9.18799491       39      -0.06685743      -0.01671947       0.00205035
40
Lattice="12.305149926151008 0.0 0.0 0.0 12.309193252767205 0.0 0.0 1.7147226046877244e-14 12.305149926150948" Properties=species:S:1:pos:R:3:spacegroup_kinds:I:1:forces:R:3 spacegroup="P 1" unit_cell=conventional occupancy="_JSON {\"0\": {\"Rb\": 1.0}, \"1\": {\"Sn\": 1.0}, \"2\": {\"I\": 1.0}, \"3\": {\"I\": 1.0}, \"4\": {\"I\": 1.0}, \"5\": {\"Rb\": 1.0}, \"6\": {\"Sn\": 1.0}, \"7\": {\"I\": 1.0}, \"8\": {\"I\": 1.0}, \"9\": {\"I\": 1.0}, \"10\": {\"Rb\": 1.0}, \"11\": {\"Sn\": 1.0}, \"12\": {\"I\": 1.0}, \"13\": {\"I\": 1.0}, \"14\": {\"I\": 1.0}, \"15\": {\"Rb\": 1.0}, \"16\": {\"Ge\": 1.0}, \"17\": {\"I\": 1.0}, \"18\": {\"I\": 1.0}, \"19\": {\"I\": 1.0}, \"20\": {\"Rb\": 1.0}, \"21\": {\"Sn\": 1.0}, \"22\": {\"I\": 1.0}, \"23\": {\"I\": 1.0}, \"24\": {\"I\": 1.0}, \"25\": {\"Rb\": 1.0}, \"26\": {\"Sn\": 1.0}, \"27\": {\"I\": 1.0}, \"28\": {\"I\": 1.0}, \"29\": {\"I\": 1.0}, \"30\": {\"Rb\": 1.0}, \"31\": {\"Ge\": 1.0}, \"32\": {\"I\": 1.0}, \"33\": {\"I\": 1.0}, \"34\": {\"I\": 1.0}, \"35\": {\"Rb\": 1.0}, \"36\": {\"Sn\": 1.0}, \"37\": {\"I\": 1.0}, \"38\": {\"I\": 1.0}, \"39\": {\"I\": 1.0}}" candidate_id=438a766ee2bceb07 formula=RbGe0.29Sn0.71I3 config_index=2 rattle_stdev=0.08 method=PBE fidelity=phase2_force energy=-109.87497293586398 stress="-0.0028393538200255533 0.00010029409416264804 -6.138638580625482e-06 0.00010029409416264804 -0.0030720501271615072 -3.3277314808523284e-05 -6.138638580625482e-06 -3.3277314808523284e-05 -0.0024425380275397445" pbc="T T T"
Rb      12.29613288      12.08055408       0.14280215        0       0.01368650      -0.00785909      -0.03859507
Sn       2.95972882       3.05119265       2.97549576        1       0.73356855       0.27962046       0.12172826
I        3.10635680       3.00704652      12.27196727        2      -0.04606106       0.04773138      -0.00252840
I        3.10002030      12.39237422       2.95076786        3      -0.00633855      -0.59266153       0.04359610
I       12.44828763       3.11681526       3.06583057        4      -1.01638203       0.03874207      -0.02920896
Rb      -0.03224966      12.08878621       6.11517762        5      -0.01811080      -0.01221420       0.04381068
Sn       3.01885376       3.17500978       9.16668644        6       0.42547224       0.14146388      -0.01760507
I        3.02920543       3.07268880       6.16412595        7       0.03632732      -0.10392483      -0.13223153
I        2.98163140      12.08215263       9.30184294        8       0.02076083       0.41750191      -0.01628073
I        0.03819825       3.02163679       9.04576069        9      -0.18851027       0.01332164       0.03415578
Rb      -0.06297932       6.21482935       0.00746465       10       0.01862345       0.01646649      -0.01648118
Sn       3.03395195       9.29431453       3.06022231       11       0.20508049      -0.23143217       0.03606003
I        3.03783879       9.14907397      12.17235962       12       0.03655059      -0.04654220       0.46644865
I        3.13947870       6.09348881       3.25309031       13      -0.02239340       0.50004833      -0.05155581
I       12.10055948       9.21276715       3.09367474       14       0.58862807      -0.04257854       0.02539525
Rb      12.27695910       6.30398073       6.16110712       15      -0.00042236       0.00283106       0.01684276
Ge       3.06052498       9.33964965       9.25647636       16      -0.14636010      -0.19794761      -0.09609573
I        3.12089903       9.18427213       6.30377309       17      -0.02169942       0.08678326      -0.41554270
I        3.18278770       6.19933522       9.19000198       18      -0.01723029      -0.30240221       0.03448124
I        0.17872469       9.02426635       9.24221670       19      -0.17408245       0.01894871      -0.01825721
Rb       6.23569173      12.02199329       0.06069128       20      -0.01754955       0.02521636      -0.01582372
Sn       9.18885342       2.88975486       3.06765407       21      -0.19494229       0.17131519       0.15088135
I        9.10863943       3.11640061      -0.03906969       22       0.07596182       0.05843449       0.16017088
I        9.31346305      12.13650659       3.07028019       23       0.01721929       0.33505360      -0.01554437
I        6.14918716       3.24520407       3.04904445       24       0.31768748      -0.11256818      -0.00639893
Rb       6.11034255      12.06310985       6.16970289       25       0.01877529      -0.00269029       0.01857684
Sn       9.31896401       3.10942118       9.29010927       26      -0.37711708      -0.07096638      -0.25065299
I        9.12061225       3.12320699       6.12977940       27       0.04218891      -0.06270407      -0.06003056
I        9.28047756      12.21592372       9.38084153       28       0.03279765       0.53438188       0.01049517
I        6.16473923       3.11729594       9.17873516       29       0.06954341      -0.06012449      -0.00552376
Rb       6.07234423       6.23460587       0.01634222       30      -0.01957422      -0.04961517       0.00705375
Ge       9.27174981       9.14589514       2.89885910       31      -0.31386728      -0.24139931       0.34672055
I        9.28061686       9.20610808       0.07876642       32       0.00049456      -0.05754197      -0.00946413
I        9.04578870       6.24877435       3.15271259       33       0.10212653      -0.04789336      -0.07758050
I        6.28152557       9.39684914       3.08128432       34      -0.47250777       0.01628489      -0.06165749
Rb       6.15280236       6.26082638       6.18245356       35       0.00778546      -0.03167949      -0.00639177
Sn       9.16381317       9.22377034       9.26451950       36       0.08038092       0.09789445      -0.42476821
I        9.12685215       9.24052148       6.12818236       37       0.06453774       0.07323323       0.09606062
I        9.21631428       6.26259416       9.11108137       38       0.05786733      -0.64159362       0.04492829
I        6.12928668       9.16042378       9.18494480       39       0.03750769       0.06144623       0.09273865
40
Lattice="12.305149926151008 0.0 0.0 0.0 12.309193252767205 0.0 0.0 1.7147226046877244e-14 12.305149926150948" Properties=species:S:1:pos:R:3:spacegroup_kinds:I:1:forces:R:3 spacegroup="P 1" unit_cell=conventional occupancy="_JSON {\"0\": {\"Rb\": 1.0}, \"1\": {\"Sn\": 1.0}, \"2\": {\"I\": 1.0}, \"3\": {\"I\": 1.0}, \"4\": {\"I\": 1.0}, \"5\": {\"Rb\": 1.0}, \"6\": {\"Sn\": 1.0}, \"7\": {\"I\": 1.0}, \"8\": {\"I\": 1.0}, \"9\": {\"I\": 1.0}, \"10\": {\"Rb\": 1.0}, \"11\": {\"Sn\": 1.0}, \"12\": {\"I\": 1.0}, \"13\": {\"I\": 1.0}, \"14\": {\"I\": 1.0}, \"15\": {\"Rb\": 1.0}, \"16\": {\"Ge\": 1.0}, \"17\": {\"I\": 1.0}, \"18\": {\"I\": 1.0}, \"19\": {\"I\": 1.0}, \"20\": {\"Rb\": 1.0}, \"21\": {\"Sn\": 1.0}, \"22\": {\"I\": 1.0}, \"23\": {\"I\": 1.0}, \"24\": {\"I\": 1.0}, \"25\": {\"Rb\": 1.0}, \"26\": {\"Sn\": 1.0}, \"27\": {\"I\": 1.0}, \"28\": {\"I\": 1.0}, \"29\": {\"I\": 1.0}, \"30\": {\"Rb\": 1.0}, \"31\": {\"Ge\": 1.0}, \"32\": {\"I\": 1.0}, \"33\": {\"I\": 1.0}, \"34\": {\"I\": 1.0}, \"35\": {\"Rb\": 1.0}, \"36\": {\"Sn\": 1.0}, \"37\": {\"I\": 1.0}, \"38\": {\"I\": 1.0}, \"39\": {\"I\": 1.0}}" candidate_id=438a766ee2bceb07 formula=RbGe0.29Sn0.71I3 config_index=3 rattle_stdev=0.08 method=PBE fidelity=phase2_force energy=-109.59038383286362 stress="-0.0030007820596819504 0.00020524033535127532 4.968709028563696e-05 0.00020524033535127532 -0.003067606214294735 -8.696538527244828e-07 4.968709028563696e-05 -8.696538527244828e-07 -0.0023769689869316303" pbc="T T T"
Rb      12.19946644      12.32801943       0.00380516        0       0.02052932       0.06433591       0.03024103
Sn       3.05727379       3.08402813       3.15305086        1      -0.30418459      -0.30667508      -0.70146537
I        3.02175960       3.11962395      12.23797187        2       0.03184262       0.00792963      -0.06042022
I        3.18868398      12.27832682       2.97181663        3       0.03666533      -0.15460572      -0.00727369
I       12.24568251       2.94762365       2.97388960        4       0.16493261       0.04229719       0.02405902
Rb      -0.01794374      12.09863431       6.09211576        5      -0.02558378       0.01499604      -0.01919080
Sn       3.09734115       2.87288287       9.09523977        6      -0.00150886       0.28221910       0.51680775
I        3.01934867       2.88155626       6.05562477        7      -0.04539843      -0.03328966       0.36917937
I        3.12937729      12.10374530       9.16562967        8      -0.05844331       0.62081457       0.03402975
I       -0.11500507       2.98213512       9.41019766        9       0.42856247       0.02530992      -0.00695972
Rb      -0.03814223       6.36884380      -0.14439506       10       0.02549619      -0.06103199      -0.02140956
Sn       3.03699031       9.13593521       3.01186986       11      -0.02214599       0.34413719      -0.05103055
I        3.18875297       9.21346969      12.15548265       12      -0.07515300      -0.04356677       0.60676829
I        3.06328048       6.11317823       3.19741690       13      -0.02331718       0.17466594       0.03193262
I       12.07277254       9.28457731       3.04875818       14       1.16989303      -0.11088537       0.03256738
Rb      12.24445408       6.31087279       6.09999168       15      -0.03188456       0.00662567       0.00202284
Ge       3.12050312       9.26250360       9.19915922       16      -0.06440577      -0.56043242      -0.01356679
I        3.20253900       9.24923874       6.34207385       17      -0.02651964       0.01019186      -0.59259095
I        3.13480593       6.31165754       9.18243796       18      -0.02135005      -0.35452506      -0.03197393
I        0.08462439       9.10510575       9.22288513       19      -0.25179450       0.03761826       0.01384881
Rb       6.24847967      12.14544538      -0.05214397       20      -0.03428381       0.00960505       0.00751826
Sn       9.07713952       2.95407439       3.04486162       21       0.42259956       0.21252951       0.02673160
I        9.19570398       3.13418374       0.05658663       22      -0.07136052      -0.02690809      -0.21975426
I        9.42064935      12.19246944       2.99521679       23      -0.13543935      -0.06400860       0.02468324
I        6.12227506       3.14497649       3.11583620       24      -0.16892362      -0.01968820       0.02649088
Rb       6.17486602      12.20844647       6.17798430       25       0.00108796      -0.02758790       0.00726145
Sn       9.24703335       3.04607107       9.17142104       26      -0.12552214      -0.05147920       0.01885177
I        9.35239134       3.00826270       6.11868416       27       0.00436136       0.00425921       0.16377534
I        9.23556659      12.43063902       9.13451547       28      -0.03543500      -0.97971237       0.06725252
I        6.11549220       3.04342717       9.27360939       29      -0.17047415      -0.03727585      -0.05713422
Rb       6.10639539       6.30281047       0.06937641       30      -0.00990877      -0.03019737      -0.02882725
Ge       9.26205516       9.21379616       3.13673493       31      -0.16963076      -0.18096117       0.14239345
I        9.24687283       9.19671470       0.14489790       32       0.03782612      -0.02334297      -0.14789669
I        9.15717258       6.14378196       3.21568621       33       0.09171697       0.09458633       0.00110186
I        6.47869257       9.17799692       3.01460554       34      -1.03530204       0.05375196       0.02169603
Rb       6.23701435       6.38876772       6.16222481       35       0.01575052       0.02368984       0.00826871
Sn       9.22986192       9.17593322       9.37896638       36       0.08652972       0.01458111      -0.20676845
I        9.19280977       9.20739620       6.17302276       37       0.01794497       0.02253032      -0.01758473
I        9.17657516       5.98616329       9.27729060       38      -0.01117114       0.97362808      -0.00026463
I        6.01805797       9.24849412       9.31657461       39       0.37769546       0.01146691      -0.00238040
