Cs Sn I  Cs Pb I  Cs Sn I  Cs Sn I  Cs Sn I  Cs Sn I  Cs Sn I  Cs Sn I 
 1.0000000000000000
    13.5259627746049915    0.0000000000000000    0.0000000000000000
     0.0000000000000000   13.5259627746049915    0.0000000000000000
     0.0000000000000000    0.0000000000000000   13.5259627746049915
 Cs  Sn  I   Cs  Pb  I   Cs  Sn  I   Cs  Sn  I   Cs  Sn  I   Cs  Sn  I   Cs  Sn  I   Cs  Sn  I  
   1   1   3   1   1   3   1   1   3   1   1   3   1   1   3   1   1   3   1   1   3   1   1   3
Cartesian
  0.0000000000000000  0.0000000000000000  0.0000000000000000
  3.3814906936512479  3.3814906936512479  3.3814906936512479
  3.3814906936512479  3.3814906936512479  0.0000000000000000
  3.3814906936512479  0.0000000000000000  3.3814906936512479
  0.0000000000000000  3.3814906936512479  3.3814906936512479
  0.0000000000000000  0.0000000000000000  6.7629813873024949
  3.3814906936512479  3.3814906936512479 10.1444720809537436
  3.3814906936512479  3.3814906936512479  6.7629813873024949
  3.3814906936512479  0.0000000000000000 10.1444720809537436
  0.0000000000000000  3.3814906936512479 10.1444720809537436
  0.0000000000000000  6.7629813873024949  0.0000000000000000
  3.3814906936512479 10.1444720809537436  3.3814906936512479
  3.3814906936512479 10.1444720809537436  0.0000000000000000
  3.3814906936512479  6.7629813873024949  3.3814906936512479
  0.0000000000000000 10.1444720809537436  3.3814906936512479
  0.0000000000000000  6.7629813873024949  6.7629813873024949
  3.3814906936512479 10.1444720809537436 10.1444720809537436
  3.3814906936512479 10.1444720809537436  6.7629813873024949
  3.3814906936512479  6.7629813873024949 10.1444720809537436
  0.0000000000000000 10.1444720809537436 10.1444720809537436
  6.7629813873024949  0.0000000000000000  0.0000000000000000
 10.1444720809537436  3.3814906936512479  3.3814906936512479
 10.1444720809537436  3.3814906936512479  0.0000000000000000
 10.1444720809537436  0.0000000000000000  3.3814906936512479
  6.7629813873024949  3.3814906936512479  3.3814906936512479
  6.7629813873024949  0.0000000000000000  6.7629813873024949
 10.1444720809537436  3.3814906936512479 10.1444720809537436
 10.1444720809537436  3.3814906936512479  6.7629813873024949
 10.1444720809537436  0.0000000000000000 10.1444720809537436
  6.7629813873024949  3.3814906936512479 10.1444720809537436
  6.7629813873024949  6.7629813873024949  0.0000000000000000
 10.1444720809537436 10.1444720809537436  3.3814906936512479
 10.1444720809537436 10.1444720809537436  0.0000000000000000
 10.1444720809537436  6.7629813873024949  3.3814906936512479
  6.7629813873024949 10.1444720809537436  3.3814906936512479
  6.7629813873024949  6.7629813873024949  6.7629813873024949
 10.1444720809537436 10.1444720809537436 10.1444720809537436
 10.1444720809537436 10.1444720809537436  6.7629813873024949
 10.1444720809537436  6.7629813873024949 10.1444720809537436
  6.7629813873024949 10.1444720809537436 10.1444720809537436
