Cs Pb I  Cl Cs Pb Cl Cs Pb Cl I  Cs Pb Br Cl Br Cs Pb Cl Cs Pb Cl I  Cl Cs Pb Br Cl Cs Pb Cl
 1.0000000000000000
    12.2699997098614464    0.0000000000000000    0.0000000000000000
     0.0000000000000000   12.2699997098614464    0.0000000000000000
     0.0000000000000000    0.0000000000000000   12.2699997098614464
 Cs  Pb  I   Cl  Cs  Pb  Cl  Cs  Pb  Cl  I   Cs  Pb  Br  Cl  Br  Cs  Pb  Cl  Cs  Pb  Cl  I   Cl  Cs  Pb  Br  Cl  Cs  Pb  Cl 
   1   1   1   2   1   1   3   1   1   2   1   1   1   1   1   1   1   1   3   1   1   1   1   1   1   1   1   2   1   1   3
Cartesian
  0.0000000000000000  0.0000000000000000  0.0000000000000000
  3.0674999274653607  3.0674999274653607  3.0674999274653607
  3.0674999274653607  3.0674999274653607  0.0000000000000000
  3.0674999274653607  0.0000000000000000  3.0674999274653607
  0.0000000000000000  3.0674999274653607  3.0674999274653607
  0.0000000000000000  0.0000000000000000  6.1349998549307223
  3.0674999274653607  3.0674999274653607  9.2024997823960852
  3.0674999274653607  3.0674999274653607  6.1349998549307223
  3.0674999274653607  0.0000000000000000  9.2024997823960852
  0.0000000000000000  3.0674999274653607  9.2024997823960852
  0.0000000000000000  6.1349998549307223  0.0000000000000000
  3.0674999274653607  9.2024997823960852  3.0674999274653607
  3.0674999274653607  9.2024997823960852  0.0000000000000000
  3.0674999274653607  6.1349998549307223  3.0674999274653607
  0.0000000000000000  9.2024997823960852  3.0674999274653607
  0.0000000000000000  6.1349998549307223  6.1349998549307223
  3.0674999274653607  9.2024997823960852  9.2024997823960852
  3.0674999274653607  9.2024997823960852  6.1349998549307223
  3.0674999274653607  6.1349998549307223  9.2024997823960852
  0.0000000000000000  9.2024997823960852  9.2024997823960852
  6.1349998549307223  0.0000000000000000  0.0000000000000000
  9.2024997823960852  3.0674999274653607  3.0674999274653607
  9.2024997823960852  3.0674999274653607  0.0000000000000000
  9.2024997823960852  0.0000000000000000  3.0674999274653607
  6.1349998549307223  3.0674999274653607  3.0674999274653607
  6.1349998549307223  0.0000000000000000  6.1349998549307223
  9.2024997823960852  3.0674999274653607  9.2024997823960852
  9.2024997823960852  3.0674999274653607  6.1349998549307223
  9.2024997823960852  0.0000000000000000  9.2024997823960852
  6.1349998549307223  3.0674999274653607  9.2024997823960852
  6.1349998549307223  6.1349998549307223  0.0000000000000000
  9.2024997823960852  9.2024997823960852  3.0674999274653607
  9.2024997823960852  9.2024997823960852  0.0000000000000000
  9.2024997823960852  6.1349998549307223  3.0674999274653607
  6.1349998549307223  9.2024997823960852  3.0674999274653607
  6.1349998549307223  6.1349998549307223  6.1349998549307223
  9.2024997823960852  9.2024997823960852  9.2024997823960852
  9.2024997823960852  9.2024997823960852  6.1349998549307223
  9.2024997823960852  6.1349998549307223  9.2024997823960852
  6.1349998549307223  9.2024997823960852  9.2024997823960852
