Cs Pb Cl Cs Pb Cl Cs Pb Cl Cs Pb Cl Cs Pb Cl Cs Pb Cl Cs Ge Cl Cs Pb Cl
 1.0000000000000000
    11.7699337942063202    0.0000000000000000    0.0000000000000000
     0.0000000000000000   11.7699337942063202    0.0000000000000000
     0.0000000000000000    0.0000000000000000   11.7699337942063202
 Cs  Pb  Cl  Cs  Pb  Cl  Cs  Pb  Cl  Cs  Pb  Cl  Cs  Pb  Cl  Cs  Pb  Cl  Cs  Ge  Cl  Cs  Pb  Cl 
   1   1   3   1   1   3   1   1   3   1   1   3   1   1   3   1   1   3   1   1   3   1   1   3
Cartesian
  0.0000000000000000  0.0000000000000000  0.0000000000000000
  2.9424834485515801  2.9424834485515801  2.9424834485515801
  2.9424834485515801  2.9424834485515801  0.0000000000000000
  2.9424834485515801  0.0000000000000000  2.9424834485515801
  0.0000000000000000  2.9424834485515801  2.9424834485515801
  0.0000000000000000  0.0000000000000000  5.8849668971031592
  2.9424834485515801  2.9424834485515801  8.8274503456547393
  2.9424834485515801  2.9424834485515801  5.8849668971031592
  2.9424834485515801  0.0000000000000000  8.8274503456547393
  0.0000000000000000  2.9424834485515801  8.8274503456547393
  0.0000000000000000  5.8849668971031592  0.0000000000000000
  2.9424834485515801  8.8274503456547393  2.9424834485515801
  2.9424834485515801  8.8274503456547393  0.0000000000000000
  2.9424834485515801  5.8849668971031592  2.9424834485515801
  0.0000000000000000  8.8274503456547393  2.9424834485515801
  0.0000000000000000  5.8849668971031592  5.8849668971031592
  2.9424834485515801  8.8274503456547393  8.8274503456547393
  2.9424834485515801  8.8274503456547393  5.8849668971031592
  2.9424834485515801  5.8849668971031592  8.8274503456547393
  0.0000000000000000  8.8274503456547393  8.8274503456547393
  5.8849668971031592  0.0000000000000000  0.0000000000000000
  8.8274503456547393  2.9424834485515801  2.9424834485515801
  8.8274503456547393  2.9424834485515801  0.0000000000000000
  8.8274503456547393  0.0000000000000000  2.9424834485515801
  5.8849668971031592  2.9424834485515801  2.9424834485515801
  5.8849668971031592  0.0000000000000000  5.8849668971031592
  8.8274503456547393  2.9424834485515801  8.8274503456547393
  8.8274503456547393  2.9424834485515801  5.8849668971031592
  8.8274503456547393  0.0000000000000000  8.8274503456547393
  5.8849668971031592  2.9424834485515801  8.8274503456547393
  5.8849668971031592  5.8849668971031592  0.0000000000000000
  8.8274503456547393  8.8274503456547393  2.9424834485515801
  8.8274503456547393  8.8274503456547393  0.0000000000000000
  8.8274503456547393  5.8849668971031592  2.9424834485515801
  5.8849668971031592  8.8274503456547393  2.9424834485515801
  5.8849668971031592  5.8849668971031592  5.8849668971031592
  8.8274503456547393  8.8274503456547393  8.8274503456547393
  8.8274503456547393  8.8274503456547393  5.8849668971031592
  8.8274503456547393  5.8849668971031592  8.8274503456547393
  5.8849668971031592  8.8274503456547393  8.8274503456547393
