Cs Sn I  Cs Sn I  Cs Sn Cl I  Cs Sn I  Cs Sn I  Cl Cs Sn I  Cs Sn I  Cl I  Cs Sn I 
 1.0000000000000000
    13.3534287199954740    0.0000000000000000    0.0000000000000000
     0.0000000000000000   13.3534287199954740    0.0000000000000000
     0.0000000000000000    0.0000000000000000   13.3534287199954740
 Cs  Sn  I   Cs  Sn  I   Cs  Sn  Cl  I   Cs  Sn  I   Cs  Sn  I   Cl  Cs  Sn  I   Cs  Sn  I   Cl  I   Cs  Sn  I  
   1   1   3   1   1   3   1   1   1   2   1   1   3   1   1   2   1   1   1   3   1   1   1   1   1   1   1   3
Cartesian
  0.0000000000000000  0.0000000000000000  0.0000000000000000
  3.3383571799988685  3.3383571799988685  3.3383571799988685
  3.3383571799988685  3.3383571799988685  0.0000000000000000
  3.3383571799988685  0.0000000000000000  3.3383571799988685
  0.0000000000000000  3.3383571799988685  3.3383571799988685
  0.0000000000000000  0.0000000000000000  6.6767143599977361
  3.3383571799988685  3.3383571799988685 10.0150715399966046
  3.3383571799988685  3.3383571799988685  6.6767143599977361
  3.3383571799988685  0.0000000000000000 10.0150715399966046
  0.0000000000000000  3.3383571799988685 10.0150715399966046
  0.0000000000000000  6.6767143599977361  0.0000000000000000
  3.3383571799988685 10.0150715399966046  3.3383571799988685
  3.3383571799988685 10.0150715399966046  0.0000000000000000
  3.3383571799988685  6.6767143599977361  3.3383571799988685
  0.0000000000000000 10.0150715399966046  3.3383571799988685
  0.0000000000000000  6.6767143599977361  6.6767143599977361
  3.3383571799988685 10.0150715399966046 10.0150715399966046
  3.3383571799988685 10.0150715399966046  6.6767143599977361
  3.3383571799988685  6.6767143599977361 10.0150715399966046
  0.0000000000000000 10.0150715399966046 10.0150715399966046
  6.6767143599977361  0.0000000000000000  0.0000000000000000
 10.0150715399966046  3.3383571799988685  3.3383571799988685
 10.0150715399966046  3.3383571799988685  0.0000000000000000
 10.0150715399966046  0.0000000000000000  3.3383571799988685
  6.6767143599977361  3.3383571799988685  3.3383571799988685
  6.6767143599977361  0.0000000000000000  6.6767143599977361
 10.0150715399966046  3.3383571799988685 10.0150715399966046
 10.0150715399966046  3.3383571799988685  6.6767143599977361
 10.0150715399966046  0.0000000000000000 10.0150715399966046
  6.6767143599977361  3.3383571799988685 10.0150715399966046
  6.6767143599977361  6.6767143599977361  0.0000000000000000
 10.0150715399966046 10.0150715399966046  3.3383571799988685
 10.0150715399966046 10.0150715399966046  0.0000000000000000
 10.0150715399966046  6.6767143599977361  3.3383571799988685
  6.6767143599977361 10.0150715399966046  3.3383571799988685
  6.6767143599977361  6.6767143599977361  6.6767143599977361
 10.0150715399966046 10.0150715399966046 10.0150715399966046
 10.0150715399966046 10.0150715399966046  6.6767143599977361
 10.0150715399966046  6.6767143599977361 10.0150715399966046
  6.6767143599977361 10.0150715399966046 10.0150715399966046
