40
Lattice="12.467485024683553 0.0 0.0 0.004970303880987415 12.467484033949361 0.0 -0.001779787947386139 0.0017804976214575291 12.426445437396868" Properties=species:S:1:pos:R:3:spacegroup_kinds:I:1:forces:R:3 spacegroup="P 1" unit_cell=conventional candidate_id=575f4314922c30b9 formula=FASnCl0.12I0.883 config_index=0 rattle_stdev=0.0 method=PBE fidelity=phase2_force energy=-115.40937607617946 stress="-0.0002499184807871677 -4.880708174864048e-05 1.422567738283864e-05 -4.880708174864048e-05 -0.000249879565794035 -1.4231349740884577e-05 1.422567738283864e-05 -1.4231349740884577e-05 -0.00017776372813179794" pbc="T T T"
Cs       0.00901996      12.46343277       0.04339718        0      -0.01599068       0.01599706      -0.00664990
Sn       3.48106634       3.11931644       3.09096458        1      -0.19183136      -0.00078585       0.00064685
I        3.22105047       3.11352224       0.02058984        2      -0.01813308      -0.00570867      -0.12240041
I        3.21767583      12.45206567       2.98568633        3      -0.00988744      -0.01972539      -0.00514041
I       12.24092167       3.24496054       3.10957775        4       0.06848866       0.04026085      -0.00009594
Cs       0.06091122      12.41152081       6.16856653        5       0.00491836      -0.00492032       0.00694409
Sn       3.12840313       3.11628369       9.33554480        6       0.02078282      -0.00808486       0.00460906
I        3.20947258       3.11836935       6.18365722        7      -0.01310420      -0.00438302       0.12403515
I        3.11758215      12.45039094       9.45154328        8      -0.00308785       0.07209881       0.00617465
I        0.00976590       3.11631860       9.32196111        9       0.00020471      -0.00293787      -0.00379217
Cs       0.03041960       6.21946584       0.01917131       10      -0.01396517      -0.01788604      -0.00652910
Sn       3.13852193       9.33268293       2.79110338       11       0.01583001      -0.01583633       0.24133732
Cl       3.12576445       9.34544550       0.01131286       12      -0.00196639       0.00196717       0.00485109
I        3.20683632       6.22308463       2.98443957       13      -0.01020135       0.02197415      -0.00233283
I        0.01910789       9.25477262       2.98568633       14       0.01972933       0.00987958      -0.00514041
Cs       0.08211738       6.27641948       6.18694715       15       0.00704397       0.00220969       0.00488196
Sn       3.11880365       9.35240908       9.62994024       16      -0.00575773       0.00576003      -0.25101647
I        3.11873991       9.35247284       6.22101000       17      -0.00087563       0.00087598       0.00691150
I        3.12204425       6.25372319       9.45173813       18      -0.00641317      -0.07439684       0.00363626
I        0.02082251       9.35486562       9.45154328       19      -0.07209757       0.00311659       0.00617465
Cs       6.25297785      12.43954390       0.01917131       20       0.01789161       0.01395803      -0.00652910
Sn       9.24858683       3.22018170       3.11098183       21       0.12463081      -0.12468051       0.00793106
I        9.26796496       3.20079585       0.02520461       22      -0.03215065       0.03216347      -0.16062798
I        9.22261506       0.22785698       3.10957775       23      -0.04028815      -0.06847261      -0.00009594
Cl       6.02523804       3.16957914       3.09923180       24       0.10865297       0.01468118       0.00137859
Cs       6.19600361      12.38786883       6.18694715       25      -0.00221250      -0.00704309       0.00488196
Sn       9.33972451       3.12900768       9.31485835       26       0.01149081      -0.01149539      -0.00959938
I        9.26656744       3.20219392       6.18832756       27      -0.03723502       0.03724987       0.16178238
I        9.35613308      12.45896049       9.32196111       28       0.00293779      -0.00020588      -0.00379217
I        6.23982953       3.12300348       9.31759873       29      -0.01184560      -0.00769634      -0.00684819
Cs       6.23261618       6.23735494       0.00080789       30       0.01365561      -0.01366105      -0.01369635
Sn       9.35175137       8.98766153       3.09096458       31       0.00086233       0.19183103       0.00064685
I        9.35764923       9.24767506       0.02058984       32       0.00571590       0.01813081      -0.12240041
Cl       9.30047441       6.44351006       3.09923180       33      -0.01472450      -0.10864711       0.00137859
I        6.24809275       9.26312888       2.98443957       34      -0.02197008       0.01021011      -0.00233283
Cs       6.17562986       6.29436399       6.20031335       35      -0.00696851       0.00697129       0.01311546
Sn       9.35492471       9.34032350       9.33554480       36       0.00807658      -0.02078604       0.00460906
I        9.35280674       9.25925488       6.18365722       37       0.00438824       0.01310245       0.12403515
I        9.34696452       6.22890002       9.31759873       38       0.00770106       0.01184253      -0.00684819
I        6.21748800       9.34793315       9.45173813       39       0.07439939       0.00638351       0.00363626
40
Lattice="12.467485024683553 0.0 0.0 0.004970303880987415 12.467484033949361 0.0 -0.001779787947386139 0.0017804976214575291 12.426445437396868" Properties=species:S:1:pos:R:3:spacegroup_kinds:I:1:forces:R:3 spacegroup="P 1" unit_cell=conventional candidate_id=575f4314922c30b9 formula=FASnCl0.12I0.883 config_index=1 rattle_stdev=0.08 method=PBE fidelity=phase2_force energy=-114.86813268338496 stress="-0.0017311329572133182 -0.00010928293053133893 3.275850481225846e-05 -0.00010928293053133893 -0.0017498598056201655 -9.401506003895162e-05 3.275850481225846e-05 -9.401506003895162e-05 -0.0023126368345171094" pbc="T T T"
Cs      -0.07789575      12.39174756       0.01889323        0      -0.04712123       0.05516129       0.02308872
Sn       3.37387164       3.02278959       3.03962644        1       0.45747629       0.30264815       0.24527867
I        3.32568612       3.26115907       0.08691904        2      -0.07911273      -0.09096210      -0.19781407
I        3.21581192      12.43538055       2.91235675        3      -0.02139430       0.01373350       0.00035086
I       12.15494226       3.23806907       3.20364483        4       0.82600663       0.08877831       0.03550892
Cs      -0.06989612      12.50977633       6.25467743        5       0.04111224       0.03067932      -0.03742542
Sn       3.15998496       3.08526763       9.38261694        6       0.10514136      -0.02385681      -0.20706885
I        3.09480867       3.09248337       6.28389600        7       0.02800810       0.00915365      -0.01143008
I        3.05912274      12.56466975       9.52711560        8      -0.01374760      -0.36140474       0.01503349
I       -0.01135432       3.10326154       9.24483253        9       0.07217379       0.01147670       0.02038767
Cs       0.00300781       6.22337817      -0.02079925       10      -0.04032635      -0.05154094       0.01370869
Sn       2.96156957       9.35746988       2.66393128       11       0.78872290      -0.29546140       0.06836625
Cl       3.18412081       9.33681340      -0.04070086       12      -0.09828830       0.01803675       0.00264301
I        3.07139180       6.19360671       2.85720983       13      -0.01831086       0.09207950       0.08942600
I        0.13754835       9.29272784       3.05879543       14      -0.70960716       0.03414272       0.02375807
Cs       0.15895500       6.28318289       6.32432562       15       0.03269258      -0.03388663      -0.01623898
Sn       3.18695506       9.29201825       9.44692989       16       0.23228557       0.09909816      -0.23518267
I        3.12747901       9.31646019       6.18797221       17      -0.01005732      -0.00022561       0.22072103
I        3.14756295       6.21043455       9.52763145       18      -0.03252590       0.29596588      -0.03739351
I        0.03293732       9.36101782       9.44679125       19       0.16746789       0.01808187      -0.01237344
Cs       6.24736676      12.39425197       0.04405174       20       0.04214679       0.03120620       0.02110758
Sn       9.30652354       3.26149770       3.19306429       21      -0.55316559      -0.19914744      -0.56519882
I        9.30957717       3.13120876       0.14524982       22      -0.00684803       0.09493157      -0.56576667
I        9.31593283       0.26721013       3.05099677       23      -0.06775508      -0.18172962       0.14874114
Cl       6.07966253       3.21029889       3.03222891       24      -0.52381561      -0.03668168       0.05383221
Cs       6.24781520      12.38887199       6.31171428       25      -0.03078462       0.00019824      -0.03318880
Sn       9.42249214       3.15602309       9.21064952       26      -0.14098269       0.24255880       0.27295814
I        9.17708390       3.30695513       6.14687020       27      -0.06945771      -0.01085249       0.65655705
I        9.32468314      12.54239797       9.32793833       28       0.03764519      -0.17305087      -0.05161647
I        6.24698449       3.12731607       9.35107449       29      -0.05255282      -0.01142216      -0.01850102
Cs       6.13439777       6.15019162       0.02617784       30       0.07110081      -0.00319751       0.03648883
Sn       9.28931893       8.91917104       2.98537487       31      -0.15055611       0.65095145       0.26524990
I        9.39395176       9.32781705       0.13368862       32       0.01708840       0.00092124      -0.43073502
Cl       9.28525978       6.44591890       2.94935847       33      -0.01209079      -0.48106326      -0.03471758
I        6.23875060       9.25292965       3.05661431       34       0.18848110      -0.04944621       0.01723593
Cs       6.07048008       6.28639993       6.21155734       35      -0.02234118      -0.01024070      -0.00941348
Sn       9.56522918       9.48078580       9.12469297       36      -0.46871080      -0.27944624       0.72584751
I        9.24987518       9.24551711       6.32769352       37       0.05264035       0.07309223      -0.61210490
I        9.39566017       6.23142206       9.20028576       38       0.02113269       0.15210999       0.08280253
I        6.24224326       9.43931057       9.41087059       39      -0.01873266      -0.01447259       0.03984339
40
Lattice="12.467485024683553 0.0 0.0 0.004970303880987415 12.467484033949361 0.0 -0.001779787947386139 0.0017804976214575291 12.426445437396868" Properties=species:S:1:pos:R:3:spacegroup_kinds:I:1:forces:R:3 spacegroup="P 1" unit_cell=conventional candidate_id=575f4314922c30b9 formula=FASnCl0.12I0.883 config_index=2 rattle_stdev=0.08 method=PBE fidelity=phase2_force energy=-114.96277751765348 stress="0.0001376545547998274 0.00023131509629289583 7.751495759021798e-05 0.00023131509629289583 -0.0021904794121661835 6.078535984908737e-05 7.751495759021798e-05 6.078535984908737e-05 -0.0009540725494929816" pbc="T T T"
Cs       0.00000292      12.37730765       0.18619933        0      -0.00436654       0.03382803      -0.06239379
Sn       3.36450767       3.09321077       2.99017286        1       0.13466937       0.38593971       0.21648169
I        3.25111979       3.04327045      -0.00740822        2      -0.03828507       0.04965013      -0.13977817
I        3.24140864      12.54813862       2.86016671        3      -0.04933157      -0.61267474       0.04017751
I       12.38924397       3.28447749       3.09912083        4      -0.28672613      -0.03228965      -0.04089139
Cs       0.02866156      12.33362783       6.13116919        5      -0.00004904      -0.00427700       0.04200412
Sn       3.07096941       3.21399516       9.27336880        6       0.38522782      -0.00557222      -0.07086018
I        3.16239053       3.11375984       6.19002361        7      -0.00363036      -0.07443626       0.06468290
I        3.02292606      12.32649155       9.52452378        8       0.00331446       0.52869658       0.02221913
I        0.04277956       3.06065708       9.13885936        9      -0.14117211       0.01948380       0.04005649
Cs      -0.03255972       6.13718451       0.02663596       10       0.04224061      -0.01849438      -0.02180648
Sn       3.09618640       9.39510252       2.77503820       11       0.25937314      -0.23485041       0.24549786
Cl       3.08731576       9.26262453      -0.02890589       12       0.00382540       0.02954058       0.31010346
I        3.27002753       6.14908482       3.16124239       13      -0.06150451       0.47931734      -0.08811707
I       -0.09291101       9.23564483       3.00307358       14       0.52846251       0.01528899       0.01913943
Cs       0.05392655       6.28328953       6.19547931       15       0.01641865      -0.00370771       0.00817784
Sn       3.10304115       9.46016379       9.65755415       16      -0.04860306      -0.45985719      -0.35591966
I        3.16335147       9.30485002       6.27963658       17      -0.04283137       0.09150202      -0.17388678
I        3.22854447       6.19532055       9.41287766       18      -0.04975462      -0.11557744       0.00679743
I        0.10697565       9.14723703       9.46489754       19      -0.14583627       0.01760699       0.02005884
Cs       6.33609462      12.29485799       0.07986258       20      -0.00389591       0.06120264      -0.06006415
Sn       9.20857781       3.03263825       3.10234842       21       0.20772528       0.41128993       0.17209224
I        9.14774194       3.23989814      -0.01904967       22       0.03937787       0.05269465      -0.00905123
I        9.30721566       0.15831155       3.10357046       23      -0.01306270      -0.34619062      -0.01000670
Cl       6.01666565       3.33748490       3.07198877       24       0.03944921      -0.12015219      -0.04716091
Cs       6.15377120      12.28429948       6.20407507       25       0.01129276      -0.00320633       0.02695429
Sn       9.42982608       3.16113055       9.37610517       26      -0.35295593      -0.06099956      -0.19977444
I        9.15831724       3.24810260       6.17071659       27       0.00276010      -0.02732861       0.02303542
I        9.40774820      12.37858294       9.47394020       28       0.02792931       0.42492422       0.00659914
I        6.25717840       3.16300111       9.26747145       29       0.05398516      -0.07143850       0.00300493
Cs       6.15238544       6.17485012       0.01715011       30      -0.01562836      -0.05022098       0.02002433
Sn       9.39463873       8.90166173       2.91353620       31      -0.42936016       0.33925142       0.69509076
I        9.40940365       9.22188820       0.00678471       32       0.00471376      -0.03304076      -0.13659697
Cl       9.11740067       6.43454655       3.17565691       33       0.04796456      -0.34397331      -0.10457952
I        6.28447181       9.42808307       2.98943640       34      -0.35677713       0.02419807      -0.05733639
Cs       6.17585725       6.25807968       6.23019195       35       0.00295210      -0.01728554      -0.02435651
Sn       9.28987543       9.33219890       9.37120185       36       0.16842564       0.06679340      -0.44562390
I        9.25079645       9.26788143       6.25183618       37       0.05455918       0.09877190      -0.05272978
I        9.33441635       6.32400556       9.19981766       38       0.05791727      -0.53558725       0.05567644
I        6.28677127       9.27646198       9.40782048       39      -0.05429545       0.04986894       0.06354179
40
Lattice="12.467485024683553 0.0 0.0 0.004970303880987415 12.467484033949361 0.0 -0.001779787947386139 0.0017804976214575291 12.426445437396868" Properties=species:S:1:pos:R:3:spacegroup_kinds:I:1:forces:R:3 spacegroup="P 1" unit_cell=conventional candidate_id=575f4314922c30b9 formula=FASnCl0.12I0.883 config_index=3 rattle_stdev=0.08 method=PBE fidelity=phase2_force energy=-114.68300872715584 stress="-0.001275067729685763 -1.796599231490972e-05 3.255449084134313e-05 -1.796599231490972e-05 -0.001639426684096958 0.00022986659100206032 3.255449084134313e-05 0.00022986659100206032 -0.0009002790831039966" pbc="T T T"
Cs      -0.09666352      12.62477300       0.04720233        0       0.01420193       0.06427753       0.02606802
Sn       3.46205264       3.12604625       3.16772796        1      -0.39130341      -0.25650421      -0.69186607
I        3.16652259       3.15584787      -0.04140362        2      -0.00272197      -0.02052056      -0.17321521
I        3.33007232      12.43409123       2.88121547        3       0.00182990      -0.20379029      -0.00055501
I       12.18663885       3.11528588       3.00717987        4       0.03661864       0.15071433       0.04445022
Cs       0.04296748      12.34347593       6.10810733        5      -0.01942513       0.00871095      -0.01525830
Sn       3.14945679       2.91186825       9.20192212        6       0.04567035       0.38689976       0.47848808
I        3.15253376       2.92262730       6.08152244        7      -0.04941673      -0.03001905       0.47396122
I        3.17067195      12.34808423       9.38831051        8      -0.03766571       0.57806333      -0.00198513
I       -0.11042376       3.02115541       9.50329632        9       0.34329572       0.03303826      -0.04034951
Cs      -0.00772263       6.29119896      -0.12522375       10       0.01825394      -0.11453727       0.00406591
Sn       3.09922476       9.23672320       2.72668575       11       0.08128633       0.29409110       0.15930220
Cl       3.23822994       9.32702025      -0.04578286       12      -0.05077996      -0.05645433       0.39095754
I        3.19382931       6.16877424       3.10556898       13      -0.03970227       0.24534178       0.00688426
I       -0.12069794       9.30745499       2.95815703       14       1.00428465       0.02668370      -0.02084460
Cs       0.02142153       6.29018159       6.13436387       15      -0.01734440      -0.01154648       0.00506544
Sn       3.16301928       9.38301774       9.60023701       16      -0.12669168      -0.60378999      -0.34271942
I        3.24499143       9.36981664       6.31793733       17      -0.04312110       0.01213726      -0.17420076
I        3.18056270       6.30764288       9.40531364       18      -0.02354565      -0.30885044      -0.02311509
I        0.01287535       9.22807643       9.44556597       19      -0.20510304       0.03945651      -0.00786032
Cs       6.34888256      12.41831008      -0.03297266       20      -0.01933941       0.03646916       0.00807675
Sn       9.09686390       3.09695778       3.07955597       21       0.43136664       0.33011466       0.00292804
I        9.23480649       3.25768127       0.07660664       22      -0.10210084       0.01380104      -0.32289890
I        9.41440196       0.21427439       3.02850705       23      -0.18539746      -0.55844571       0.01427448
Cl       5.98975355       3.23725732       3.13878053       24       0.27464949      -0.00529340       0.04666822
Cs       6.21829467      12.42963610       6.21235648       25       0.01462697      -0.04917115      -0.00096350
Sn       9.35789542       3.09778044       9.25741694       26      -0.07195430      -0.11573006       0.00384453
I        9.39009633       3.13315831       6.15962135       27      -0.03189752       0.04516047       0.30612867
I        9.36283723      12.59329825       9.22761414       28      -0.02362213      -0.83556340       0.05936931
I        6.20793136       3.08913234       9.36234568       29      -0.21986091      -0.04368012      -0.06968901
Cs       6.18643660       6.24305473       0.07018430       30      -0.00417689      -0.05782343      -0.04796307
Sn       9.38494409       8.96956275       3.15141203       31      -0.15625892      -0.31862935       0.26684037
I        9.37565962       9.21249482       0.07291619       32       0.03502045       0.01821229      -0.07705216
Cl       9.22878455       6.32955416       3.23863054       33       0.05494421       0.27425959      -0.00538915
I        6.48163880       9.20923085       2.92275763       34      -0.97592834       0.08089293       0.01260212
Cs       6.26006924       6.38602103       6.20996320       35       0.00812732       0.01235447       0.01185466
Sn       9.35592418       9.28436178       9.48564873       36       0.08483648      -0.00727800      -0.27981998
I        9.31675406       9.23475614       6.29667657       37       0.01572503       0.02107594      -0.01575912
I        9.29467723       6.04757469       9.36602689       38      -0.00059223       0.92510055      -0.00636247
I        6.17554256       9.36453233       9.53945029       39       0.32448932       0.01037587       0.00692402
