Cs Pb I 
 1.0000000000000000
     6.7800226607290917    0.0000000000000000    0.0000000000000000
     0.0000000000000000    6.7800226607290917    0.0000000000000000
     0.0000000000000000    0.0000000000000000    6.7800226607290917
 Cs  Pb  I  
   1   1   3
Cartesian
  0.0000000000000000  0.0000000000000000  0.0000000000000000
  3.3900113303645458  3.3900113303645458  3.3900113303645458
  3.3900113303645458  3.3900113303645458  0.0000000000000000
  3.3900113303645458  0.0000000000000000  3.3900113303645458
  0.0000000000000000  3.3900113303645458  3.3900113303645458
