Cs Pb Br Cl Cs Pb Cl Cs Pb Cl Br Cs Pb Br Cl Br Cs Pb Cl Cs Pb Cl Br Cl Cs Pb Br Cl Cs Pb Cl
 1.0000000000000000
    12.1499329784159720    0.0000000000000000    0.0000000000000000
     0.0000000000000000   12.1499329784159720    0.0000000000000000
     0.0000000000000000    0.0000000000000000   12.1499329784159720
 Cs  Pb  Br  Cl  Cs  Pb  Cl  Cs  Pb  Cl  Br  Cs  Pb  Br  Cl  Br  Cs  Pb  Cl  Cs  Pb  Cl  Br  Cl  Cs  Pb  Br  Cl  Cs  Pb  Cl 
   1   1   1   2   1   1   3   1   1   2   1   1   1   1   1   1   1   1   3   1   1   1   1   1   1   1   1   2   1   1   3
Cartesian
  0.0000000000000000  0.0000000000000000  0.0000000000000000
  3.0374832446039930  3.0374832446039930  3.0374832446039930
  3.0374832446039930  3.0374832446039930  0.0000000000000000
  3.0374832446039930  0.0000000000000000  3.0374832446039930
  0.0000000000000000  3.0374832446039930  3.0374832446039930
  0.0000000000000000  0.0000000000000000  6.0749664892079851
  3.0374832446039930  3.0374832446039930  9.1124497338119781
  3.0374832446039930  3.0374832446039930  6.0749664892079851
  3.0374832446039930  0.0000000000000000  9.1124497338119781
  0.0000000000000000  3.0374832446039930  9.1124497338119781
  0.0000000000000000  6.0749664892079851  0.0000000000000000
  3.0374832446039930  9.1124497338119781  3.0374832446039930
  3.0374832446039930  9.1124497338119781  0.0000000000000000
  3.0374832446039930  6.0749664892079851  3.0374832446039930
  0.0000000000000000  9.1124497338119781  3.0374832446039930
  0.0000000000000000  6.0749664892079851  6.0749664892079851
  3.0374832446039930  9.1124497338119781  9.1124497338119781
  3.0374832446039930  9.1124497338119781  6.0749664892079851
  3.0374832446039930  6.0749664892079851  9.1124497338119781
  0.0000000000000000  9.1124497338119781  9.1124497338119781
  6.0749664892079851  0.0000000000000000  0.0000000000000000
  9.1124497338119781  3.0374832446039930  3.0374832446039930
  9.1124497338119781  3.0374832446039930  0.0000000000000000
  9.1124497338119781  0.0000000000000000  3.0374832446039930
  6.0749664892079851  3.0374832446039930  3.0374832446039930
  6.0749664892079851  0.0000000000000000  6.0749664892079851
  9.1124497338119781  3.0374832446039930  9.1124497338119781
  9.1124497338119781  3.0374832446039930  6.0749664892079851
  9.1124497338119781  0.0000000000000000  9.1124497338119781
  6.0749664892079851  3.0374832446039930  9.1124497338119781
  6.0749664892079851  6.0749664892079851  0.0000000000000000
  9.1124497338119781  9.1124497338119781  3.0374832446039930
  9.1124497338119781  9.1124497338119781  0.0000000000000000
  9.1124497338119781  6.0749664892079851  3.0374832446039930
  6.0749664892079851  9.1124497338119781  3.0374832446039930
  6.0749664892079851  6.0749664892079851  6.0749664892079851
  9.1124497338119781  9.1124497338119781  9.1124497338119781
  9.1124497338119781  9.1124497338119781  6.0749664892079851
  9.1124497338119781  6.0749664892079851  9.1124497338119781
  6.0749664892079851  9.1124497338119781  9.1124497338119781
