Cs Pb I  Cs Pb I  Cs Sn I  Cs Sn I  Cs Sn I  Cs Pb I  Cs Sn I  Cs Pb I 
 1.0000000000000000
    13.5385492753101122    0.0000000000000000    0.0000000000000000
     0.0000000000000000   13.5385492753101122    0.0000000000000000
     0.0000000000000000    0.0000000000000000   13.5385492753101122
 Cs  Pb  I   Cs  Pb  I   Cs  Sn  I   Cs  Sn  I   Cs  Sn  I   Cs  Pb  I   Cs  Sn  I   Cs  Pb  I  
   1   1   3   1   1   3   1   1   3   1   1   3   1   1   3   1   1   3   1   1   3   1   1   3
Cartesian
  0.0000000000000000  0.0000000000000000  0.0000000000000000
  3.3846373188275281  3.3846373188275281  3.3846373188275281
  3.3846373188275281  3.3846373188275281  0.0000000000000000
  3.3846373188275281  0.0000000000000000  3.3846373188275281
  0.0000000000000000  3.3846373188275281  3.3846373188275281
  0.0000000000000000  0.0000000000000000  6.7692746376550552
  3.3846373188275281  3.3846373188275281 10.1539119564825846
  3.3846373188275281  3.3846373188275281  6.7692746376550552
  3.3846373188275281  0.0000000000000000 10.1539119564825846
  0.0000000000000000  3.3846373188275281 10.1539119564825846
  0.0000000000000000  6.7692746376550552  0.0000000000000000
  3.3846373188275281 10.1539119564825846  3.3846373188275281
  3.3846373188275281 10.1539119564825846  0.0000000000000000
  3.3846373188275281  6.7692746376550552  3.3846373188275281
  0.0000000000000000 10.1539119564825846  3.3846373188275281
  0.0000000000000000  6.7692746376550552  6.7692746376550552
  3.3846373188275281 10.1539119564825846 10.1539119564825846
  3.3846373188275281 10.1539119564825846  6.7692746376550552
  3.3846373188275281  6.7692746376550552 10.1539119564825846
  0.0000000000000000 10.1539119564825846 10.1539119564825846
  6.7692746376550552  0.0000000000000000  0.0000000000000000
 10.1539119564825846  3.3846373188275281  3.3846373188275281
 10.1539119564825846  3.3846373188275281  0.0000000000000000
 10.1539119564825846  0.0000000000000000  3.3846373188275281
  6.7692746376550552  3.3846373188275281  3.3846373188275281
  6.7692746376550552  0.0000000000000000  6.7692746376550552
 10.1539119564825846  3.3846373188275281 10.1539119564825846
 10.1539119564825846  3.3846373188275281  6.7692746376550552
 10.1539119564825846  0.0000000000000000 10.1539119564825846
  6.7692746376550552  3.3846373188275281 10.1539119564825846
  6.7692746376550552  6.7692746376550552  0.0000000000000000
 10.1539119564825846 10.1539119564825846  3.3846373188275281
 10.1539119564825846 10.1539119564825846  0.0000000000000000
 10.1539119564825846  6.7692746376550552  3.3846373188275281
  6.7692746376550552 10.1539119564825846  3.3846373188275281
  6.7692746376550552  6.7692746376550552  6.7692746376550552
 10.1539119564825846 10.1539119564825846 10.1539119564825846
 10.1539119564825846 10.1539119564825846  6.7692746376550552
 10.1539119564825846  6.7692746376550552 10.1539119564825846
  6.7692746376550552 10.1539119564825846 10.1539119564825846
