Cs Sn I  Cs Sn I  Cs Sn Cl Br I  Cs Sn I  Br I  Cs Sn I  Cl Cs Sn I  Cs Sn I  Cl I  Cs Sn I  Br
 1.0000000000000000
    13.2049362959463004    0.0000000000000000    0.0000000000000000
     0.0000000000000000   13.2049362959463004    0.0000000000000000
     0.0000000000000000    0.0000000000000000   13.2049362959463004
 Cs  Sn  I   Cs  Sn  I   Cs  Sn  Cl  Br  I   Cs  Sn  I   Br  I   Cs  Sn  I   Cl  Cs  Sn  I   Cs  Sn  I   Cl  I   Cs  Sn  I   Br 
   1   1   3   1   1   3   1   1   1   1   1   1   1   1   1   1   1   1   2   1   1   1   3   1   1   1   1   1   1   1   2   1
Cartesian
  0.0000000000000000  0.0000000000000000  0.0000000000000000
  3.3012340739865751  3.3012340739865751  3.3012340739865751
  3.3012340739865751  3.3012340739865751  0.0000000000000000
  3.3012340739865751  0.0000000000000000  3.3012340739865751
  0.0000000000000000  3.3012340739865751  3.3012340739865751
  0.0000000000000000  0.0000000000000000  6.6024681479731493
  3.3012340739865751  3.3012340739865751  9.9037022219597262
  3.3012340739865751  3.3012340739865751  6.6024681479731493
  3.3012340739865751  0.0000000000000000  9.9037022219597262
  0.0000000000000000  3.3012340739865751  9.9037022219597262
  0.0000000000000000  6.6024681479731493  0.0000000000000000
  3.3012340739865751  9.9037022219597262  3.3012340739865751
  3.3012340739865751  9.9037022219597262  0.0000000000000000
  3.3012340739865751  6.6024681479731493  3.3012340739865751
  0.0000000000000000  9.9037022219597262  3.3012340739865751
  0.0000000000000000  6.6024681479731493  6.6024681479731493
  3.3012340739865751  9.9037022219597262  9.9037022219597262
  3.3012340739865751  9.9037022219597262  6.6024681479731493
  3.3012340739865751  6.6024681479731493  9.9037022219597262
  0.0000000000000000  9.9037022219597262  9.9037022219597262
  6.6024681479731493  0.0000000000000000  0.0000000000000000
  9.9037022219597262  3.3012340739865751  3.3012340739865751
  9.9037022219597262  3.3012340739865751  0.0000000000000000
  9.9037022219597262  0.0000000000000000  3.3012340739865751
  6.6024681479731493  3.3012340739865751  3.3012340739865751
  6.6024681479731493  0.0000000000000000  6.6024681479731493
  9.9037022219597262  3.3012340739865751  9.9037022219597262
  9.9037022219597262  3.3012340739865751  6.6024681479731493
  9.9037022219597262  0.0000000000000000  9.9037022219597262
  6.6024681479731493  3.3012340739865751  9.9037022219597262
  6.6024681479731493  6.6024681479731493  0.0000000000000000
  9.9037022219597262  9.9037022219597262  3.3012340739865751
  9.9037022219597262  9.9037022219597262  0.0000000000000000
  9.9037022219597262  6.6024681479731493  3.3012340739865751
  6.6024681479731493  9.9037022219597262  3.3012340739865751
  6.6024681479731493  6.6024681479731493  6.6024681479731493
  9.9037022219597262  9.9037022219597262  9.9037022219597262
  9.9037022219597262  9.9037022219597262  6.6024681479731493
  9.9037022219597262  6.6024681479731493  9.9037022219597262
  6.6024681479731493  9.9037022219597262  9.9037022219597262
