40
Lattice="12.198124361333056 0.0 0.0 0.0 12.196172689228566 0.0 0.0 -6.967480062286746e-14 12.198124361332933" Properties=species:S:1:pos:R:3:spacegroup_kinds:I:1:forces:R:3 spacegroup="P 1" unit_cell=conventional occupancy="_JSON {\"0\": {\"Rb\": 1.0}, \"1\": {\"Pb\": 1.0}, \"2\": {\"I\": 1.0}, \"3\": {\"I\": 1.0}, \"4\": {\"I\": 1.0}, \"5\": {\"Rb\": 1.0}, \"6\": {\"Pb\": 1.0}, \"7\": {\"I\": 1.0}, \"8\": {\"I\": 1.0}, \"9\": {\"I\": 1.0}, \"10\": {\"Rb\": 1.0}, \"11\": {\"Ge\": 1.0}, \"12\": {\"I\": 1.0}, \"13\": {\"I\": 1.0}, \"14\": {\"I\": 1.0}, \"15\": {\"Rb\": 1.0}, \"16\": {\"Ge\": 1.0}, \"17\": {\"I\": 1.0}, \"18\": {\"I\": 1.0}, \"19\": {\"I\": 1.0}, \"20\": {\"Rb\": 1.0}, \"21\": {\"Ge\": 1.0}, \"22\": {\"I\": 1.0}, \"23\": {\"I\": 1.0}, \"24\": {\"I\": 1.0}, \"25\": {\"Rb\": 1.0}, \"26\": {\"Pb\": 1.0}, \"27\": {\"I\": 1.0}, \"28\": {\"I\": 1.0}, \"29\": {\"I\": 1.0}, \"30\": {\"Rb\": 1.0}, \"31\": {\"Ge\": 1.0}, \"32\": {\"I\": 1.0}, \"33\": {\"I\": 1.0}, \"34\": {\"I\": 1.0}, \"35\": {\"Rb\": 1.0}, \"36\": {\"Ge\": 1.0}, \"37\": {\"I\": 1.0}, \"38\": {\"I\": 1.0}, \"39\": {\"I\": 1.0}}" candidate_id=2c12446fa0ad6cfc formula=RbGe0.6Pb0.4I3 config_index=0 rattle_stdev=0.0 method=PBE fidelity=phase2_force energy=-110.12679718954718 stress="-0.0027267423636716795 -2.427631116290388e-16 1.0920344834860584e-10 -2.427631116290388e-16 -0.0022422343013779014 2.299556321124786e-16 1.0920344834860584e-10 2.299556321124786e-16 -0.002726742363671735" pbc="T T T"
Rb      12.13883034      12.02014677       0.05929402        0       0.00066985       0.00145433      -0.00066985
Pb       3.04953109       3.04904317       3.04953109        1      -0.00000000       0.00000000      -0.00000000
I        3.04953109       3.04904317       0.01121695        2      -0.00000006      -0.00000000      -0.04623447
I        3.04953109      12.03735773       3.04953109        3      -0.00000000       0.23600872       0.00000000
I       12.04463733       3.04904317       3.04953109        4       0.29263936       0.00000000      -0.00000001
Rb      12.13883034      12.02014677       6.03976816        5       0.00066984       0.00145431       0.00066984
Pb       3.04953109       3.04904317       9.14859327        6      -0.00000000       0.00000000       0.00000000
I        3.04953109       3.04904317       6.08784523        7       0.00000006       0.00000000       0.04623447
I        3.04953109      12.01630968       9.14859327        8       0.00000000       0.33657741      -0.00000000
I       12.18690741       3.04904317       9.14859327        9       0.04623447      -0.00000000       0.00000006
Rb      12.13883034       6.27411226       0.05929402       10       0.00066985      -0.00145433      -0.00066985
Ge       3.04953109       9.14712952       3.04953109       11      -0.00000000      -0.00000000      -0.00000000
I        3.04953109       9.14712952       0.00565668       12      -0.00000000       0.00000000       0.01340899
I        3.04953109       6.25690130       3.04953109       13      -0.00000000      -0.23600872      -0.00000000
I       12.19307693       9.14712952       3.04953109       14      -0.04673830       0.00000000       0.00000000
Rb      12.13883034       6.27411226       6.03976816       15       0.00066984      -0.00145431       0.00066984
Ge       3.04953109       9.14712952       9.14859327       16      -0.00000000      -0.00000000       0.00000000
I        3.04953109       9.14712952       6.09340550       17       0.00000000      -0.00000000      -0.01340899
I        3.04953109       6.27794935       9.14859327       18      -0.00000000      -0.33657741       0.00000000
I       12.19246768       9.14712952       9.14859327       19      -0.01340899       0.00000000       0.00000000
Rb       6.15835620      12.02014677       0.05929402       20      -0.00066984       0.00145431      -0.00066984
Ge       9.14859327       3.04904317       3.04953109       21       0.00000000       0.00000000      -0.00000000
I        9.14859327       3.04904317       0.15348703       22       0.00000001       0.00000000      -0.29263936
I        9.14859327      12.18024642       3.04953109       23       0.00000000      -0.09917688      -0.00000000
I        6.25254921       3.04904317       3.04953109       24      -0.29263936       0.00000000       0.00000001
Rb       6.15835620      12.02014677       6.03976816       25      -0.00066985       0.00145433       0.00066985
Pb       9.14859327       3.04904317       9.14859327       26       0.00000000       0.00000000       0.00000000
I        9.14859327       3.04904317       5.94557515       27      -0.00000001       0.00000000       0.29263936
I        9.14859327      12.03735773       9.14859327       28      -0.00000000       0.23600872       0.00000000
I        6.11027913       3.04904317       9.14859327       29      -0.04623447       0.00000000      -0.00000006
Rb       6.15835620       6.27411226       0.05929402       30      -0.00066984      -0.00145431      -0.00066984
Ge       9.14859327       9.14712952       3.04953109       31      -0.00000000      -0.00000000       0.00000000
I        9.14859327       9.14712952       0.00504743       32      -0.00000000       0.00000000       0.04673830
I        9.14859327       6.11401261       3.04953109       33      -0.00000000       0.09917688       0.00000000
I        6.10410962       9.14712952       3.04953109       34       0.04673830      -0.00000000      -0.00000000
Rb       6.15835620       6.27411226       6.03976816       35      -0.00066985      -0.00145433       0.00066985
Ge       9.14859327       9.14712952       9.14859327       36       0.00000000      -0.00000000       0.00000000
I        9.14859327       9.14712952       6.09401475       37       0.00000000      -0.00000000      -0.04673830
I        9.14859327       6.25690130       9.14859327       38       0.00000000      -0.23600872       0.00000000
I        6.10471886       9.14712952       9.14859327       39       0.01340899      -0.00000000      -0.00000000
40
Lattice="12.198124361333056 0.0 0.0 0.0 12.196172689228566 0.0 0.0 -6.967480062286746e-14 12.198124361332933" Properties=species:S:1:pos:R:3:spacegroup_kinds:I:1:forces:R:3 spacegroup="P 1" unit_cell=conventional occupancy="_JSON {\"0\": {\"Rb\": 1.0}, \"1\": {\"Pb\": 1.0}, \"2\": {\"I\": 1.0}, \"3\": {\"I\": 1.0}, \"4\": {\"I\": 1.0}, \"5\": {\"Rb\": 1.0}, \"6\": {\"Pb\": 1.0}, \"7\": {\"I\": 1.0}, \"8\": {\"I\": 1.0}, \"9\": {\"I\": 1.0}, \"10\": {\"Rb\": 1.0}, \"11\": {\"Ge\": 1.0}, \"12\": {\"I\": 1.0}, \"13\": {\"I\": 1.0}, \"14\": {\"I\": 1.0}, \"15\": {\"Rb\": 1.0}, \"16\": {\"Ge\": 1.0}, \"17\": {\"I\": 1.0}, \"18\": {\"I\": 1.0}, \"19\": {\"I\": 1.0}, \"20\": {\"Rb\": 1.0}, \"21\": {\"Ge\": 1.0}, \"22\": {\"I\": 1.0}, \"23\": {\"I\": 1.0}, \"24\": {\"I\": 1.0}, \"25\": {\"Rb\": 1.0}, \"26\": {\"Pb\": 1.0}, \"27\": {\"I\": 1.0}, \"28\": {\"I\": 1.0}, \"29\": {\"I\": 1.0}, \"30\": {\"Rb\": 1.0}, \"31\": {\"Ge\": 1.0}, \"32\": {\"I\": 1.0}, \"33\": {\"I\": 1.0}, \"34\": {\"I\": 1.0}, \"35\": {\"Rb\": 1.0}, \"36\": {\"Ge\": 1.0}, \"37\": {\"I\": 1.0}, \"38\": {\"I\": 1.0}, \"39\": {\"I\": 1.0}}" candidate_id=2c12446fa0ad6cfc formula=RbGe0.6Pb0.4I3 config_index=1 rattle_stdev=0.08 method=PBE fidelity=phase2_force energy=-109.80990036910981 stress="-0.004611245809782438 -1.1154384079537414e-05 8.511387663357938e-05 -1.1154384079537414e-05 -0.0028896510246770664 4.900038309337105e-05 8.511387663357938e-05 4.900038309337105e-05 -0.004876544260763444" pbc="T T T"
Rb      12.05191463      11.94846156       0.03479007        0      -0.00359588       0.04173052       0.02325789
Pb       2.94233640       2.95251633       2.99819295        1       0.19676987       0.17443131       0.52352343
I        3.15416674       3.19668001       0.07754614        2       0.00336706       0.06024197      -0.26186539
I        3.04766719      12.02067261       2.97620151        3       0.04356668       0.28290851       0.00284614
I       11.95865793       3.04215169       3.14359817        4       0.92903652       0.01946270       0.04030912
Rb      12.00802300      12.11840229       6.12587906        5       0.03458166       0.04398565      -0.03585283
Pb       3.08111292       3.01802711       9.19566541        6       0.03455399      -0.09929319      -0.06997190
I        2.93486719       3.02315720       6.18808401        7       0.02839323       0.04343328      -0.37934392
I        2.99107168      12.13058849       9.22416558        8      -0.02629002      -0.17765055       0.01575656
I       12.16578719       3.03598611       9.07146469        9       0.36564540       0.00224758       0.03093579
Rb      12.11141855       6.27802459       0.01932347       10      -0.00476558      -0.03032722       0.02153869
Ge       2.87257873       9.17191647       2.92235899       11       0.21676611      -0.30271560      -0.26252028
I        3.10788746       9.13849742      -0.04635704       12      -0.06072444       0.03160267       0.23051163
I        2.91408657       6.22742338       2.92230135       13       0.02220418      -0.18541929       0.06949993
I       12.31151739       9.18508473       3.12264020       14      -0.39443180       0.01657442       0.01302159
Rb      12.21566796       6.28087567       6.17714663       15       0.01941313      -0.04576942      -0.01615275
Ge       3.11768251       9.08673869       8.96558293       16       0.35820783       0.12544141      -0.03573861
I        3.05827019       9.11111687       6.06036771       17       0.01473791      -0.01228228       0.19872348
I        3.07504979       6.23466072       9.22448659       18      -0.01917413       0.10188862      -0.04714073
I       12.20458249       9.15328171       9.14384124       19       0.01219168       0.04462810      -0.01875147
Rb       6.15274511      11.97485485       0.08417445       20       0.00004881       0.02638732       0.02037015
Ge       9.20652998       3.09035917       3.13161354       21      -0.47558099      -0.20926233      -0.55198572
I        9.19020548       2.97945609       0.27353224       22       0.05918369       0.01666573      -0.78690981
I        9.24191104      12.21959958       2.99095011       23      -0.02607695      -0.16837424       0.15702366
I        6.30697370       3.08976292       2.98252819       24      -0.68099592      -0.00792769       0.05324182
Rb       6.21016779      12.02114993       6.16453528       25      -0.03215987       0.01966073      -0.02144387
Pb       9.23136090       3.07605859       9.04438444       26      -0.39034794       0.28188514       0.24425460
I        9.05910973       3.15380438       5.90411779       27      -0.05279634      -0.01475441       0.84796329
I        9.11714333      12.12079521       9.15457049       28       0.02430883       0.04162531      -0.01194116
I        6.11743409       3.05335576       9.18206903       29       0.03408612       0.00242820       0.00611981
Rb       6.06013780       6.18694894       0.08466397       30      -0.00269550      -0.02747503       0.02831772
Ge       9.08616083       9.07863903       2.94394138       31      -0.35780434       0.08878749      -0.25739378
I        9.18489580       9.22727150       0.11814621       32      -0.02100546      -0.06298473       0.15317738
I        9.13337864       6.11642145       2.89965775       33       0.04470692       0.28602144       0.04531970
I        6.09476746       9.13693029       3.12170583       34       0.49267772      -0.01313195      -0.01109578
Rb       6.05320643       6.26614821       6.05101214       35      -0.00398456      -0.02851193      -0.00818472
Ge       9.35889775       9.28759182       8.93774145       36      -0.15937472      -0.36126448       0.22583857
I        9.04566171       9.13339174       6.23805104       37       0.11953749       0.09009455      -0.38995868
I        9.19728892       6.25942335       9.03128030       38      -0.00183578      -0.07658280       0.09275514
I        6.12947412       9.23850694       9.10772574       39      -0.32832307      -0.03447937       0.03225065
40
Lattice="12.198124361333056 0.0 0.0 0.0 12.196172689228566 0.0 0.0 -6.967480062286746e-14 12.198124361332933" Properties=species:S:1:pos:R:3:spacegroup_kinds:I:1:forces:R:3 spacegroup="P 1" unit_cell=conventional occupancy="_JSON {\"0\": {\"Rb\": 1.0}, \"1\": {\"Pb\": 1.0}, \"2\": {\"I\": 1.0}, \"3\": {\"I\": 1.0}, \"4\": {\"I\": 1.0}, \"5\": {\"Rb\": 1.0}, \"6\": {\"Pb\": 1.0}, \"7\": {\"I\": 1.0}, \"8\": {\"I\": 1.0}, \"9\": {\"I\": 1.0}, \"10\": {\"Rb\": 1.0}, \"11\": {\"Ge\": 1.0}, \"12\": {\"I\": 1.0}, \"13\": {\"I\": 1.0}, \"14\": {\"I\": 1.0}, \"15\": {\"Rb\": 1.0}, \"16\": {\"Ge\": 1.0}, \"17\": {\"I\": 1.0}, \"18\": {\"I\": 1.0}, \"19\": {\"I\": 1.0}, \"20\": {\"Rb\": 1.0}, \"21\": {\"Ge\": 1.0}, \"22\": {\"I\": 1.0}, \"23\": {\"I\": 1.0}, \"24\": {\"I\": 1.0}, \"25\": {\"Rb\": 1.0}, \"26\": {\"Pb\": 1.0}, \"27\": {\"I\": 1.0}, \"28\": {\"I\": 1.0}, \"29\": {\"I\": 1.0}, \"30\": {\"Rb\": 1.0}, \"31\": {\"Ge\": 1.0}, \"32\": {\"I\": 1.0}, \"33\": {\"I\": 1.0}, \"34\": {\"I\": 1.0}, \"35\": {\"Rb\": 1.0}, \"36\": {\"Ge\": 1.0}, \"37\": {\"I\": 1.0}, \"38\": {\"I\": 1.0}, \"39\": {\"I\": 1.0}}" candidate_id=2c12446fa0ad6cfc formula=RbGe0.6Pb0.4I3 config_index=2 rattle_stdev=0.08 method=PBE fidelity=phase2_force energy=-109.74035868609829 stress="-0.0037201887394764516 7.240782517754692e-05 8.478820451099993e-05 7.240782517754692e-05 -0.004101292447152833 -4.863596636852407e-05 8.478820451099993e-05 -4.863596636852407e-05 -0.00362280800988955" pbc="T T T"
Rb      12.12981329      11.93402165       0.20209618        0       0.01913332       0.00685304      -0.04968152
Pb       2.93297243       3.02293751       2.94873937        1       0.49796577       0.24238325       0.33126803
I        3.07960041       2.97879138      -0.01678111        2       0.00708510      -0.00187571      -0.20963273
I        3.07326391      12.13343068       2.92401147        3      -0.02355494      -0.40772476       0.04514516
I       12.19295963       3.08856012       3.03907418        4      -0.65060870       0.04370220      -0.02825523
Rb      12.10658068      11.94225379       6.00237081        5      -0.01610471      -0.00673039       0.04750239
Pb       2.99209737       3.14675464       9.08641727        6       0.56013604       0.14906528       0.10716098
I        3.00244904       3.04443366       6.09421162        7       0.04936861      -0.11327168      -0.24462379
I        2.95487501      11.89241028       9.22157376        8       0.00320063       1.01235740       0.00182079
I       12.21992107       2.99338165       8.96549152        9      -0.17606681      -0.04536120      -0.03969738
Rb      12.07585102       6.19183093       0.06675867       10       0.02636205       0.00940704      -0.01752401
Ge       3.00719556       9.20954911       3.03346591       11       0.22178189      -0.21695762      -0.00447937
I        3.01108240       9.06430855      -0.03456207       12       0.02245603      -0.05059412       0.37106517
I        3.11272231       6.18290149       3.22633392       13      -0.00017103       0.30935044      -0.06052728
I       12.08105803       9.12800173       3.06691834       14       0.33671882      -0.03230004       0.02130964
Rb      12.11063951       6.28098231       6.04830031       15       0.00694935      -0.00179569       0.02409767
Ge       3.03376859       9.25488423       9.17620719       16      -0.24678745      -0.61423636      -0.07839269
I        3.09414264       9.09950670       6.15203208       17      -0.02780141       0.10536807      -0.30269491
I        3.15603130       6.21954672       9.10973281       18       0.01047787      -0.40188449       0.03141425
I       12.27862082       8.93950092       9.16194753       19       0.07132317       0.04166230      -0.01443189
Rb       6.24147298      11.87546086       0.11998530       20      -0.02023909       0.04560265      -0.03571876
Ge       9.10858425       2.86149972       3.04089768       21      -0.21388871       0.02648062       0.14991120
I        9.02837026       3.08814547       0.10923275       22       0.08996658       0.03889286      -0.12867010
I        9.23319387      12.11070099       3.04352380       23      -0.01018299       0.25128446      -0.00861934
I        6.24397681       3.21694893       3.02228806       24       0.09045925      -0.13680881      -0.00701967
Rb       6.11612380      11.91657742       6.05689608       25       0.01708190       0.00757116       0.02704484
Pb       9.23869484       3.08116604       9.20984010       26      -0.50171720      -0.05642371      -0.10280999
I        9.04034307       3.09495185       5.92796418       27       0.06195606      -0.06433658       0.15703664
I        9.20020839      11.95698018       9.30057236       28       0.05081264       0.76290409       0.00766680
I        6.12762799       3.08904080       9.09846598       29       0.03910245      -0.06898261      -0.02414138
Rb       6.07812547       6.21160745       0.07563624       30      -0.02863741      -0.04409378      -0.00468162
Ge       9.19148063       9.06112972       2.87210271       31      -0.21315880      -0.31982690       0.16984539
I        9.20034769       9.12134265      -0.00875770       32       0.00224193      -0.06934605       0.26970438
I        8.96551953       6.10504910       3.12595620       33       0.13886417       0.31030544      -0.08464093
I        6.14048867       9.31208371       3.05452793       34      -0.30304034      -0.02235497      -0.04414874
Rb       6.15858360       6.23782796       6.06964676       35      -0.01198642      -0.02807401       0.01071265
Ge       9.08354399       9.13900492       9.18425033       36      -0.07494315       0.10397911      -0.45472209
I        9.04658298       9.15575606       6.16219370       37       0.08719055       0.09395356       0.00602138
I        9.13604510       6.35200685       9.03081220       38       0.05982614      -0.92199822       0.04697335
I        6.17400212       9.07565835       9.10467562       39       0.02411605       0.07805278       0.10624622
40
Lattice="12.198124361333056 0.0 0.0 0.0 12.196172689228566 0.0 0.0 -6.967480062286746e-14 12.198124361332933" Properties=species:S:1:pos:R:3:spacegroup_kinds:I:1:forces:R:3 spacegroup="P 1" unit_cell=conventional occupancy="_JSON {\"0\": {\"Rb\": 1.0}, \"1\": {\"Pb\": 1.0}, \"2\": {\"I\": 1.0}, \"3\": {\"I\": 1.0}, \"4\": {\"I\": 1.0}, \"5\": {\"Rb\": 1.0}, \"6\": {\"Pb\": 1.0}, \"7\": {\"I\": 1.0}, \"8\": {\"I\": 1.0}, \"9\": {\"I\": 1.0}, \"10\": {\"Rb\": 1.0}, \"11\": {\"Ge\": 1.0}, \"12\": {\"I\": 1.0}, \"13\": {\"I\": 1.0}, \"14\": {\"I\": 1.0}, \"15\": {\"Rb\": 1.0}, \"16\": {\"Ge\": 1.0}, \"17\": {\"I\": 1.0}, \"18\": {\"I\": 1.0}, \"19\": {\"I\": 1.0}, \"20\": {\"Rb\": 1.0}, \"21\": {\"Ge\": 1.0}, \"22\": {\"I\": 1.0}, \"23\": {\"I\": 1.0}, \"24\": {\"I\": 1.0}, \"25\": {\"Rb\": 1.0}, \"26\": {\"Pb\": 1.0}, \"27\": {\"I\": 1.0}, \"28\": {\"I\": 1.0}, \"29\": {\"I\": 1.0}, \"30\": {\"Rb\": 1.0}, \"31\": {\"Ge\": 1.0}, \"32\": {\"I\": 1.0}, \"33\": {\"I\": 1.0}, \"34\": {\"I\": 1.0}, \"35\": {\"Rb\": 1.0}, \"36\": {\"Ge\": 1.0}, \"37\": {\"I\": 1.0}, \"38\": {\"I\": 1.0}, \"39\": {\"I\": 1.0}}" candidate_id=2c12446fa0ad6cfc formula=RbGe0.6Pb0.4I3 config_index=3 rattle_stdev=0.08 method=PBE fidelity=phase2_force energy=-109.43611464233578 stress="-0.004169264908078467 9.200020011288457e-05 -4.976271697838544e-05 9.200020011288457e-05 -0.0036892324852700973 -5.165748800153944e-05 -4.976271697838544e-05 -5.165748800153944e-05 -0.003791226870315071" pbc="T T T"
Rb      12.03314686      12.18148700       0.06309918        0       0.02415878       0.07123851       0.01329307
Pb       3.03051740       3.05577299       3.12629447        1      -0.28484993      -0.22318898      -1.11036118
I        2.99500321       3.09136880      -0.05077651        2       0.01955890       0.02841261      -0.08089658
I        3.16192759      12.01938329       2.94506023        3       0.03239328       0.00065024       0.01011832
I       11.99035452       2.91936851       2.94713321        4       0.49557415       0.06243279       0.01855900
Rb      12.12088660      11.95210189       5.97930895        5      -0.02888771       0.03095770      -0.00750127
Pb       3.07058475       2.84462773       9.01497060        6      -0.15638262       0.30305512       0.56301674
I        2.99259228       2.85330112       5.98571045        7      -0.05814972      -0.08444144       0.69197035
I        3.10262089      11.91400296       9.08536049        8      -0.05659599       1.02577787       0.03706825
I       12.06671775       2.95387998       9.32992848        9       0.85542972       0.01620370       0.07961133
Rb      12.10068811       6.34584539      -0.08510104       10       0.02234371      -0.07471595      -0.01988698
Ge       3.01023392       9.05116979       2.98511346       11      -0.09922498       0.34629876      -0.14665847
I        3.16199658       9.12870426      -0.05143904       12      -0.06428890      -0.06307115       0.55205750
I        3.03652409       6.20259091       3.17066051       13      -0.00250170       0.01536668       0.01680291
I       12.05327110       9.19981188       3.02200179       14       0.88589841      -0.09183740       0.02507577
Rb      12.07813449       6.28787437       5.98718488       15      -0.03795689      -0.00528819       0.00965405
Ge       3.09374673       9.17773818       9.11889004       16       0.00582421      -0.72249148      -0.08984697
I        3.17578261       9.16447332       6.19033284       17      -0.02308721       0.01850231      -0.36202741
I        3.10804954       6.33186904       9.10216878       18      -0.01917604      -0.68384503      -0.02403217
I       12.18452052       9.02034032       9.14261596       19      -0.21993199       0.04217797       0.02251907
Rb       6.25426091      11.99891295       0.00715005       20      -0.02709066       0.02136716       0.00148307
Ge       8.99687034       2.92581925       3.01810523       21       0.42936120       0.15287118       0.02747457
I        9.11543480       3.10592860       0.20488906       22      -0.08558734      -0.00593895      -0.48712146
I        9.34038018      12.16666384       2.96846040       23      -0.17436184      -0.26687271       0.03357461
I        6.21706471       3.11672135       3.08907981       24      -0.46479517      -0.04756794       0.04233053
Rb       6.18064726      12.06191404       6.06517749       25       0.01552990      -0.02142654       0.00650059
Pb       9.16676418       3.01781593       9.09115186       26      -0.38559117      -0.04445046      -0.10288107
I        9.27212216       2.98000756       5.91686895       27      -0.00233805      -0.02807513       0.46716564
I        9.15529742      12.17169549       9.05424629       28      -0.02417188      -0.73246472       0.07246026
I        6.07838096       3.01517203       9.19334022       29      -0.19966701      -0.00977842      -0.00888653
Rb       6.11217663       6.27981206       0.12867043       30      -0.00253019      -0.04290435      -0.03991688
Ge       9.18178599       9.12903074       3.10997854       31      -0.22359875      -0.14688426       0.14084802
I        9.16660366       9.11194927       0.05737378       32       0.02800857      -0.00264357      -0.09582008
I        9.07690341       6.00005672       3.18892982       33       0.09999128       0.31684787      -0.01236991
I        6.33765566       9.09323150       2.98784915       34      -0.61938640       0.05058244       0.03587496
Rb       6.24279559       6.36576931       6.04941800       35       0.01331018       0.00941004       0.02255952
Ge       9.14959274       9.09116780       9.29869720       36       0.12080415       0.00415759      -0.14993732
I        9.11254060       9.12263077       6.20703410       37       0.01556406       0.01513607      -0.17866738
I        9.09630599       6.07557598       9.19702143       38      -0.01872266       0.75169034       0.01823685
I        6.06277342       9.16372870       9.23630544       39       0.22190935       0.00739987       0.00675188
