Cs Pb Cl Cs Pb Cl Cs Pb Cl Cs Pb Cl Cs Pb Cl Cs Pb Cl Cs Sn Cl Cs Pb Cl
 1.0000000000000000
    11.9949351719798791    0.0000000000000000    0.0000000000000000
     0.0000000000000000   11.9949351719798791    0.0000000000000000
     0.0000000000000000    0.0000000000000000   11.9949351719798791
 Cs  Pb  Cl  Cs  Pb  Cl  Cs  Pb  Cl  Cs  Pb  Cl  Cs  Pb  Cl  Cs  Pb  Cl  Cs  Sn  Cl  Cs  Pb  Cl 
   1   1   3   1   1   3   1   1   3   1   1   3   1   1   3   1   1   3   1   1   3   1   1   3
Cartesian
  0.0000000000000000  0.0000000000000000  0.0000000000000000
  2.9987337929949698  2.9987337929949698  2.9987337929949698
  2.9987337929949698  2.9987337929949698  0.0000000000000000
  2.9987337929949698  0.0000000000000000  2.9987337929949698
  0.0000000000000000  2.9987337929949698  2.9987337929949698
  0.0000000000000000  0.0000000000000000  5.9974675859899387
  2.9987337929949698  2.9987337929949698  8.9962013789849102
  2.9987337929949698  2.9987337929949698  5.9974675859899387
  2.9987337929949698  0.0000000000000000  8.9962013789849102
  0.0000000000000000  2.9987337929949698  8.9962013789849102
  0.0000000000000000  5.9974675859899387  0.0000000000000000
  2.9987337929949698  8.9962013789849102  2.9987337929949698
  2.9987337929949698  8.9962013789849102  0.0000000000000000
  2.9987337929949698  5.9974675859899387  2.9987337929949698
  0.0000000000000000  8.9962013789849102  2.9987337929949698
  0.0000000000000000  5.9974675859899387  5.9974675859899387
  2.9987337929949698  8.9962013789849102  8.9962013789849102
  2.9987337929949698  8.9962013789849102  5.9974675859899387
  2.9987337929949698  5.9974675859899387  8.9962013789849102
  0.0000000000000000  8.9962013789849102  8.9962013789849102
  5.9974675859899387  0.0000000000000000  0.0000000000000000
  8.9962013789849102  2.9987337929949698  2.9987337929949698
  8.9962013789849102  2.9987337929949698  0.0000000000000000
  8.9962013789849102  0.0000000000000000  2.9987337929949698
  5.9974675859899387  2.9987337929949698  2.9987337929949698
  5.9974675859899387  0.0000000000000000  5.9974675859899387
  8.9962013789849102  2.9987337929949698  8.9962013789849102
  8.9962013789849102  2.9987337929949698  5.9974675859899387
  8.9962013789849102  0.0000000000000000  8.9962013789849102
  5.9974675859899387  2.9987337929949698  8.9962013789849102
  5.9974675859899387  5.9974675859899387  0.0000000000000000
  8.9962013789849102  8.9962013789849102  2.9987337929949698
  8.9962013789849102  8.9962013789849102  0.0000000000000000
  8.9962013789849102  5.9974675859899387  2.9987337929949698
  5.9974675859899387  8.9962013789849102  2.9987337929949698
  5.9974675859899387  5.9974675859899387  5.9974675859899387
  8.9962013789849102  8.9962013789849102  8.9962013789849102
  8.9962013789849102  8.9962013789849102  5.9974675859899387
  8.9962013789849102  5.9974675859899387  8.9962013789849102
  5.9974675859899387  8.9962013789849102  8.9962013789849102
