Cs Pb I  Cs Pb I  Cs Sn I  Cs Sn I  Cs Sn I  Cs Pb I  Cs Sn I  Cs Sn I 
 1.0000000000000000
    13.5331752637730940    0.0000000000000000    0.0000000000000000
     0.0000000000000000   13.5331752637730940    0.0000000000000000
     0.0000000000000000    0.0000000000000000   13.5331752637730940
 Cs  Pb  I   Cs  Pb  I   Cs  Sn  I   Cs  Sn  I   Cs  Sn  I   Cs  Pb  I   Cs  Sn  I   Cs  Sn  I  
   1   1   3   1   1   3   1   1   3   1   1   3   1   1   3   1   1   3   1   1   3   1   1   3
Cartesian
  0.0000000000000000  0.0000000000000000  0.0000000000000000
  3.3832938159432726  3.3832938159432726  3.3832938159432726
  3.3832938159432726  3.3832938159432726  0.0000000000000000
  3.3832938159432726  0.0000000000000000  3.3832938159432726
  0.0000000000000000  3.3832938159432726  3.3832938159432726
  0.0000000000000000  0.0000000000000000  6.7665876318865461
  3.3832938159432726  3.3832938159432726 10.1498814478298183
  3.3832938159432726  3.3832938159432726  6.7665876318865461
  3.3832938159432726  0.0000000000000000 10.1498814478298183
  0.0000000000000000  3.3832938159432726 10.1498814478298183
  0.0000000000000000  6.7665876318865461  0.0000000000000000
  3.3832938159432726 10.1498814478298183  3.3832938159432726
  3.3832938159432726 10.1498814478298183  0.0000000000000000
  3.3832938159432726  6.7665876318865461  3.3832938159432726
  0.0000000000000000 10.1498814478298183  3.3832938159432726
  0.0000000000000000  6.7665876318865461  6.7665876318865461
  3.3832938159432726 10.1498814478298183 10.1498814478298183
  3.3832938159432726 10.1498814478298183  6.7665876318865461
  3.3832938159432726  6.7665876318865461 10.1498814478298183
  0.0000000000000000 10.1498814478298183 10.1498814478298183
  6.7665876318865461  0.0000000000000000  0.0000000000000000
 10.1498814478298183  3.3832938159432726  3.3832938159432726
 10.1498814478298183  3.3832938159432726  0.0000000000000000
 10.1498814478298183  0.0000000000000000  3.3832938159432726
  6.7665876318865461  3.3832938159432726  3.3832938159432726
  6.7665876318865461  0.0000000000000000  6.7665876318865461
 10.1498814478298183  3.3832938159432726 10.1498814478298183
 10.1498814478298183  3.3832938159432726  6.7665876318865461
 10.1498814478298183  0.0000000000000000 10.1498814478298183
  6.7665876318865461  3.3832938159432726 10.1498814478298183
  6.7665876318865461  6.7665876318865461  0.0000000000000000
 10.1498814478298183 10.1498814478298183  3.3832938159432726
 10.1498814478298183 10.1498814478298183  0.0000000000000000
 10.1498814478298183  6.7665876318865461  3.3832938159432726
  6.7665876318865461 10.1498814478298183  3.3832938159432726
  6.7665876318865461  6.7665876318865461  6.7665876318865461
 10.1498814478298183 10.1498814478298183 10.1498814478298183
 10.1498814478298183 10.1498814478298183  6.7665876318865461
 10.1498814478298183  6.7665876318865461 10.1498814478298183
  6.7665876318865461 10.1498814478298183 10.1498814478298183
