Cs Sn Br Cs Pb Br Cs Sn Br Cs Sn Br Cs Sn Br Cs Sn Br Cs Sn Br Cs Sn Br
 1.0000000000000000
    12.5650046589724749    0.0000000000000000    0.0000000000000000
     0.0000000000000000   12.5650046589724749    0.0000000000000000
     0.0000000000000000    0.0000000000000000   12.5650046589724749
 Cs  Sn  Br  Cs  Pb  Br  Cs  Sn  Br  Cs  Sn  Br  Cs  Sn  Br  Cs  Sn  Br  Cs  Sn  Br  Cs  Sn  Br 
   1   1   3   1   1   3   1   1   3   1   1   3   1   1   3   1   1   3   1   1   3   1   1   3
Cartesian
  0.0000000000000000  0.0000000000000000  0.0000000000000000
  3.1412511647431178  3.1412511647431178  3.1412511647431178
  3.1412511647431178  3.1412511647431178  0.0000000000000000
  3.1412511647431178  0.0000000000000000  3.1412511647431178
  0.0000000000000000  3.1412511647431178  3.1412511647431178
  0.0000000000000000  0.0000000000000000  6.2825023294862365
  3.1412511647431178  3.1412511647431178  9.4237534942293539
  3.1412511647431178  3.1412511647431178  6.2825023294862365
  3.1412511647431178  0.0000000000000000  9.4237534942293539
  0.0000000000000000  3.1412511647431178  9.4237534942293539
  0.0000000000000000  6.2825023294862365  0.0000000000000000
  3.1412511647431178  9.4237534942293539  3.1412511647431178
  3.1412511647431178  9.4237534942293539  0.0000000000000000
  3.1412511647431178  6.2825023294862365  3.1412511647431178
  0.0000000000000000  9.4237534942293539  3.1412511647431178
  0.0000000000000000  6.2825023294862365  6.2825023294862365
  3.1412511647431178  9.4237534942293539  9.4237534942293539
  3.1412511647431178  9.4237534942293539  6.2825023294862365
  3.1412511647431178  6.2825023294862365  9.4237534942293539
  0.0000000000000000  9.4237534942293539  9.4237534942293539
  6.2825023294862365  0.0000000000000000  0.0000000000000000
  9.4237534942293539  3.1412511647431178  3.1412511647431178
  9.4237534942293539  3.1412511647431178  0.0000000000000000
  9.4237534942293539  0.0000000000000000  3.1412511647431178
  6.2825023294862365  3.1412511647431178  3.1412511647431178
  6.2825023294862365  0.0000000000000000  6.2825023294862365
  9.4237534942293539  3.1412511647431178  9.4237534942293539
  9.4237534942293539  3.1412511647431178  6.2825023294862365
  9.4237534942293539  0.0000000000000000  9.4237534942293539
  6.2825023294862365  3.1412511647431178  9.4237534942293539
  6.2825023294862365  6.2825023294862365  0.0000000000000000
  9.4237534942293539  9.4237534942293539  3.1412511647431178
  9.4237534942293539  9.4237534942293539  0.0000000000000000
  9.4237534942293539  6.2825023294862365  3.1412511647431178
  6.2825023294862365  9.4237534942293539  3.1412511647431178
  6.2825023294862365  6.2825023294862365  6.2825023294862365
  9.4237534942293539  9.4237534942293539  9.4237534942293539
  9.4237534942293539  9.4237534942293539  6.2825023294862365
  9.4237534942293539  6.2825023294862365  9.4237534942293539
  6.2825023294862365  9.4237534942293539  9.4237534942293539
