40
Lattice="12.218744050117436 0.0 0.0 0.0 12.21593838081022 0.0 0.0 2.2453031851836017e-14 12.218744050117403" Properties=species:S:1:pos:R:3:spacegroup_kinds:I:1:forces:R:3 spacegroup="P 1" unit_cell=conventional occupancy="_JSON {\"0\": {\"Rb\": 1.0}, \"1\": {\"Pb\": 1.0}, \"2\": {\"I\": 1.0}, \"3\": {\"I\": 1.0}, \"4\": {\"I\": 1.0}, \"5\": {\"Rb\": 1.0}, \"6\": {\"Pb\": 1.0}, \"7\": {\"I\": 1.0}, \"8\": {\"I\": 1.0}, \"9\": {\"I\": 1.0}, \"10\": {\"Rb\": 1.0}, \"11\": {\"Ge\": 1.0}, \"12\": {\"I\": 1.0}, \"13\": {\"I\": 1.0}, \"14\": {\"I\": 1.0}, \"15\": {\"Rb\": 1.0}, \"16\": {\"Ge\": 1.0}, \"17\": {\"I\": 1.0}, \"18\": {\"I\": 1.0}, \"19\": {\"I\": 1.0}, \"20\": {\"Rb\": 1.0}, \"21\": {\"Ge\": 1.0}, \"22\": {\"I\": 1.0}, \"23\": {\"I\": 1.0}, \"24\": {\"I\": 1.0}, \"25\": {\"Rb\": 1.0}, \"26\": {\"Pb\": 1.0}, \"27\": {\"I\": 1.0}, \"28\": {\"I\": 1.0}, \"29\": {\"I\": 1.0}, \"30\": {\"Rb\": 1.0}, \"31\": {\"Ge\": 1.0}, \"32\": {\"I\": 1.0}, \"33\": {\"I\": 1.0}, \"34\": {\"I\": 1.0}, \"35\": {\"Rb\": 1.0}, \"36\": {\"Ge\": 1.0}, \"37\": {\"I\": 1.0}, \"38\": {\"I\": 1.0}, \"39\": {\"I\": 1.0}}" candidate_id=b131afd906d4877c formula=RbGe0.63Pb0.37I3 config_index=0 rattle_stdev=0.0 method=PBE fidelity=phase2_force energy=-110.14391291657245 stress="-0.002133667403810263 -8.097351903031085e-16 -2.2114492152175404e-15 -8.097351903031085e-16 -0.0016355194316260598 8.127406031132959e-16 -2.2114492152175404e-15 8.127406031132959e-16 -0.0021336674038102757" pbc="T T T"
Rb      12.16699716      12.06206411       0.05174689        0      -0.00402722      -0.01124988       0.00402722
Pb       3.05468601       3.05398460       3.05468601        1       0.00000000      -0.00000000      -0.00000000
I        3.05468601       3.05398460       0.01138280        2      -0.00000000      -0.00000000      -0.04694598
I        3.05468601      12.05505195       3.05468601        3      -0.00000000       0.25096733      -0.00000000
I       12.06049693       3.05398460       3.05468601        4       0.32239968      -0.00000000      -0.00000000
Rb      12.16699716      12.06206411       6.05762513        5      -0.00402722      -0.01124988      -0.00402722
Pb       3.05468601       3.05398460       9.16405804        6       0.00000000      -0.00000000      -0.00000000
I        3.05468601       3.05398460       6.09798922        7       0.00000000      -0.00000000       0.04694598
I        3.05468601      12.03756796       9.16405804        8      -0.00000000       0.32791423       0.00000000
I       12.20736125       3.05398460       9.16405804        9       0.04694598      -0.00000000       0.00000000
Rb      12.16699716       6.26184346       0.05174689       10      -0.00402722       0.01124988       0.00402722
Ge       3.05468601       9.16195379       3.05468601       11      -0.00000000      -0.00000000      -0.00000000
I        3.05468601       9.16195379       0.00514003       12      -0.00000000       0.00000000       0.01072484
I        3.05468601       6.26885562       3.05468601       13      -0.00000000      -0.25096733      -0.00000000
I       12.21568199       9.16195379       3.05468601       14      -0.05401938      -0.00000000      -0.00000000
Rb      12.16699716       6.26184346       6.05762513       15      -0.00402722       0.01124988      -0.00402722
Ge       3.05468601       9.16195379       9.16405804       16      -0.00000000      -0.00000000       0.00000000
I        3.05468601       9.16195379       6.10423200       17      -0.00000000       0.00000000      -0.01072484
I        3.05468601       6.28633961       9.16405804       18      -0.00000000      -0.32791423       0.00000000
I       12.21360402       9.16195379       9.16405804       19      -0.01072484       0.00000000       0.00000000
Rb       6.16111892      12.06206411       0.05174689       20       0.00402722      -0.01124988       0.00402722
Ge       9.16405804       3.05398460       3.05468601       21      -0.00000000       0.00000000       0.00000000
I        9.16405804       3.05398460       0.15824712       22       0.00000000      -0.00000000      -0.32239968
I        9.16405804      12.20404546       3.05468601       23       0.00000000      -0.11225141      -0.00000000
I        6.26761915       3.05398460       3.05468601       24      -0.32239968       0.00000000      -0.00000000
Rb       6.16111892      12.06206411       6.05762513       25       0.00402722      -0.01124988      -0.00402722
Pb       9.16405804       3.05398460       9.16405804       26       0.00000000      -0.00000000      -0.00000000
I        9.16405804       3.05398460       5.95112490       27       0.00000000       0.00000000       0.32239968
I        9.16405804      12.05505195       9.16405804       28       0.00000000       0.25096733       0.00000000
I        6.12075483       3.05398460       9.16405804       29      -0.04694598      -0.00000000      -0.00000000
Rb       6.16111892       6.26184346       0.05174689       30       0.00402722       0.01124988       0.00402722
Ge       9.16405804       9.16195379       3.05468601       31       0.00000000       0.00000000      -0.00000000
I        9.16405804       9.16195379       0.00306206       32       0.00000000      -0.00000000       0.05401938
I        9.16405804       6.11986211       3.05468601       33       0.00000000       0.11225141      -0.00000000
I        6.11243409       9.16195379       3.05468601       34       0.05401938      -0.00000000      -0.00000000
Rb       6.16111892       6.26184346       6.05762513       35       0.00402722       0.01124988      -0.00402722
Ge       9.16405804       9.16195379       9.16405804       36       0.00000000      -0.00000000       0.00000000
I        9.16405804       9.16195379       6.10630996       37       0.00000000      -0.00000000      -0.05401938
I        9.16405804       6.26885562       9.16405804       38       0.00000000      -0.25096733       0.00000000
I        6.11451205       9.16195379       9.16405804       39       0.01072484       0.00000000       0.00000000
40
Lattice="12.218744050117436 0.0 0.0 0.0 12.21593838081022 0.0 0.0 2.2453031851836017e-14 12.218744050117403" Properties=species:S:1:pos:R:3:spacegroup_kinds:I:1:forces:R:3 spacegroup="P 1" unit_cell=conventional occupancy="_JSON {\"0\": {\"Rb\": 1.0}, \"1\": {\"Pb\": 1.0}, \"2\": {\"I\": 1.0}, \"3\": {\"I\": 1.0}, \"4\": {\"I\": 1.0}, \"5\": {\"Rb\": 1.0}, \"6\": {\"Pb\": 1.0}, \"7\": {\"I\": 1.0}, \"8\": {\"I\": 1.0}, \"9\": {\"I\": 1.0}, \"10\": {\"Rb\": 1.0}, \"11\": {\"Ge\": 1.0}, \"12\": {\"I\": 1.0}, \"13\": {\"I\": 1.0}, \"14\": {\"I\": 1.0}, \"15\": {\"Rb\": 1.0}, \"16\": {\"Ge\": 1.0}, \"17\": {\"I\": 1.0}, \"18\": {\"I\": 1.0}, \"19\": {\"I\": 1.0}, \"20\": {\"Rb\": 1.0}, \"21\": {\"Ge\": 1.0}, \"22\": {\"I\": 1.0}, \"23\": {\"I\": 1.0}, \"24\": {\"I\": 1.0}, \"25\": {\"Rb\": 1.0}, \"26\": {\"Pb\": 1.0}, \"27\": {\"I\": 1.0}, \"28\": {\"I\": 1.0}, \"29\": {\"I\": 1.0}, \"30\": {\"Rb\": 1.0}, \"31\": {\"Ge\": 1.0}, \"32\": {\"I\": 1.0}, \"33\": {\"I\": 1.0}, \"34\": {\"I\": 1.0}, \"35\": {\"Rb\": 1.0}, \"36\": {\"Ge\": 1.0}, \"37\": {\"I\": 1.0}, \"38\": {\"I\": 1.0}, \"39\": {\"I\": 1.0}}" candidate_id=b131afd906d4877c formula=RbGe0.63Pb0.37I3 config_index=1 rattle_stdev=0.08 method=PBE fidelity=phase2_force energy=-109.83419563087968 stress="-0.004013667997868458 -1.3570400648689862e-05 8.496981297510747e-05 -1.3570400648689862e-05 -0.002291452216624561 4.138092654359607e-05 8.496981297510747e-05 4.138092654359607e-05 -0.004268840447727328" pbc="T T T"
Rb      12.08008145      11.99037890       0.02724294        0      -0.01417848       0.02702099       0.02832750
Pb       2.94749132       2.95745775       3.00334787        1       0.18868826       0.17433017       0.52395624
I        3.15932166       3.20162143       0.07771200        2       0.00023848       0.05664919      -0.25349047
I        3.05282211      12.03836684       2.98135643        3       0.04277170       0.30286024       0.00709531
I       11.97451752       3.04709312       3.14875310        4       0.95848932       0.01779523       0.04038967
Rb      12.03618982      12.16031963       6.14373603        5       0.03165372       0.03427788      -0.04119991
Pb       3.08626784       3.02296853       9.21113018        6       0.02923883      -0.09821771      -0.07609056
I        2.94002211       3.02809862       6.19822800        7       0.02730384       0.04249876      -0.36816870
I        2.99622661      12.15184677       9.23963035        8      -0.02551980      -0.16401670       0.01342146
I       12.18624103       3.04092753       9.08692946        9       0.35954419       0.00393755       0.03167487
Rb      12.13958537       6.26575579       0.01177633       10      -0.00986683      -0.01885364       0.02481552
Ge       2.87773365       9.18674073       2.92751391       11       0.20262697      -0.30268140      -0.25932749
I        3.11304238       9.15332169      -0.04687369       12      -0.06048748       0.03046841       0.23352877
I        2.91924149       6.23937770       2.92745628       13       0.02335282      -0.20247818       0.07169600
I       12.33412245       9.19990900       3.12779512       14      -0.37495609       0.01840633       0.01262802
Rb      12.24383478       6.26860687       6.19500361       15       0.01723863      -0.03535536      -0.01936583
Ge       3.12283743       9.10156296       8.98104769       16       0.35951246       0.12122375      -0.04224727
I        3.06342511       9.12594114       6.07119420       17       0.01596283      -0.01275737       0.20681817
I        3.08020471       6.24305097       9.23995136       18      -0.02063017       0.10262586      -0.04751920
I       12.22571883       9.16810598       9.15930601       19       0.00153434       0.04395345      -0.01610989
Rb       6.15550782      12.01677218       0.07662732       20       0.00798300       0.01407736       0.02481212
Ge       9.22199474       3.09530060       3.13676847       21      -0.47574209      -0.21447419      -0.55623216
I        9.20567025       2.98439751       0.27829233       22       0.05789197       0.01412348      -0.80121014
I        9.25737581      12.24339862       2.99610504       23      -0.02484734      -0.17770917       0.15233803
I        6.32204364       3.09470434       2.98768311       24      -0.70052403      -0.01029326       0.05124569
Rb       6.21293050      12.06306726       6.18239226       25      -0.02826771       0.00612648      -0.02521093
Pb       9.24682567       3.08100001       9.05984920       26      -0.38720552       0.28334797       0.24144460
I        9.07457449       3.15874581       5.90966754       27      -0.04966383      -0.01500002       0.87743124
I        9.13260809      12.13848943       9.17003525       28       0.02336845       0.06191380      -0.00648846
I        6.12790979       3.05829718       9.19753380       29       0.02942749       0.00232073       0.00744704
Rb       6.06290051       6.17468014       0.07711684       30       0.00194339      -0.01727208       0.03322289
Ge       9.10162559       9.09346330       2.94909630       31      -0.36620245       0.08747374      -0.28104671
I        9.20036057       9.24209577       0.11616084       32      -0.01839065      -0.05643533       0.19205867
I        9.14884341       6.12227096       2.90481268       33       0.04458734       0.30670127       0.04501434
I        6.10309193       9.15175456       3.12686076       34       0.50981709      -0.01261314      -0.00762545
Rb       6.05596914       6.25387941       6.06886912       35      -0.00102453      -0.01550012      -0.01403001
Ge       9.37436251       9.30241609       8.95320621       36      -0.15216433      -0.36369925       0.20989774
I        9.06112648       9.14821601       6.25034626       37       0.11656310       0.09123273      -0.36915866
I        9.21275369       6.27137766       9.04674506       38      -0.00139467      -0.10101739       0.09390323
I        6.13926731       9.25333121       9.12319050       39      -0.33608406      -0.03234244       0.03169846
40
Lattice="12.218744050117436 0.0 0.0 0.0 12.21593838081022 0.0 0.0 2.2453031851836017e-14 12.218744050117403" Properties=species:S:1:pos:R:3:spacegroup_kinds:I:1:forces:R:3 spacegroup="P 1" unit_cell=conventional occupancy="_JSON {\"0\": {\"Rb\": 1.0}, \"1\": {\"Pb\": 1.0}, \"2\": {\"I\": 1.0}, \"3\": {\"I\": 1.0}, \"4\": {\"I\": 1.0}, \"5\": {\"Rb\": 1.0}, \"6\": {\"Pb\": 1.0}, \"7\": {\"I\": 1.0}, \"8\": {\"I\": 1.0}, \"9\": {\"I\": 1.0}, \"10\": {\"Rb\": 1.0}, \"11\": {\"Ge\": 1.0}, \"12\": {\"I\": 1.0}, \"13\": {\"I\": 1.0}, \"14\": {\"I\": 1.0}, \"15\": {\"Rb\": 1.0}, \"16\": {\"Ge\": 1.0}, \"17\": {\"I\": 1.0}, \"18\": {\"I\": 1.0}, \"19\": {\"I\": 1.0}, \"20\": {\"Rb\": 1.0}, \"21\": {\"Ge\": 1.0}, \"22\": {\"I\": 1.0}, \"23\": {\"I\": 1.0}, \"24\": {\"I\": 1.0}, \"25\": {\"Rb\": 1.0}, \"26\": {\"Pb\": 1.0}, \"27\": {\"I\": 1.0}, \"28\": {\"I\": 1.0}, \"29\": {\"I\": 1.0}, \"30\": {\"Rb\": 1.0}, \"31\": {\"Ge\": 1.0}, \"32\": {\"I\": 1.0}, \"33\": {\"I\": 1.0}, \"34\": {\"I\": 1.0}, \"35\": {\"Rb\": 1.0}, \"36\": {\"Ge\": 1.0}, \"37\": {\"I\": 1.0}, \"38\": {\"I\": 1.0}, \"39\": {\"I\": 1.0}}" candidate_id=b131afd906d4877c formula=RbGe0.63Pb0.37I3 config_index=2 rattle_stdev=0.08 method=PBE fidelity=phase2_force energy=-109.7847127517094 stress="-0.0030735288478698814 6.830831005607616e-05 8.145111636987426e-05 6.830831005607616e-05 -0.0034427063359102335 -4.970086604307646e-05 8.145111636987426e-05 -4.970086604307646e-05 -0.0030056611186834756" pbc="T T T"
Rb      12.15798012      11.97593899       0.19454905        0       0.01297307      -0.00760006      -0.04179585
Pb       2.93812735       3.02787893       2.95389429        1       0.46719651       0.23860161       0.32692519
I        3.08475533       2.98373281      -0.01661526        2       0.00542205      -0.00093598      -0.20477063
I        3.07841883      12.15112491       2.92916639        3      -0.02467096      -0.38145140       0.04405899
I       12.20881923       3.09350154       3.04422910        4      -0.59113682       0.04165748      -0.02977189
Rb      12.13474750      11.98417113       6.02022779        5      -0.02067854      -0.01907996       0.04082034
Pb       2.99725230       3.15169606       9.10188204        6       0.55138199       0.15407241       0.10140022
I        3.00760396       3.04937509       6.10435561        7       0.04790383      -0.11157548      -0.23521876
I        2.96002993      11.91366857       9.23703853        8       0.00384493       0.97407327       0.00119324
I       12.24037491       2.99832308       8.98095629        9      -0.17199346      -0.04324489      -0.03689459
Rb      12.10401784       6.17956213       0.05921154       10       0.02122181       0.02295295      -0.01372633
Ge       3.01235048       9.22437337       3.03862084       11       0.22275533      -0.21613456      -0.00557445
I        3.01623733       9.07913282      -0.03507872       12       0.02225689      -0.04854832       0.36394159
I        3.11787723       6.19485581       3.23148884       13      -0.00101957       0.28705313      -0.06109106
I       12.10366309       9.14282600       3.07207327       14       0.31478879      -0.02839328       0.01971540
Rb      12.13880634       6.26871351       6.06615729       15       0.00322602       0.01163909       0.01944846
Ge       3.03892352       9.26970849       9.19167196       16      -0.25295218      -0.58991161      -0.07685637
I        3.09929757       9.11433097       6.16285857       17      -0.02700923       0.10552644      -0.29589631
I        3.16118623       6.22793697       9.12519757       18       0.00880962      -0.40330224       0.03128948
I       12.29975716       8.95432519       9.17741229       19       0.08277281       0.04100083      -0.01439765
Rb       6.24423569      11.91737820       0.11243817       20      -0.01413065       0.02953333      -0.02778032
Ge       9.12404901       2.86644114       3.04605260       21      -0.21194792       0.02267905       0.14922634
I        9.04383502       3.09308689       0.11399284       22       0.09157592       0.03753905      -0.16618484
I        9.24865864      12.13450003       3.04867873       23      -0.00916027       0.23977235      -0.00979927
I        6.25904675       3.22189036       3.02744298       24       0.06429020      -0.13843523      -0.00765185
Rb       6.11888651      11.95849476       6.07475306       25       0.02177792      -0.00770190       0.02135062
Pb       9.25415960       3.08610746       9.22530486       26      -0.49851346      -0.05442799      -0.09291075
I        9.05580784       3.09989328       5.93351393       27       0.06306649      -0.06470848       0.18253614
I        9.21567316      11.97467441       9.31603712       28       0.05054731       0.76843735       0.00755125
I        6.13810369       3.09398223       9.11393075       29       0.03831360      -0.06843014      -0.02313696
Rb       6.08088818       6.19933865       0.06808911       30      -0.02404912      -0.03233152      -0.00126620
Ge       9.20694540       9.07595399       2.87725763       31      -0.20204581      -0.32292716       0.15209459
I        9.21581246       9.13616692      -0.01074307       32       0.00309880      -0.06646864       0.28848655
I        8.98098429       6.11089861       3.13111112       33       0.13811876       0.32892221      -0.08430138
I        6.14881314       9.32690798       3.05968285       34      -0.29401129      -0.01567823      -0.04499846
Rb       6.16134631       6.22555916       6.08750373       35      -0.00629321      -0.01515541       0.00647832
Ge       9.09900876       9.15382918       9.19971509       36      -0.08512941       0.10159505      -0.45700049
I        9.06204775       9.17058033       6.17448891       37       0.08429913       0.09422375       0.01024175
I        9.15150987       6.36396116       9.04627697       38       0.06019817      -0.92665128       0.04695878
I        6.18379532       9.09048262       9.12014039       39       0.03109219       0.07784631       0.10442783
40
Lattice="12.218744050117436 0.0 0.0 0.0 12.21593838081022 0.0 0.0 2.2453031851836017e-14 12.218744050117403" Properties=species:S:1:pos:R:3:spacegroup_kinds:I:1:forces:R:3 spacegroup="P 1" unit_cell=conventional occupancy="_JSON {\"0\": {\"Rb\": 1.0}, \"1\": {\"Pb\": 1.0}, \"2\": {\"I\": 1.0}, \"3\": {\"I\": 1.0}, \"4\": {\"I\": 1.0}, \"5\": {\"Rb\": 1.0}, \"6\": {\"Pb\": 1.0}, \"7\": {\"I\": 1.0}, \"8\": {\"I\": 1.0}, \"9\": {\"I\": 1.0}, \"10\": {\"Rb\": 1.0}, \"11\": {\"Ge\": 1.0}, \"12\": {\"I\": 1.0}, \"13\": {\"I\": 1.0}, \"14\": {\"I\": 1.0}, \"15\": {\"Rb\": 1.0}, \"16\": {\"Ge\": 1.0}, \"17\": {\"I\": 1.0}, \"18\": {\"I\": 1.0}, \"19\": {\"I\": 1.0}, \"20\": {\"Rb\": 1.0}, \"21\": {\"Ge\": 1.0}, \"22\": {\"I\": 1.0}, \"23\": {\"I\": 1.0}, \"24\": {\"I\": 1.0}, \"25\": {\"Rb\": 1.0}, \"26\": {\"Pb\": 1.0}, \"27\": {\"I\": 1.0}, \"28\": {\"I\": 1.0}, \"29\": {\"I\": 1.0}, \"30\": {\"Rb\": 1.0}, \"31\": {\"Ge\": 1.0}, \"32\": {\"I\": 1.0}, \"33\": {\"I\": 1.0}, \"34\": {\"I\": 1.0}, \"35\": {\"Rb\": 1.0}, \"36\": {\"Ge\": 1.0}, \"37\": {\"I\": 1.0}, \"38\": {\"I\": 1.0}, \"39\": {\"I\": 1.0}}" candidate_id=b131afd906d4877c formula=RbGe0.63Pb0.37I3 config_index=3 rattle_stdev=0.08 method=PBE fidelity=phase2_force energy=-109.47598888221027 stress="-0.0035300269201239253 8.588043875832953e-05 -4.8826580592678036e-05 8.588043875832953e-05 -0.003045752902342173 -4.308083227716297e-05 -4.8826580592678036e-05 -4.308083227716297e-05 -0.0031934416709876513" pbc="T T T"
Rb      12.06131368      12.22340434       0.05555205        0       0.01707025       0.06003521       0.02084523
Pb       3.03567232       3.06071441       3.13144939        1      -0.27943533      -0.22001940      -1.09246841
I        3.00015813       3.09631023      -0.05061066        2       0.01962951       0.02682602      -0.08258560
I        3.16708251      12.03707751       2.95021516        3       0.03115191       0.01581928       0.01123444
I       12.00621411       2.92430993       2.95228813        4       0.52141999       0.06386001       0.01963760
Rb      12.14905342      11.99401922       5.99716593        5      -0.03547895       0.01736250      -0.01443412
Pb       3.07573968       2.84956915       9.03043536        6      -0.14912876       0.29718298       0.55808624
I        2.99774720       2.85824255       5.99585444        7      -0.05684593      -0.08156722       0.68025958
I        3.10777582      11.93526124       9.10082526        8      -0.05568219       1.00420838       0.03574931
I       12.08717158       2.95882140       9.34539325        9       0.83932569       0.01669469       0.07530428
Rb      12.12885493       6.33357659      -0.09264817       10       0.01676881      -0.06055672      -0.01818388
Ge       3.01538884       9.06599406       2.99026839       11      -0.10151284       0.34429124      -0.15100876
I        3.16715150       9.14352853      -0.05195569       12      -0.06268350      -0.06352073       0.54764457
I        3.04167901       6.21454523       3.17581543       13      -0.00258667      -0.00245604       0.01693983
I       12.07587616       9.21463615       3.02715671       14       0.85905291      -0.08914444       0.02665848
Rb      12.10630131       6.27560557       6.00504185       15      -0.04395114       0.00741355       0.00490057
Ge       3.09890165       9.19256245       9.13435481       16       0.01162440      -0.71250105      -0.09412433
I        3.18093753       9.17929759       6.20115933       17      -0.02263626       0.01854018      -0.34727363
I        3.11320446       6.34025930       9.11763355       18      -0.01921560      -0.66468853      -0.02429982
I       12.20565686       9.03516459       9.15808072       19      -0.21871108       0.03965777       0.02325936
Rb       6.25702362      12.04083029      -0.00039708       20      -0.02197610       0.00839792       0.00513156
Ge       9.01233511       2.93076068       3.02326015       21       0.43210418       0.15147050       0.02874113
I        9.13089957       3.11087002       0.20964915       22      -0.08531571      -0.00595275      -0.51070883
I        9.35584494      12.19046287       2.97361532       23      -0.17087568      -0.27869676       0.03156790
I        6.23213465       3.12166277       3.09423473       24      -0.49629829      -0.04835024       0.04292731
Rb       6.18340998      12.10383138       6.08303447       25       0.02037325      -0.03325732       0.00324388
Pb       9.18222895       3.02275736       9.10661663       26      -0.37571465      -0.04629480      -0.10676150
I        9.28758693       2.98494899       5.92241870       27      -0.00321876      -0.02830915       0.49715675
I        9.17076218      12.18938972       9.06971106       28      -0.02411746      -0.69667156       0.07201297
I        6.08885665       3.02011345       9.20880498       29      -0.20250179      -0.01068949      -0.01045860
Rb       6.11493934       6.26754325       0.12112330       30       0.00128566      -0.02851973      -0.03458437
Ge       9.19725076       9.14385500       3.11513346       31      -0.22633996      -0.14202182       0.13826799
I        9.18206843       9.12677354       0.05538841       32       0.02764267      -0.00290181      -0.09271822
I        9.09236818       6.00590622       3.19408474       33       0.09730168       0.32404560      -0.01025798
I        6.34598014       9.10805576       2.99300407       34      -0.58594521       0.04642978       0.03426067
Rb       6.24555830       6.35350051       6.06727498       35       0.02087685       0.02425237       0.01712449
Ge       9.16505751       9.10599207       9.31416197       36       0.12304650       0.00363714      -0.14525744
I        9.12800537       9.13745504       6.21932931       37       0.01412428       0.01211809      -0.18258986
I        9.11177076       6.08753029       9.21248619       38      -0.01800027       0.71852908       0.01779185
I        6.07256661       9.17855297       9.25177020       39       0.21198515       0.00800144       0.00711925
