40
Lattice="12.690986950225527 0.0 0.0 0.0 12.691843291541767 0.0 0.0 -5.558220484210087e-14 12.69098695022564" Properties=species:S:1:pos:R:3:spacegroup_kinds:I:1:forces:R:3 spacegroup="P 1" unit_cell=conventional candidate_id=63dcb842016bb68d formula=FA0.4K0.6PbI3 config_index=0 rattle_stdev=0.0 method=PBE fidelity=phase2_force energy=-112.33920227157807 stress="-0.0006758683996617865 0.0 0.0 0.0 -0.0007081932002082635 -3.101645260226085e-18 0.0 -3.101645260226085e-18 -0.0006755291099599612" pbc="T T T"
Cs      12.69098695      12.69184329      12.69098695        0       0.00000000       0.00000000       0.00000000
Pb       3.17817442       3.18903116       3.16731906        1      -0.00160527      -0.00888459       0.00223030
I        3.22007585       3.25251651      12.69098695        2      -0.00921574      -0.00206340       0.00000000
I        3.22837683      12.69184329       3.11711665        3      -0.00771355      -0.00000000       0.00769057
I       12.69098695       3.29045551       3.15732200        4      -0.00000000      -0.01572330      -0.00136713
Cs      12.69098695      12.69184329       6.34549348        5      -0.00000000      -0.00000000       0.00000000
Pb       3.17817442       3.18903116       9.52366789        6      -0.00160527      -0.00888459      -0.00223030
I        3.18817147       3.29045551       6.34549348        7       0.00137354      -0.01570497       0.00000000
I        3.22837683      12.69184329       9.57387030        8      -0.00771355       0.00000000      -0.00769057
I       12.69098695       3.29045551       9.53366495        9      -0.00000000      -0.01572330       0.00136713
K        0.00000000       6.34592165      12.69098695       10      -0.00000000       0.00000000       0.00000000
Pb       3.17817442       9.50281213       3.16731906       11      -0.00160527       0.00888459       0.00223030
I        3.22007585       9.43932678      12.69098695       12      -0.00921574       0.00206340       0.00000000
I        3.19003468       6.34592165       3.15545880       13       0.00582017       0.00000000      -0.00579809
I       12.69098695       9.40138778       3.15732200       14       0.00000000       0.01572330      -0.00136713
K        0.00000000       6.34592165       6.34549348       15       0.00000000       0.00000000       0.00000000
Pb       3.17817442       9.50281213       9.52366789       16      -0.00160527       0.00888459      -0.00223030
I        3.18817147       9.40138778       6.34549348       17       0.00137354       0.01570497       0.00000000
I        3.19003468       6.34592165       9.53552815       18       0.00582017      -0.00000000       0.00579809
I       12.69098695       9.40138778       9.53366495       19      -0.00000000       0.01572330       0.00136713
K        6.34549348       0.00000000       0.00000000       20       0.00000000       0.00000000       0.00000000
Pb       9.51281253       3.18903116       3.16731906       21       0.00160527      -0.00888459       0.00223030
I        9.47091110       3.25251651      12.69098695       22       0.00921574      -0.00206340       0.00000000
I        9.46261012      12.69184329       3.11711665       23       0.00771355      -0.00000000       0.00769057
I        6.34549348       3.25251651       3.12541763       24       0.00000000      -0.00204790       0.00922575
Cs       6.34549348      12.69184329       6.34549348       25       0.00000000      -0.00000000       0.00000000
Pb       9.51281253       3.18903116       9.52366789       26       0.00160527      -0.00888459      -0.00223030
I        9.50281548       3.29045551       6.34549348       27      -0.00137354      -0.01570497       0.00000000
I        9.46261012      12.69184329       9.57387030       28       0.00771355       0.00000000      -0.00769057
I        6.34549348       3.25251651       9.56556932       29       0.00000000      -0.00204790      -0.00922575
K        6.34549348       6.34592165       0.00000000       30       0.00000000       0.00000000       0.00000000
Pb       9.51281253       9.50281213       3.16731906       31       0.00160527       0.00888459       0.00223030
I        9.47091110       9.43932678      12.69098695       32       0.00921574       0.00206340       0.00000000
I        9.50095227       6.34592165       3.15545880       33      -0.00582017       0.00000000      -0.00579809
I        6.34549348       9.43932678       3.12541763       34       0.00000000       0.00204790       0.00922575
K        6.34549348       6.34592165       6.34549348       35       0.00000000       0.00000000       0.00000000
Pb       9.51281253       9.50281213       9.52366789       36       0.00160527       0.00888459      -0.00223030
I        9.50281548       9.40138778       6.34549348       37      -0.00137354       0.01570497       0.00000000
I        9.50095227       6.34592165       9.53552815       38      -0.00582017      -0.00000000       0.00579809
I        6.34549348       9.43932678       9.56556932       39       0.00000000       0.00204790      -0.00922575
40
Lattice="12.690986950225527 0.0 0.0 0.0 12.691843291541767 0.0 0.0 -5.558220484210087e-14 12.69098695022564" Properties=species:S:1:pos:R:3:spacegroup_kinds:I:1:forces:R:3 spacegroup="P 1" unit_cell=conventional candidate_id=63dcb842016bb68d formula=FA0.4K0.6PbI3 config_index=1 rattle_stdev=0.08 method=PBE fidelity=phase2_force energy=-111.7426668514811 stress="-0.002325707213108175 4.7399546767491436e-05 -7.992279884339531e-06 4.7399546767491436e-05 -0.0015136563121060187 -9.917031261608265e-05 -7.992279884339531e-06 -9.917031261608265e-05 -0.002912934245378589" pbc="T T T"
Cs      12.60407124      12.62015808      12.66648300        0      -0.03479082       0.02544572       0.03322337
Pb       3.07097972       3.09250432       3.11598091        1       0.27696117       0.25948421       0.24298221
I        3.32471150       3.40015335      12.75731615        2      -0.04214400      -0.01827997      -0.08443457
I        3.22651292      12.67515818       3.04378707        3       0.01719457       0.01195600      -0.01617341
I       12.60500754       3.28356403       3.25138909        4       0.50764428      -0.01666063       0.02260067
Cs      12.56017961      12.79009881       6.43160438        5       0.02685771       0.04800636      -0.03943379
Pb       3.20975625       3.15801510       9.57074003        6       0.06581580       0.03075650      -0.09305739
I        3.07350757       3.26456953       6.44573225        7       0.02989438       0.01127619      -0.23149081
I        3.16991742      12.80612210       9.64944262        8      -0.01821333      -0.51970579       0.00802763
I       12.66986673       3.27739844       9.45653637        9       0.13572132      -0.00377657       0.01293607
K       -0.02741179       6.34983397      12.65101639       10      -0.00384543      -0.02929491       0.02450655
Pb       3.00122206       9.52759908       3.04014696       11       0.82190652      -0.21967464      -0.06036566
I        3.27843222       9.43069468      12.63897323       12      -0.02398111       0.03136113      -0.05609731
I        3.05459016       6.31644372       3.02822906       13       0.00768169       0.02311953       0.05524063
I       12.80942742       9.43934300       3.23043111       14      -0.93960192       0.01983706       0.06174148
K        0.07683762       6.35268505       6.48287195       15       0.03786452      -0.04865917       0.02123519
Pb       3.24632583       9.44242130       9.34065755       16       0.19553508       0.09752770       0.32038624
I        3.19691057       9.36537514       6.31245568       17       0.00871527      -0.03068993      -0.16368470
I        3.21555338       6.30263301       9.61142147       18      -0.01845903       0.37796621      -0.03006257
I       12.70310175       9.40753998       9.52891292       19       0.35032926       0.00051244       0.01101738
K        6.33988238      -0.04529192       0.02488043       20       0.01283335       0.00662246       0.02817886
Pb       9.57074924       3.23034717       3.24940151       21      -0.42158116      -0.26011897      -0.40743394
I        9.51252331       3.18292943      12.81103216       22       0.05622806       0.00563040      -0.46542335
I        9.55592789      12.73119645       3.05853567       23       0.00821851      -0.14260610       0.09562493
I        6.39991796       3.29323626       3.05841473       24      -0.35728050      -0.00838451       0.06219791
Cs       6.39730506      12.69284645       6.47026060       25      -0.01771460       0.00815659      -0.02254047
Pb       9.59558016       3.21604658       9.41945906       26      -0.20370014       0.21685531       0.34517007
I        9.41333194       3.39521672       6.30403612       27      -0.04134132      -0.02623357       0.40488156
I        9.43116018      12.77528077       9.57984752       28       0.02670619      -0.17411586      -0.04338246
I        6.35264844       3.25682910       9.59904508       29       0.01566875      -0.00439811      -0.01610915
K        6.24727507       6.25875832       0.02536995       30      -0.03448255      -0.05467132       0.04747912
Pb       9.45038009       9.43432164       3.06172935       31      -0.10929579       0.25623502       0.30982032
I        9.50721363       9.51946877      12.80408572       32       0.02922093       0.02267230      -0.46010132
I        9.48573764       6.34833049       3.00558546       33       0.03367634       0.09655718      -0.01188228
I        6.33615132       9.42912755       3.19759237       34       0.15598555       0.00349106       0.03883628
K        6.24034370       6.33795759       6.35673746       35      -0.01312948      -0.01330162      -0.00831307
Pb       9.72311701       9.64327443       9.31281607       36      -0.50987821      -0.20520008       0.93270658
I        9.39988392       9.38765001       6.48952977       37      -0.01652409       0.01356578      -0.98745294
I        9.54964792       6.34844369       9.41821518       38       0.01684663       0.17992265       0.06577619
I        6.37024874       9.53070421       9.52470179       39      -0.02974509       0.02272013       0.01200416
40
Lattice="12.690986950225527 0.0 0.0 0.0 12.691843291541767 0.0 0.0 -5.558220484210087e-14 12.69098695022564" Properties=species:S:1:pos:R:3:spacegroup_kinds:I:1:forces:R:3 spacegroup="P 1" unit_cell=conventional candidate_id=63dcb842016bb68d formula=FA0.4K0.6PbI3 config_index=2 rattle_stdev=0.08 method=PBE fidelity=phase2_force energy=-111.8202769020868 stress="-0.0017540450020836294 1.9630997032658915e-05 -1.704312163267457e-05 1.9630997032658915e-05 -0.0019998249048149646 -7.904184512404233e-05 -1.704312163267457e-05 -7.904184512404233e-05 -0.0013995559924488581" pbc="T T T"
Cs      12.68196991      12.60571817      12.83378910        0       0.02043680      -0.01040572      -0.05460012
Pb       3.06161575       3.16292550       3.06652734        1       0.71117837       0.20525293       0.14958672
I        3.25014517       3.18226472      12.66298889        2      -0.04087597       0.04043226      -0.04427718
I        3.25210965      12.78791625       2.99159703        3      -0.00850557      -0.57675966       0.02835923
I       12.83930925       3.32997245       3.14686509        4      -1.01459598       0.03015308      -0.03021507
Cs      12.65873729      12.61395031       6.30809613        5      -0.00911977      -0.01086566       0.05205177
Pb       3.12074070       3.28674263       9.46149189        6       0.36392546      -0.17252485      -0.00686355
I        3.14108942       3.28584600       6.35185987        7       0.01418663      -0.10069890      -0.11683459
I        3.13372075      12.56794390       9.64685080        8      -0.00755986       0.54822157      -0.01126849
I       12.72400061       3.23479399       9.35056320        9      -0.16613397       0.01285642       0.01223402
K       -0.06297932       6.26364031      12.69845160       10       0.00961322       0.02421622      -0.02888035
Pb       3.13583888       9.56523172       3.15125388       11       0.19447845      -0.20702171       0.05796924
I        3.18162716       9.35650581      12.65076820       12       0.01031803      -0.05953208       0.39847005
I        3.25322589       6.27192184       3.33226162       13      -0.00083665       0.52261718      -0.02972604
I       12.57896806       9.38225999       3.17470926       14       0.59044721       0.00507584       0.03881469
K       -0.02819082       6.35279169       6.35402563       15       0.00042961       0.01066141       0.03802223
Pb       3.16241192       9.61056684       9.55128181       16      -0.01324403      -0.38534666      -0.13269401
I        3.23278303       9.35376497       6.40412005       17      -0.01476487       0.07619315      -0.33881074
I        3.29653489       6.28751901       9.49666769       18       0.01611263       0.11550327       0.03400028
I       12.77714009       9.19375919       9.54701920       19      -0.15904276      -0.00825080      -0.01360132
K        6.42861025      -0.14468591       0.06069128       20      -0.00411363      -0.01089231      -0.00073003
Pb       9.47280351       3.00148771       3.15868564       21      -0.15940030       0.38149359       0.12251021
I        9.35068809       3.29161881      12.64673267       22       0.06989320       0.04499810       0.21807464
I        9.54721072      12.62229786       3.11110936       23       0.02244657       0.08023883      -0.00170479
I        6.33692108       3.42042227       3.09817459       24       0.29378108      -0.11226141       0.00484655
Cs       6.30326107      12.58827395       6.36262140       25       0.01440917      -0.00308211       0.02408373
Pb       9.60291410       3.22115403       9.58491472       26      -0.32882257      -0.06148066      -0.25118930
I        9.39456528       3.33636419       6.32788250       27       0.03526143      -0.07880844      -0.07623526
I        9.51422524      12.61146575       9.72584939       28       0.02080124       0.44402936       0.01517356
I        6.36284234       3.29251414       9.51544204       29       0.05839157      -0.05360755      -0.02544626
K        6.26526274       6.28341683       0.01634222       30      -0.02762597      -0.06644877       0.00483402
Pb       9.55569989       9.41681233       2.98989068       31      -0.37372634      -0.18273682       0.53700871
I        9.52266552       9.41353992      12.67718182       32       0.01727550      -0.02835972      -0.00972903
I        9.31787853       6.33695814       3.23188390       33       0.06473093      -0.11523134      -0.03387345
I        6.38187253       9.60428098       3.13041446       34      -0.37451093       0.08664270      -0.04357382
K        6.34572087       6.30963734       6.37537208       35       0.01424213      -0.03355181       0.00486424
Pb       9.44776325       9.49468753       9.55932495       36       0.29065606       0.12904801      -0.39581401
I        9.40080519       9.41001433       6.41367243       37       0.04765414       0.09457643      -0.20599626
I        9.48840411       6.44102719       9.41774708       38       0.05442281      -0.59378400       0.03216411
I        6.41477674       9.36785562       9.52165167       39      -0.26001006       0.03403929       0.05673952
40
Lattice="12.690986950225527 0.0 0.0 0.0 12.691843291541767 0.0 0.0 -5.558220484210087e-14 12.69098695022564" Properties=species:S:1:pos:R:3:spacegroup_kinds:I:1:forces:R:3 spacegroup="P 1" unit_cell=conventional candidate_id=63dcb842016bb68d formula=FA0.4K0.6PbI3 config_index=3 rattle_stdev=0.08 method=PBE fidelity=phase2_force energy=-111.66506881081587 stress="-0.00193888337883784 0.0001065185467049284 1.0250058074415704e-05 0.0001065185467049284 -0.0020047004180575013 6.672863048674658e-05 1.0250058074415704e-05 6.672863048674658e-05 -0.0014457818780439803" pbc="T T T"
Cs      12.58530347      12.85318352      12.69479211        0       0.01587326       0.07004891       0.02469159
Pb       3.15916072       3.19576098       3.24408244        1      -0.26529967      -0.31966557      -0.67678080
I        3.16554797       3.29484214      12.62899349        2       0.00757890      -0.00268895      -0.07408448
I        3.34077333      12.67386885       3.01264579        3       0.02204227      -0.16389063       0.00665388
I       12.63670413       3.16078084       3.05492412        4       0.10613641       0.00839987       0.02525053
Cs      12.67304321      12.62379841       6.28503427        5      -0.03399474       0.02437273      -0.02253125
Pb       3.19922808       2.98461572       9.39004522        6      -0.03160987       0.45849421       0.44112638
I        3.13123266       3.09471346       6.24335869        7      -0.03886600      -0.04396499       0.41638367
I        3.28146663      12.58953657       9.51063753        8      -0.01521478       0.44053325       0.00768365
I       12.57079729       3.19529231       9.71500016        9       0.48035771      -0.00110677       0.00341269
K       -0.03814223       6.41765477      12.54659189       10       0.00107205      -0.05167615      -0.06774114
Pb       3.13887725       9.40685240       3.10290143       11       0.03779965       0.27728652       0.02338119
I        3.33254134       9.42090153      12.63389123       12      -0.02972808      -0.04860405       0.48262538
I        3.17702767       6.29161125       3.27658821       13      -0.01830667       0.23940491       0.03360822
I       12.55118112       9.45407015       3.12979270       14       1.08512105      -0.04450993       0.00598417
K       -0.06069585       6.35968375       6.29291019       15      -0.05369197       0.00512786      -0.00532735
Pb       3.22239005       9.53342079       9.49396466       16      -0.21146316      -0.50913321       0.05136190
I        3.31442299       9.41873158       6.44242081       17       0.00860716       0.03174006      -0.59199594
I        3.24855312       6.39984133       9.48910366       18      -0.01712890      -0.36162110      -0.03964323
I       12.68303978       9.27459859       9.52768763       19      -0.09848340      -0.00558589       0.02037069
K        6.44139818      -0.02123382      -0.05214397       20      -0.01859338       0.00735482      -0.00866284
Pb       9.36108961       3.06580724       3.13589320       21       0.35688031       0.24917496       0.03030699
I        9.43775264       3.30940194      12.74238898       22      -0.04679869      -0.03118725      -0.17678904
I        9.65439703      12.67826071       3.03604595       23      -0.04370664      -0.26773358       0.00471966
I        6.31000898       3.32019469       3.16496635       24      -0.15640693      -0.01248658       0.02993153
Cs       6.36778454      12.73361057       6.37090281       25       0.01126623      -0.01812710       0.00310506
Pb       9.53098344       3.15780392       9.46622648       26      -0.14579128      -0.06224644       0.01979636
I        9.62634437       3.22141990       6.31678727       27       0.01858449      -0.02707613       0.10046154
I        9.46931427      12.82618105       9.47952333       28      -0.02065268      -0.91029629       0.05307533
I        6.31359530       3.21864537       9.61031627       29      -0.19445140      -0.05252013      -0.05029537
K        6.29931390       6.35162144       0.06937641       30      -0.01188858      -0.02318964      -0.02125913
Pb       9.54600525       9.48471335       3.22776651       31      -0.10712477      -0.17384990       0.21617786
I        9.48892149       9.40414654      12.74331329       32       0.04116177      -0.01267396       0.05327707
I        9.42926241       6.23196575       3.29485753       33       0.06239950       0.26005260       0.03992884
I        6.57903952       9.38542876       3.06373569       34      -1.08305142       0.00719663      -0.00882602
K        6.42993286       6.43757869       6.35514332       35       0.04378130       0.04648765       0.00095004
Pb       9.51381201       9.44685041       9.67377182       36       0.04533310       0.00739143      -0.27953978
I        9.46676281       9.37688904       6.45851282       37      -0.00300750       0.00957634      -0.10348426
I        9.44866499       6.16459632       9.58395631       38      -0.02461740       0.95905643       0.01161909
I        6.30354803       9.45592596       9.65328149       39       0.30888340       0.02590040       0.01321002
