40
Lattice="11.521205645400618 0.0 0.0 0.0 11.522225552076131 0.0 0.0 -4.410972730788167e-15 11.521205645400723" Properties=species:S:1:pos:R:3:spacegroup_kinds:I:1:forces:R:3 spacegroup="P 1" unit_cell=conventional occupancy="_JSON {\"0\": {\"Cs\": 1.0}, \"1\": {\"Sn\": 1.0}, \"2\": {\"Br\": 1.0}, \"3\": {\"Br\": 1.0}, \"4\": {\"Br\": 1.0}, \"5\": {\"Cs\": 1.0}, \"6\": {\"Sn\": 1.0}, \"7\": {\"Br\": 1.0}, \"8\": {\"Br\": 1.0}, \"9\": {\"Br\": 1.0}, \"10\": {\"Cs\": 1.0}, \"11\": {\"Sn\": 1.0}, \"12\": {\"Br\": 1.0}, \"13\": {\"Br\": 1.0}, \"14\": {\"Br\": 1.0}, \"15\": {\"Cs\": 1.0}, \"16\": {\"Ge\": 1.0}, \"17\": {\"Br\": 1.0}, \"18\": {\"Br\": 1.0}, \"19\": {\"Br\": 1.0}, \"20\": {\"Cs\": 1.0}, \"21\": {\"Ge\": 1.0}, \"22\": {\"Br\": 1.0}, \"23\": {\"Br\": 1.0}, \"24\": {\"Br\": 1.0}, \"25\": {\"Cs\": 1.0}, \"26\": {\"Sn\": 1.0}, \"27\": {\"Br\": 1.0}, \"28\": {\"Br\": 1.0}, \"29\": {\"Br\": 1.0}, \"30\": {\"Cs\": 1.0}, \"31\": {\"Ge\": 1.0}, \"32\": {\"Br\": 1.0}, \"33\": {\"Br\": 1.0}, \"34\": {\"Br\": 1.0}, \"35\": {\"Cs\": 1.0}, \"36\": {\"Sn\": 1.0}, \"37\": {\"Br\": 1.0}, \"38\": {\"Br\": 1.0}, \"39\": {\"Br\": 1.0}}" candidate_id=105764109b8558bd formula=CsGe0.42Sn0.58Br3 config_index=0 rattle_stdev=0.0 method=PBE fidelity=phase2_force energy=-126.23502545253969 stress="-0.0014522272966029201 -1.924545338394947e-17 -1.0866461557118088e-15 -1.924545338394947e-17 -0.0017729491427751485 1.856666762466751e-17 -1.0866461557118088e-15 1.856666762466751e-17 -0.0014522272966028948" pbc="T T T"
Cs      11.44313339      11.43966781       0.07807225        0       0.04621755       0.05389636      -0.04621755
Sn       2.88030141       2.88055639       2.88030141        1       0.00000000      -0.00000000      -0.00000000
Br       2.88030141       2.88055639       0.00937253        2       0.00000000      -0.00000000      -0.04648447
Br       2.88030141       0.00694361       2.88030141        3       0.00000000      -0.08229820       0.00000000
Br      11.50445218       2.88055639       2.88030141        4      -0.38863067      -0.00000000       0.00000000
Cs      11.44313339      11.43966781       5.68253057        5       0.04621755       0.05389636       0.04621755
Sn       2.88030141       2.88055639       8.64090423        6       0.00000000      -0.00000000      -0.00000000
Br       2.88030141       2.88055639       5.75123029        7      -0.00000000      -0.00000000       0.04648447
Br       2.88030141      11.49294589       8.64090423        8       0.00000000      -0.30561571      -0.00000000
Br      11.51183311       2.88055639       8.64090423        9       0.04648447      -0.00000000      -0.00000000
Cs      11.44313339       5.84367052       0.07807225       10       0.04621755      -0.05389636      -0.04621755
Sn       2.88030141       8.64166916       2.88030141       11      -0.00000000       0.00000000       0.00000000
Br       2.88030141       8.64166916      11.49595078       12      -0.00000000       0.00000000      -0.26772116
Br       2.88030141       5.75416917       2.88030141       13      -0.00000000       0.08229820       0.00000000
Br      11.49123887       8.64166916       2.88030141       14      -0.30776304      -0.00000000       0.00000000
Cs      11.44313339       5.84367052       5.68253057       15       0.04621755      -0.05389636       0.04621755
Ge       2.88030141       8.64166916       8.64090423       16       0.00000000       0.00000000      -0.00000000
Br       2.88030141       8.64166916       5.78585768       17       0.00000000       0.00000000       0.26772116
Br       2.88030141       5.79039244       8.64090423       18       0.00000000       0.30561571      -0.00000000
Br       0.02525486       8.64166916       8.64090423       19       0.26772116       0.00000000       0.00000000
Cs       5.83867508      11.43966781       0.07807225       20      -0.04621755       0.05389636      -0.04621755
Ge       8.64090423       2.88055639       2.88030141       21      -0.00000000       0.00000000       0.00000000
Br       8.64090423       2.88055639       0.01675346       22      -0.00000000      -0.00000000       0.38863067
Br       8.64090423      11.51422413       2.88030141       23       0.00000000       0.00097397      -0.00000000
Br       5.77735628       2.88055639       2.88030141       24       0.38863067      -0.00000000      -0.00000000
Cs       5.83867508      11.43966781       5.68253057       25      -0.04621755       0.05389636       0.04621755
Sn       8.64090423       2.88055639       8.64090423       26       0.00000000      -0.00000000      -0.00000000
Br       8.64090423       2.88055639       5.74384936       27       0.00000000      -0.00000000      -0.38863067
Br       8.64090423       0.00694361       8.64090423       28      -0.00000000      -0.08229820      -0.00000000
Br       5.76997536       2.88055639       8.64090423       29      -0.04648447      -0.00000000       0.00000000
Cs       5.83867508       5.84367052       0.07807225       30      -0.04621755      -0.05389636      -0.04621755
Ge       8.64090423       8.64166916       2.88030141       31      -0.00000000      -0.00000000       0.00000000
Br       8.64090423       8.64166916       0.02996678       32      -0.00000000      -0.00000000       0.30776304
Br       8.64090423       5.76911420       2.88030141       33      -0.00000000      -0.00097397       0.00000000
Br       5.79056960       8.64166916       2.88030141       34       0.30776304       0.00000000      -0.00000000
Cs       5.83867508       5.84367052       5.68253057       35      -0.04621755      -0.05389636       0.04621755
Sn       8.64090423       8.64166916       8.64090423       36      -0.00000000       0.00000000       0.00000000
Br       8.64090423       8.64166916       5.73063605       37       0.00000000       0.00000000      -0.30776304
Br       8.64090423       5.75416917       8.64090423       38      -0.00000000       0.08229820       0.00000000
Br       5.73534796       8.64166916       8.64090423       39      -0.26772116       0.00000000      -0.00000000
40
Lattice="11.521205645400618 0.0 0.0 0.0 11.522225552076131 0.0 0.0 -4.410972730788167e-15 11.521205645400723" Properties=species:S:1:pos:R:3:spacegroup_kinds:I:1:forces:R:3 spacegroup="P 1" unit_cell=conventional occupancy="_JSON {\"0\": {\"Cs\": 1.0}, \"1\": {\"Sn\": 1.0}, \"2\": {\"Br\": 1.0}, \"3\": {\"Br\": 1.0}, \"4\": {\"Br\": 1.0}, \"5\": {\"Cs\": 1.0}, \"6\": {\"Sn\": 1.0}, \"7\": {\"Br\": 1.0}, \"8\": {\"Br\": 1.0}, \"9\": {\"Br\": 1.0}, \"10\": {\"Cs\": 1.0}, \"11\": {\"Sn\": 1.0}, \"12\": {\"Br\": 1.0}, \"13\": {\"Br\": 1.0}, \"14\": {\"Br\": 1.0}, \"15\": {\"Cs\": 1.0}, \"16\": {\"Ge\": 1.0}, \"17\": {\"Br\": 1.0}, \"18\": {\"Br\": 1.0}, \"19\": {\"Br\": 1.0}, \"20\": {\"Cs\": 1.0}, \"21\": {\"Ge\": 1.0}, \"22\": {\"Br\": 1.0}, \"23\": {\"Br\": 1.0}, \"24\": {\"Br\": 1.0}, \"25\": {\"Cs\": 1.0}, \"26\": {\"Sn\": 1.0}, \"27\": {\"Br\": 1.0}, \"28\": {\"Br\": 1.0}, \"29\": {\"Br\": 1.0}, \"30\": {\"Cs\": 1.0}, \"31\": {\"Ge\": 1.0}, \"32\": {\"Br\": 1.0}, \"33\": {\"Br\": 1.0}, \"34\": {\"Br\": 1.0}, \"35\": {\"Cs\": 1.0}, \"36\": {\"Sn\": 1.0}, \"37\": {\"Br\": 1.0}, \"38\": {\"Br\": 1.0}, \"39\": {\"Br\": 1.0}}" candidate_id=105764109b8558bd formula=CsGe0.42Sn0.58Br3 config_index=1 rattle_stdev=0.08 method=PBE fidelity=phase2_force energy=-125.67736733044936 stress="-0.0040575671915067234 5.9902918371598654e-05 -5.792715321603786e-05 5.9902918371598654e-05 -0.003649013766501967 -9.538106546345704e-05 -5.792715321603786e-05 -9.538106546345704e-05 -0.004044229213649993" pbc="T T T"
Cs      11.35621768      11.36798260       0.05356830        0       0.05939503       0.13261036      -0.01689480
Sn       2.77310672       2.78402954       2.82896327        1       0.36759451       0.41918997       0.30498169
Br       2.98493706       3.02819322       0.07570173        2      -0.09265242      -0.08589029      -0.07404910
Br       2.87843751      -0.00974151       2.80697183        3      -0.01732281      -0.09561260      -0.01459270
Br      11.41847278       2.87366491       2.97436849        4      -0.04516304       0.00666855       0.00013109
Cs      11.31232605      11.53792333       5.76864147        5       0.13066029       0.08242010      -0.04127604
Sn       2.91188324       2.84954032       8.68797637        6       0.10920813       0.00082406      -0.19179320
Br       2.76563751       2.85467041       5.85146906        7       0.06322522       0.01427418      -0.14836936
Br       2.82184200      11.60722469       8.71647655        8      -0.00308342      -0.63502706      -0.02087488
Br      11.49071289       2.86749932       8.56377565        9       0.16980589       0.00483745       0.03114614
Cs      11.41572160       5.84758284       0.03810170       10       0.03143967      -0.09195733      -0.03141446
Sn       2.70334905       8.66645611       2.75312931       11       0.94596713      -0.34789051      -0.11449432
Br       2.93865778       8.63303706      11.44393706       12      -0.09180111       0.02817818      -0.12905225
Br       2.74485689       5.72469125       2.75307167       13      -0.01662979       0.11230387       0.09160851
Br      11.60967934       8.67962438       2.95341052       14      -1.09054647       0.00439107       0.02832738
Cs      11.51997101       5.85043393       5.81990904       15       0.06294514      -0.10297051      -0.02921461
Ge       2.94845283       8.58127834       8.45789389       16       0.37125150      -0.06712827       0.11713475
Br       2.88904051       8.60565651       5.75281989       17      -0.00178177      -0.00278796       0.39911275
Br       2.90582011       5.74710380       8.71679755       18      -0.02006415       0.76610373      -0.12238657
Br       0.03736967       8.64782136       8.63615220       19       0.57074184       0.01888549      -0.06315965
Cs       5.83306398      11.39437588       0.10295268       20      -0.01718287       0.08792798      -0.01858441
Ge       8.69884094       2.92187239       2.96238387       21      -0.32963503      -0.23141648      -0.56882202
Br       8.68251644       2.81096930       0.13679867       22       0.06510951       0.05593198      -0.02241445
Br       8.73422201      11.55357729       2.82172043       23      -0.05558564      -0.06087624       0.17711688
Br       5.83178077       2.92127614       2.81329851       24      -0.00963861      -0.03153848       0.10777986
Cs       5.89048667      11.44067096       5.80729770       25      -0.11667741       0.08655985      -0.04592948
Sn       8.72367186       2.90757180       8.53669540       26      -0.28309435       0.34157059       0.44470823
Br       8.55142069       2.98531760       5.70239200       27       0.02015777      -0.05449079      -0.05733765
Br       8.60945429       0.09038109       8.64688145       28       0.05145342      -0.29093964      -0.07945415
Br       5.77713032       2.88486898       8.67437999       29      -0.07891772      -0.01257915      -0.03121471
Cs       5.74045667       5.75650720       0.10344220       30       0.00588158      -0.02927442      -0.04033851
Ge       8.57847179       8.57317868       2.77471170       31      -0.37172938       0.10867143      -0.28753094
Br       8.67720677       8.72181115       0.14306555       32      -0.04506959      -0.09906102       0.34088740
Br       8.62568960       5.77152304       2.73042807       33       0.04818154       0.20483565       0.10318993
Br       5.78122744       8.63146994       2.95247615       34       0.66127237      -0.00891796      -0.05174043
Cs       5.73352530       5.83570646       5.69377456       35      -0.04666237      -0.07986021       0.01607439
Sn       8.85120871       8.78213147       8.43005241       36      -0.64711933      -0.40757659       1.13565682
Br       8.53797267       8.62793139       5.87467234       37       0.07201440       0.02374915      -1.12828179
Br       8.68959988       5.75669121       8.52359126       38       0.02364284       0.28383489       0.04890135
Br       5.76010322       8.73304659       8.60003670       39      -0.44705994      -0.04844524      -0.01670029
40
Lattice="11.521205645400618 0.0 0.0 0.0 11.522225552076131 0.0 0.0 -4.410972730788167e-15 11.521205645400723" Properties=species:S:1:pos:R:3:spacegroup_kinds:I:1:forces:R:3 spacegroup="P 1" unit_cell=conventional occupancy="_JSON {\"0\": {\"Cs\": 1.0}, \"1\": {\"Sn\": 1.0}, \"2\": {\"Br\": 1.0}, \"3\": {\"Br\": 1.0}, \"4\": {\"Br\": 1.0}, \"5\": {\"Cs\": 1.0}, \"6\": {\"Sn\": 1.0}, \"7\": {\"Br\": 1.0}, \"8\": {\"Br\": 1.0}, \"9\": {\"Br\": 1.0}, \"10\": {\"Cs\": 1.0}, \"11\": {\"Sn\": 1.0}, \"12\": {\"Br\": 1.0}, \"13\": {\"Br\": 1.0}, \"14\": {\"Br\": 1.0}, \"15\": {\"Cs\": 1.0}, \"16\": {\"Ge\": 1.0}, \"17\": {\"Br\": 1.0}, \"18\": {\"Br\": 1.0}, \"19\": {\"Br\": 1.0}, \"20\": {\"Cs\": 1.0}, \"21\": {\"Ge\": 1.0}, \"22\": {\"Br\": 1.0}, \"23\": {\"Br\": 1.0}, \"24\": {\"Br\": 1.0}, \"25\": {\"Cs\": 1.0}, \"26\": {\"Sn\": 1.0}, \"27\": {\"Br\": 1.0}, \"28\": {\"Br\": 1.0}, \"29\": {\"Br\": 1.0}, \"30\": {\"Cs\": 1.0}, \"31\": {\"Ge\": 1.0}, \"32\": {\"Br\": 1.0}, \"33\": {\"Br\": 1.0}, \"34\": {\"Br\": 1.0}, \"35\": {\"Cs\": 1.0}, \"36\": {\"Sn\": 1.0}, \"37\": {\"Br\": 1.0}, \"38\": {\"Br\": 1.0}, \"39\": {\"Br\": 1.0}}" candidate_id=105764109b8558bd formula=CsGe0.42Sn0.58Br3 config_index=2 rattle_stdev=0.08 method=PBE fidelity=phase2_force energy=-125.67138501198637 stress="-0.003376119535129078 1.748271308799504e-05 1.482685098753828e-05 1.748271308799504e-05 -0.0035032067528512896 1.3488104569177049e-06 1.482685098753828e-05 1.3488104569177049e-06 -0.002847971983582064" pbc="T T T"
Cs      11.43411635      11.35354269       0.22087441        0       0.08530937       0.07003368      -0.18130723
Sn       2.76374275       2.85445073       2.77950969        1       0.87073926       0.37906887       0.20825592
Br       2.91037073       2.81030460      -0.01862553        2      -0.08464360       0.07012946      -0.06320234
Br       2.90403423       0.10301656       2.75478179        3      -0.02509660      -0.78255705       0.06248197
Br      11.65277448       2.92007333       2.86984450        4      -1.25385187      -0.00945626      -0.03839678
Cs      11.41088373      11.36177483       5.64513323        5       0.03143040       0.04575931       0.14182614
Sn       2.82286769       2.97826785       8.57872823        6       0.49854051      -0.05156211      -0.05175184
Br       2.83321936       2.87594688       5.75759668        7       0.00940295      -0.09791572      -0.05489026
Br       2.78564533      11.36904649       8.71388473        8       0.02372815      -0.19950764      -0.02233242
Br      11.54484677       2.82489487       8.45780248        9      -0.10417388       0.03916137       0.05484679
Cs      11.38015407       5.76138919       0.08553690       10       0.07248745      -0.01824790      -0.05329009
Sn       2.83796588       8.70408875       2.86423624       11       0.27997564      -0.29249856       0.08965956
Br       2.84185272       8.55884819      11.45573203       12       0.01943414      -0.01056893       0.10686102
Br       2.94349263       5.68016936       3.05710424       13      -0.06168377       0.64227285      -0.11061687
Br      11.37921997       8.62254137       2.89768867       14       0.10829386      -0.04792342      -0.02046869
Cs      11.41494257       5.85054056       5.69106273       15       0.03048797      -0.03928624       0.05062844
Ge       2.86453891       8.74942387       8.66851815       16      -0.28400076       0.00356657      -0.10099477
Br       2.92491296       8.59404635       5.84448426       17      -0.04892774       0.11675248      -0.08609637
Br       2.98680163       5.73198980       8.60204377       18      -0.05911494       0.07536572       0.04593923
Br       0.11140800       8.43404057       8.65425849       19       0.26596743       0.09245900      -0.00535188
Cs       5.92179185      11.29498190       0.13876353       20      -0.10204655       0.15814282      -0.11864833
Ge       8.60089521       2.69301294       2.87166800       21      -0.49284714       0.26023387       0.24621281
Br       8.52068122       2.91965868      -0.02750082       22       0.11969389      -0.00654779       0.54722324
Br       8.72550484      11.44467870       2.87429412       23      -0.04458043       0.31813166      -0.02342239
Br       5.76878389       3.04846215       2.85305838       24       0.78247559      -0.26841670      -0.00879096
Cs       5.79644267      11.33609846       5.69965849       25      -0.01832124       0.11521767       0.08396271
Sn       8.73100580       2.91267926       8.70215106       26      -0.51574218      -0.10493569      -0.32518823
Br       8.53265404       2.92646507       5.72623839       27       0.09241838      -0.15045505      -0.48596802
Br       8.69251935      -0.07343394       8.79288332       28       0.02232355       0.47792539      -0.01186829
Br       5.78732422       2.92055402       8.59077695       29       0.04769829      -0.06449960       0.00962241
Cs       5.75844434       5.78116570       0.09441447       30      -0.05645688      -0.07078578      -0.03814519
Ge       8.68379159       8.55566937       2.70287303       31      -0.29588683      -0.29181307       0.34978617
Br       8.69265865       8.61588230       0.01616164       32       0.00133475      -0.08136841       0.58594952
Br       8.45783049       5.76015069       2.95672652       33       0.21667953       0.18598802      -0.16509404
Br       5.82694865       8.80662336       2.88529825       34      -0.14050883      -0.06856695      -0.07203839
Cs       5.83890247       5.80738621       5.71240917       35      -0.05870430      -0.06237715       0.03655853
Sn       8.57585495       8.63354456       8.67656129       36       0.24386510       0.07982381      -0.54082114
Br       8.53889394       8.65029571       5.79881500       37       0.09988050       0.06876077      -0.23644231
Br       8.62835607       5.84927471       8.52312316       38       0.05450677      -0.55444385       0.08650527
Br       5.80463123       8.57019800       8.59698659       39      -0.33160594       0.07896264       0.10913920
40
Lattice="11.521205645400618 0.0 0.0 0.0 11.522225552076131 0.0 0.0 -4.410972730788167e-15 11.521205645400723" Properties=species:S:1:pos:R:3:spacegroup_kinds:I:1:forces:R:3 spacegroup="P 1" unit_cell=conventional occupancy="_JSON {\"0\": {\"Cs\": 1.0}, \"1\": {\"Sn\": 1.0}, \"2\": {\"Br\": 1.0}, \"3\": {\"Br\": 1.0}, \"4\": {\"Br\": 1.0}, \"5\": {\"Cs\": 1.0}, \"6\": {\"Sn\": 1.0}, \"7\": {\"Br\": 1.0}, \"8\": {\"Br\": 1.0}, \"9\": {\"Br\": 1.0}, \"10\": {\"Cs\": 1.0}, \"11\": {\"Sn\": 1.0}, \"12\": {\"Br\": 1.0}, \"13\": {\"Br\": 1.0}, \"14\": {\"Br\": 1.0}, \"15\": {\"Cs\": 1.0}, \"16\": {\"Ge\": 1.0}, \"17\": {\"Br\": 1.0}, \"18\": {\"Br\": 1.0}, \"19\": {\"Br\": 1.0}, \"20\": {\"Cs\": 1.0}, \"21\": {\"Ge\": 1.0}, \"22\": {\"Br\": 1.0}, \"23\": {\"Br\": 1.0}, \"24\": {\"Br\": 1.0}, \"25\": {\"Cs\": 1.0}, \"26\": {\"Sn\": 1.0}, \"27\": {\"Br\": 1.0}, \"28\": {\"Br\": 1.0}, \"29\": {\"Br\": 1.0}, \"30\": {\"Cs\": 1.0}, \"31\": {\"Ge\": 1.0}, \"32\": {\"Br\": 1.0}, \"33\": {\"Br\": 1.0}, \"34\": {\"Br\": 1.0}, \"35\": {\"Cs\": 1.0}, \"36\": {\"Sn\": 1.0}, \"37\": {\"Br\": 1.0}, \"38\": {\"Br\": 1.0}, \"39\": {\"Br\": 1.0}}" candidate_id=105764109b8558bd formula=CsGe0.42Sn0.58Br3 config_index=3 rattle_stdev=0.08 method=PBE fidelity=phase2_force energy=-125.60603592479161 stress="-0.0027507811020975924 0.000146609663449362 7.216131133853102e-05 0.000146609663449362 -0.0038995929461290153 -6.190227504987925e-06 7.216131133853102e-05 -6.190227504987925e-06 -0.0026545429914751908" pbc="T T T"
Cs      11.33744991      11.60100804       0.08187741        0       0.14439318       0.05899345      -0.05797882
Sn       2.86128772       2.88728620       2.95706479        1      -0.33371896      -0.39409118      -0.90007351
Br       2.82577353       2.92288202      -0.05262092        2       0.04702492      -0.02391891      -0.14968620
Br       2.99269791      -0.01103083       2.77583056        3       0.01703164      -0.27939441       0.01202250
Br      11.45016937       2.75088173       2.77790353        4      -0.11804475       0.09150224       0.08212386
Cs      11.42518965      11.37162292       5.62207136        5       0.03626433       0.06825921       0.04993531
Sn       2.90135508       2.67614094       8.50728156        6       0.00128666       0.56149188       0.66109727
Br       2.82336260       2.68481434       5.64909550        7      -0.03214198      -0.03176869       0.47732478
Br       2.93339122      11.39063917       8.57767146        8      -0.03108142       0.08208554       0.02670588
Br      11.39164345       2.78539319       8.82223945        9       0.50451699       0.02950354      -0.05495795
Cs      11.40499116       5.91540364      -0.06632281       10       0.09823128      -0.17290166      -0.00568960
Sn       2.84100424       8.54570944       2.81588379       11       0.08041761       0.41105434       0.00994164
Br       2.99276690       8.62324391      11.43885506       12      -0.07898707      -0.03459066       0.28379258
Br       2.86729441       5.69985878       3.00143083       13      -0.02589381       0.35279578       0.01538465
Br      11.35143304       8.69435153       2.85277211       14       0.69071228      -0.10500561       0.01140524
Cs      11.38243754       5.85743262       5.62994729       15       0.03043243      -0.06581602       0.07220130
Ge       2.92451705       8.67227782       8.61120101       16       0.03335324      -0.61348802      -0.08989465
Br       3.00655293       8.65901296       5.88278502       17      -0.03840622       0.01899690      -0.18942919
Br       2.93881986       5.84431213       8.59447975       18      -0.02342424       0.02342848      -0.04673668
Br       0.01730769       8.51487997       8.63492692       19       0.02659107       0.06717232       0.00365126
Cs       5.93457979      11.41843399       0.02592829       20      -0.10700581       0.08482912      -0.01038754
Ge       8.48918131       2.75733247       2.84887555       21       0.32947332       0.29344978      -0.08522919
Br       8.60774577       2.93744181       0.06815549       22      -0.09929182      -0.06981447       0.29859766
Br       8.83269114      11.50064154       2.79923072       23      -0.27262939      -0.13828183       0.07402020
Br       5.74187179       2.94823456       2.91985013       24       0.39297465      -0.09155986       0.02341429
Cs       5.86096614      11.48143508       5.70793990       25      -0.02098366      -0.01164964       0.01299881
Sn       8.65907514       2.84932915       8.58346283       26      -0.16456411      -0.04316802       0.04539198
Br       8.76443313       2.81152078       5.71514315       27      -0.05416025      -0.00717521      -0.21839167
Br       8.64760838       0.14128137       8.54655726       28      -0.02259099      -1.16863499       0.08014465
Br       5.73807718       2.84668524       8.68565118       29      -0.29645718      -0.06374464      -0.07821971
Cs       5.79249550       5.84937031       0.14744866       30      -0.04960168      -0.11654269      -0.10489212
Ge       8.67409695       8.62357038       2.94074886       31      -0.21732989      -0.15101747       0.09612297
Br       8.65891462       8.60648892       0.08229312       32       0.03075724       0.00489279       0.34691991
Br       8.56921437       5.65515830       3.01970014       33       0.09903489       0.15792162      -0.08197433
Br       6.02411565       8.58777114       2.81861947       34      -0.56300707       0.07273378       0.04881184
Cs       5.92311446       5.93532756       5.69218041       35      -0.07565304      -0.05914180       0.09337614
Sn       8.64190371       8.58570745       8.79100816       36       0.07617057       0.01846302      -0.38045284
Br       8.60485156       8.61717042       5.84365539       37       0.03349623       0.03730227      -0.34624574
Br       8.58861695       5.57284384       8.68933239       38       0.00310343       1.18665677      -0.00446132
Br       5.69340252       8.65826835       8.72861640       39      -0.05510699       0.01841503      -0.02203641
