40
Lattice="11.474589256503641 0.0 0.0 0.0 11.476501455099447 0.0 0.0 -2.4776090431148453e-14 11.474589256503755" Properties=species:S:1:pos:R:3:spacegroup_kinds:I:1:forces:R:3 spacegroup="P 1" unit_cell=conventional occupancy="_JSON {\"0\": {\"Rb\": 1.0}, \"1\": {\"Sn\": 1.0}, \"2\": {\"Br\": 1.0}, \"3\": {\"Br\": 1.0}, \"4\": {\"Br\": 1.0}, \"5\": {\"Rb\": 1.0}, \"6\": {\"Sn\": 1.0}, \"7\": {\"Br\": 1.0}, \"8\": {\"Br\": 1.0}, \"9\": {\"Br\": 1.0}, \"10\": {\"Rb\": 1.0}, \"11\": {\"Sn\": 1.0}, \"12\": {\"Br\": 1.0}, \"13\": {\"Br\": 1.0}, \"14\": {\"Br\": 1.0}, \"15\": {\"Rb\": 1.0}, \"16\": {\"Ge\": 1.0}, \"17\": {\"Br\": 1.0}, \"18\": {\"Br\": 1.0}, \"19\": {\"Br\": 1.0}, \"20\": {\"Rb\": 1.0}, \"21\": {\"Ge\": 1.0}, \"22\": {\"Br\": 1.0}, \"23\": {\"Br\": 1.0}, \"24\": {\"Br\": 1.0}, \"25\": {\"Rb\": 1.0}, \"26\": {\"Sn\": 1.0}, \"27\": {\"Br\": 1.0}, \"28\": {\"Br\": 1.0}, \"29\": {\"Br\": 1.0}, \"30\": {\"Rb\": 1.0}, \"31\": {\"Ge\": 1.0}, \"32\": {\"Br\": 1.0}, \"33\": {\"Br\": 1.0}, \"34\": {\"Br\": 1.0}, \"35\": {\"Rb\": 1.0}, \"36\": {\"Sn\": 1.0}, \"37\": {\"Br\": 1.0}, \"38\": {\"Br\": 1.0}, \"39\": {\"Br\": 1.0}}" candidate_id=f89ac387beb50b09 formula=RbGe0.37Sn0.63Br3 config_index=0 rattle_stdev=0.0 method=PBE fidelity=phase2_force energy=-124.74049457569059 stress="-0.0007632914259832263 4.8081203481185886e-17 1.4805346412801908e-10 4.8081203481185886e-17 -0.0011160534283089247 -5.0491001343893565e-17 1.4805346412801908e-10 -5.0491001343893565e-17 -0.000763291425983211" pbc="T T T"
Rb      11.37740743      11.37500049       0.09718182        0       0.03067844       0.03697159      -0.03067844
Sn       2.86864731       2.86912536       2.86864731        1       0.00000000      -0.00000000       0.00000000
Br       2.86864731       2.86912536       0.01034763        2       0.00000017       0.00000000      -0.05063536
Br       2.86864731       0.00711838       2.86864731        3      -0.00000000      -0.09529678      -0.00000000
Br      11.45577329       2.86912536       2.86864731        4      -0.39289786      -0.00000000      -0.00000028
Rb      11.37740743      11.37500049       5.64011280        5       0.03067855       0.03697144       0.03067855
Sn       2.86864731       2.86912536       8.60594194        6      -0.00000000       0.00000000       0.00000000
Br       2.86864731       2.86912536       5.72694700        7      -0.00000017      -0.00000000       0.05063536
Br       2.86864731      11.44395368       8.60594194        8      -0.00000000      -0.30083067       0.00000000
Br      11.46424162       2.86912536       8.60594194        9       0.05063536       0.00000000      -0.00000017
Rb      11.37740743       5.83975170       0.09718182       10       0.03067844      -0.03697159      -0.03067844
Sn       2.86864731       8.60737609       2.86864731       11       0.00000000      -0.00000000       0.00000000
Br       2.86864731       8.60737609      11.44660339       12       0.00000010      -0.00000000      -0.25114187
Br       2.86864731       5.73113235       2.86864731       13      -0.00000000       0.09529678      -0.00000000
Br      11.43982080       8.60737609       2.86864731       14      -0.28930074      -0.00000000      -0.00000007
Rb      11.37740743       5.83975170       5.64011280       15       0.03067855      -0.03697144       0.03067855
Ge       2.86864731       8.60737609       8.60594194       16      -0.00000000      -0.00000000       0.00000000
Br       2.86864731       8.60737609       5.76528049       17      -0.00000010      -0.00000000       0.25114187
Br       2.86864731       5.77079851       8.60594194       18      -0.00000000       0.30083067       0.00000000
Br       0.02798586       8.60737609       8.60594194       19       0.25114187      -0.00000000      -0.00000010
Rb       5.83447645      11.37500049       0.09718182       20      -0.03067855       0.03697144      -0.03067855
Ge       8.60594194       2.86912536       2.86864731       21      -0.00000000       0.00000000       0.00000000
Br       8.60594194       2.86912536       0.01881596       22       0.00000028      -0.00000000       0.39289786
Br       8.60594194      11.46641146       2.86864731       23       0.00000000       0.00514622      -0.00000000
Br       5.75611059       2.86912536       2.86864731       24       0.39289786      -0.00000000       0.00000028
Rb       5.83447645      11.37500049       5.64011280       25      -0.03067844       0.03697159       0.03067844
Sn       8.60594194       2.86912536       8.60594194       26      -0.00000000      -0.00000000      -0.00000000
Br       8.60594194       2.86912536       5.71847866       27      -0.00000028      -0.00000000      -0.39289786
Br       8.60594194       0.00711838       8.60594194       28       0.00000000      -0.09529678       0.00000000
Br       5.74764226       2.86912536       8.60594194       29      -0.05063536      -0.00000000       0.00000017
Rb       5.83447645       5.83975170       0.09718182       30      -0.03067855      -0.03697144      -0.03067855
Ge       8.60594194       8.60737609       2.86864731       31       0.00000000       0.00000000      -0.00000000
Br       8.60594194       8.60737609       0.03476846       32       0.00000007      -0.00000000       0.28930074
Br       8.60594194       5.74834072       2.86864731       33       0.00000000      -0.00514622      -0.00000000
Br       5.77206309       8.60737609       2.86864731       34       0.28930074       0.00000000       0.00000007
Rb       5.83447645       5.83975170       5.64011280       35      -0.03067844      -0.03697159       0.03067844
Sn       8.60594194       8.60737609       8.60594194       36      -0.00000000      -0.00000000      -0.00000000
Br       8.60594194       8.60737609       5.70252617       37      -0.00000007       0.00000000      -0.28930074
Br       8.60594194       5.73113235       8.60594194       38       0.00000000       0.09529678       0.00000000
Br       5.70930877       8.60737609       8.60594194       39      -0.25114187      -0.00000000       0.00000010
40
Lattice="11.474589256503641 0.0 0.0 0.0 11.476501455099447 0.0 0.0 -2.4776090431148453e-14 11.474589256503755" Properties=species:S:1:pos:R:3:spacegroup_kinds:I:1:forces:R:3 spacegroup="P 1" unit_cell=conventional occupancy="_JSON {\"0\": {\"Rb\": 1.0}, \"1\": {\"Sn\": 1.0}, \"2\": {\"Br\": 1.0}, \"3\": {\"Br\": 1.0}, \"4\": {\"Br\": 1.0}, \"5\": {\"Rb\": 1.0}, \"6\": {\"Sn\": 1.0}, \"7\": {\"Br\": 1.0}, \"8\": {\"Br\": 1.0}, \"9\": {\"Br\": 1.0}, \"10\": {\"Rb\": 1.0}, \"11\": {\"Sn\": 1.0}, \"12\": {\"Br\": 1.0}, \"13\": {\"Br\": 1.0}, \"14\": {\"Br\": 1.0}, \"15\": {\"Rb\": 1.0}, \"16\": {\"Ge\": 1.0}, \"17\": {\"Br\": 1.0}, \"18\": {\"Br\": 1.0}, \"19\": {\"Br\": 1.0}, \"20\": {\"Rb\": 1.0}, \"21\": {\"Ge\": 1.0}, \"22\": {\"Br\": 1.0}, \"23\": {\"Br\": 1.0}, \"24\": {\"Br\": 1.0}, \"25\": {\"Rb\": 1.0}, \"26\": {\"Sn\": 1.0}, \"27\": {\"Br\": 1.0}, \"28\": {\"Br\": 1.0}, \"29\": {\"Br\": 1.0}, \"30\": {\"Rb\": 1.0}, \"31\": {\"Ge\": 1.0}, \"32\": {\"Br\": 1.0}, \"33\": {\"Br\": 1.0}, \"34\": {\"Br\": 1.0}, \"35\": {\"Rb\": 1.0}, \"36\": {\"Sn\": 1.0}, \"37\": {\"Br\": 1.0}, \"38\": {\"Br\": 1.0}, \"39\": {\"Br\": 1.0}}" candidate_id=f89ac387beb50b09 formula=RbGe0.37Sn0.63Br3 config_index=1 rattle_stdev=0.08 method=PBE fidelity=phase2_force energy=-124.17215332877397 stress="-0.0033739451450273653 8.664822094366815e-05 -7.427052343596293e-05 8.664822094366815e-05 -0.002979404225965477 -0.00011924872142980045 -7.427052343596293e-05 -0.00011924872142980045 -0.003414088855380402" pbc="T T T"
Rb      11.29049172      11.30331528       0.07267787        0       0.00349844       0.09352512      -0.00294315
Sn       2.76145262       2.77259852       2.81730917        1       0.36691821       0.42633384       0.31716136
Br       2.97328296       3.01676220       0.07667683        2      -0.07027284      -0.05923140      -0.09781996
Br       2.86678341      -0.00956674       2.79531773        3      -0.00954673      -0.11887431      -0.03694240
Br      11.36979389       2.86223388       2.96271440        4      -0.02890248       0.00125581       0.01462097
Rb      11.24660009      11.47325601       5.72622370        5       0.08786564       0.09947815      -0.03421150
Sn       2.90022914       2.83810930       8.65301408        6       0.10715988       0.00592364      -0.18541956
Br       2.75398341       2.84323939       5.82718577        7       0.05427952       0.01833295      -0.16354619
Br       2.81018791      11.55823248       8.68151425        8      -0.01169124      -0.66206185      -0.00951423
Br      11.44312140       2.85606830       8.52881336        9       0.19124634      -0.00070858       0.01297285
Rb      11.34999565       5.84366402       0.05721127       10       0.02330471      -0.08117005      -0.01323348
Sn       2.69169495       8.63216304       2.74147521       11       0.98291954      -0.35371931      -0.11489366
Br       2.92700368       8.59874399      11.39458968       12      -0.07961035       0.03304858      -0.12168850
Br       2.73320279       5.70165442       2.74141758       13      -0.03247001       0.13242398       0.07417958
Br      11.55826127       8.64533131       2.94175642       14      -1.14900512       0.01110556       0.03673457
Rb      11.45424505       5.84651510       5.77749128       15       0.06621482      -0.09558497       0.00385786
Ge       2.93679873       8.54698527       8.42293160       16       0.36306587      -0.06396774       0.13810341
Br       2.87738641       8.57136344       5.73224269       17      -0.00032770      -0.02536611       0.35364059
Br       2.89416601       5.72750987       8.68183526       18      -0.01835120       0.77274885      -0.12031500
Br       0.04010067       8.61352829       8.60118991       19       0.57811001       0.01650717      -0.06661542
Rb       5.82886536      11.32970856       0.12206225       20      -0.01103147       0.06396144      -0.00703001
Ge       8.66387865       2.91044137       2.95072977       21      -0.33647638      -0.23049013      -0.57276156
Br       8.64755415       2.79953828       0.13886118       22       0.07997983       0.04780193      -0.04994837
Br       8.69925971      11.50576462       2.81006634       23      -0.03111241      -0.07164164       0.17646009
Br       5.81053508       2.90984511       2.80164442       24      -0.02329924      -0.01710077       0.09666981
Rb       5.88628804      11.37600364       5.76487993       25      -0.07486724       0.05108835      -0.00973674
Sn       8.68870957       2.89614078       8.50173311       26      -0.28704645       0.33721996       0.44608236
Br       8.51645840       2.97388657       5.67702130       27       0.00738281      -0.05634205      -0.04431397
Br       8.57449200       0.09055586       8.61191916       28       0.05569472      -0.31801285      -0.10391421
Br       5.75479722       2.87343795       8.63941770       29      -0.07726151      -0.01267640      -0.03352679
Rb       5.73625805       5.75258837       0.12255177       30      -0.03371625      -0.06527898      -0.00889513
Ge       8.54350950       8.53888561       2.76305760       31      -0.34113144       0.12077728      -0.22066772
Br       8.64224447       8.68751808       0.14786723       32      -0.01922733      -0.06854566       0.24633215
Br       8.59072731       5.75074956       2.71877398       33       0.05126236       0.19590344       0.06864893
Br       5.76272093       8.59717686       2.94082206       34       0.62733125      -0.01097118      -0.04449419
Rb       5.72932668       5.83178764       5.65135679       35      -0.04058256      -0.05924565       0.01429486
Sn       8.81624642       8.74783840       8.39509012       36      -0.65426747      -0.40530462       1.18882815
Br       8.50301038       8.59363832       5.84656247       37       0.05784833       0.03658732      -1.19683677
Br       8.65463759       5.73365439       8.48862897       38       0.04519942       0.32437853       0.03092581
Br       5.73406403       8.69875352       8.56507441       39      -0.41046771      -0.02314391      -0.03084637
40
Lattice="11.474589256503641 0.0 0.0 0.0 11.476501455099447 0.0 0.0 -2.4776090431148453e-14 11.474589256503755" Properties=species:S:1:pos:R:3:spacegroup_kinds:I:1:forces:R:3 spacegroup="P 1" unit_cell=conventional occupancy="_JSON {\"0\": {\"Rb\": 1.0}, \"1\": {\"Sn\": 1.0}, \"2\": {\"Br\": 1.0}, \"3\": {\"Br\": 1.0}, \"4\": {\"Br\": 1.0}, \"5\": {\"Rb\": 1.0}, \"6\": {\"Sn\": 1.0}, \"7\": {\"Br\": 1.0}, \"8\": {\"Br\": 1.0}, \"9\": {\"Br\": 1.0}, \"10\": {\"Rb\": 1.0}, \"11\": {\"Sn\": 1.0}, \"12\": {\"Br\": 1.0}, \"13\": {\"Br\": 1.0}, \"14\": {\"Br\": 1.0}, \"15\": {\"Rb\": 1.0}, \"16\": {\"Ge\": 1.0}, \"17\": {\"Br\": 1.0}, \"18\": {\"Br\": 1.0}, \"19\": {\"Br\": 1.0}, \"20\": {\"Rb\": 1.0}, \"21\": {\"Ge\": 1.0}, \"22\": {\"Br\": 1.0}, \"23\": {\"Br\": 1.0}, \"24\": {\"Br\": 1.0}, \"25\": {\"Rb\": 1.0}, \"26\": {\"Sn\": 1.0}, \"27\": {\"Br\": 1.0}, \"28\": {\"Br\": 1.0}, \"29\": {\"Br\": 1.0}, \"30\": {\"Rb\": 1.0}, \"31\": {\"Ge\": 1.0}, \"32\": {\"Br\": 1.0}, \"33\": {\"Br\": 1.0}, \"34\": {\"Br\": 1.0}, \"35\": {\"Rb\": 1.0}, \"36\": {\"Sn\": 1.0}, \"37\": {\"Br\": 1.0}, \"38\": {\"Br\": 1.0}, \"39\": {\"Br\": 1.0}}" candidate_id=f89ac387beb50b09 formula=RbGe0.37Sn0.63Br3 config_index=2 rattle_stdev=0.08 method=PBE fidelity=phase2_force energy=-124.18969945197274 stress="-0.0026960099231565803 6.317635499030405e-06 1.674817739155311e-05 6.317635499030405e-06 -0.0028528366613723138 -3.243102773799798e-05 1.674817739155311e-05 -3.243102773799798e-05 -0.002056266800292344" pbc="T T T"
Rb      11.36839039      11.28887537       0.23998398        0       0.06235079       0.03189141      -0.11892073
Sn       2.75208865       2.84301970       2.76785560        1       0.90352116       0.38652390       0.21505217
Br       2.89871663       2.79887357      -0.01765043        2      -0.08469962       0.07431052      -0.07462219
Br       2.89238013       0.10319133       2.74312770        3      -0.03092943      -0.82422040       0.04370662
Br      11.60409559       2.90864231       2.85819040        4      -1.33119724       0.00467411      -0.04855539
Rb      11.34515777      11.29710751       5.60271546        5       0.00918956       0.02532688       0.11014512
Sn       2.81121360       2.96683683       8.54376594        6       0.50847668      -0.05461074      -0.04750097
Br       2.82156526       2.86451586       5.73331339        7       0.00772391      -0.10582235      -0.07656777
Br       2.77399123      11.32005428       8.67892244        8       0.01625259      -0.14170218      -0.02037151
Br      11.49725528       2.81346384       8.42284019        9      -0.10443991       0.03909442       0.03318289
Rb      11.31442811       5.75747036       0.10464647       10       0.04804973      -0.00336876      -0.04687728
Sn       2.82631178       8.66979568       2.85258214       11       0.27733942      -0.29141143       0.08836781
Br       2.83019863       8.52455512      11.40638464       12       0.02246338      -0.02206514       0.14114362
Br       2.93183853       5.65713254       3.04545014       13      -0.04883752       0.68065280      -0.08586945
Br      11.32780190       8.58824830       2.88603457       14       0.17100350      -0.03217773      -0.01537891
Rb      11.34921661       5.84662174       5.64864496       15       0.01929516      -0.02470331       0.05645724
Ge       2.85288482       8.71513080       8.63355586       16      -0.26929087      -0.02249084      -0.10418460
Br       2.91325887       8.55975328       5.82390707       17      -0.03670581       0.12432931      -0.11811663
Br       2.97514753       5.71239587       8.56708148       18      -0.03676758       0.09119457       0.04395506
Br       0.11413900       8.39974750       8.61929620       19       0.22402369       0.05858753      -0.01203343
Rb       5.91759322      11.23031458       0.15787310       20      -0.06807869       0.09750185      -0.06995987
Ge       8.56593292       2.68158191       2.86001390       21      -0.48161669       0.28276122       0.24254261
Br       8.48571893       2.90822766      -0.02543832       22       0.11476889       0.01518557       0.57495522
Br       8.69054254      11.39686603       2.86264003       23      -0.00981369       0.30332438      -0.04249847
Br       5.74753820       3.03703113       2.84140428       24       0.77728178      -0.23754568      -0.01655944
Rb       5.79224404      11.27143114       5.65724073       25      -0.00914627       0.04674692       0.06115620
Sn       8.69604351       2.90124823       8.66718877       26      -0.52197877      -0.10374215      -0.33452645
Br       8.49769175       2.91503404       5.70086769       27       0.08035999      -0.13874666      -0.48701606
Br       8.65755706      -0.07325916       8.75792103       28       0.02327208       0.49850772       0.01737052
Br       5.76499113       2.90912299       8.55581466       29       0.04446285      -0.05679944      -0.00093849
Rb       5.75424572       5.77724688       0.11352404       30      -0.05599498      -0.09247614      -0.01567055
Ge       8.64882930       8.52137629       2.69121893       31      -0.32174865      -0.27781661       0.38684995
Br       8.65769636       8.58158923       0.02096332       32       0.00629190      -0.07009492       0.54678477
Br       8.42286820       5.73937721       2.94507242       33       0.19545153       0.15816866      -0.15447086
Br       5.80844214       8.77233029       2.87364415       34      -0.16428663      -0.00280109      -0.09105224
Rb       5.83470385       5.80346739       5.66999140       35      -0.03375547      -0.06509410       0.02656873
Sn       8.54089266       8.59925149       8.64159900       36       0.25302443       0.08336571      -0.53181204
Br       8.50393165       8.61600264       5.77070512       37       0.08518840       0.08547529      -0.25953557
Br       8.59339378       5.82623789       8.48816087       38       0.05647095      -0.57729363       0.06492458
Br       5.77859203       8.53590493       8.56202429       39      -0.34117625       0.07761399       0.10476815
40
Lattice="11.474589256503641 0.0 0.0 0.0 11.476501455099447 0.0 0.0 -2.4776090431148453e-14 11.474589256503755" Properties=species:S:1:pos:R:3:spacegroup_kinds:I:1:forces:R:3 spacegroup="P 1" unit_cell=conventional occupancy="_JSON {\"0\": {\"Rb\": 1.0}, \"1\": {\"Sn\": 1.0}, \"2\": {\"Br\": 1.0}, \"3\": {\"Br\": 1.0}, \"4\": {\"Br\": 1.0}, \"5\": {\"Rb\": 1.0}, \"6\": {\"Sn\": 1.0}, \"7\": {\"Br\": 1.0}, \"8\": {\"Br\": 1.0}, \"9\": {\"Br\": 1.0}, \"10\": {\"Rb\": 1.0}, \"11\": {\"Sn\": 1.0}, \"12\": {\"Br\": 1.0}, \"13\": {\"Br\": 1.0}, \"14\": {\"Br\": 1.0}, \"15\": {\"Rb\": 1.0}, \"16\": {\"Ge\": 1.0}, \"17\": {\"Br\": 1.0}, \"18\": {\"Br\": 1.0}, \"19\": {\"Br\": 1.0}, \"20\": {\"Rb\": 1.0}, \"21\": {\"Ge\": 1.0}, \"22\": {\"Br\": 1.0}, \"23\": {\"Br\": 1.0}, \"24\": {\"Br\": 1.0}, \"25\": {\"Rb\": 1.0}, \"26\": {\"Sn\": 1.0}, \"27\": {\"Br\": 1.0}, \"28\": {\"Br\": 1.0}, \"29\": {\"Br\": 1.0}, \"30\": {\"Rb\": 1.0}, \"31\": {\"Ge\": 1.0}, \"32\": {\"Br\": 1.0}, \"33\": {\"Br\": 1.0}, \"34\": {\"Br\": 1.0}, \"35\": {\"Rb\": 1.0}, \"36\": {\"Sn\": 1.0}, \"37\": {\"Br\": 1.0}, \"38\": {\"Br\": 1.0}, \"39\": {\"Br\": 1.0}}" candidate_id=f89ac387beb50b09 formula=RbGe0.37Sn0.63Br3 config_index=3 rattle_stdev=0.08 method=PBE fidelity=phase2_force energy=-124.11086501197616 stress="-0.00211926528797348 0.00014958001311437755 5.4277336623684204e-05 0.00014958001311437755 -0.003226638955082037 -1.6948743371007826e-06 5.4277336623684204e-05 -1.6948743371007826e-06 -0.0019159560306784304" pbc="T T T"
Rb      11.27172395      11.53634072       0.10098698        0       0.08204086       0.11395319      -0.01279430
Sn       2.84963362       2.87585518       2.94541069        1      -0.33415655      -0.39493280      -0.92354837
Br       2.81411943       2.91145100      -0.05164583        2       0.04604755      -0.01449923      -0.14519167
Br       2.98104381      -0.01085606       2.76417646        3       0.04005313      -0.29394744       0.00539821
Br      11.40149047       2.73945070       2.76624943        4      -0.12388662       0.06452123       0.06303856
Rb      11.35946370      11.30695560       5.57965360        5       0.00382699       0.06259757       0.01629036
Sn       2.88970098       2.66470992       8.47231927        6      -0.00621600       0.56156695       0.65755094
Br       2.81170850       2.67338331       5.62481221        7      -0.03764252      -0.05840833       0.51329094
Br       2.92173712      11.34164696       8.54270917        8      -0.02861623       0.10918211       0.01717646
Br      11.34405196       2.77396217       8.78727715        9       0.54062256       0.00889364      -0.01787836
Rb      11.33926521       5.91148482      -0.04721324       10       0.06343952      -0.13112088      -0.04895290
Sn       2.82935014       8.51141636       2.80422969       11       0.07854371       0.41189713       0.01190147
Br       2.98111280       8.58895084      11.38950767       12      -0.06361477      -0.05222391       0.31218126
Br       2.85564031       5.67682195       2.98977673       13      -0.02997480       0.36703410       0.03663073
Br      11.30001497       8.66005846       2.84111801       14       0.77336140      -0.10469228       0.02200899
Rb      11.31671158       5.85351380       5.58752952       15      -0.00516806      -0.04075058       0.04103475
Ge       2.91286295       8.63798475       8.57623871       16       0.01910750      -0.62509380      -0.07735714
Br       2.99489883       8.62471989       5.86220782       17      -0.02239539       0.02284663      -0.24535105
Br       2.92716576       5.82471819       8.55951745       18      -0.02013280      -0.00572458      -0.05402226
Br       0.02003869       8.48058690       8.59996463       19       0.01331564       0.03650534       0.01902042
Rb       5.93038116      11.35376667       0.04503785       20      -0.08333038       0.05332694      -0.01664287
Ge       8.45421901       2.74590145       2.83722146       21       0.33697003       0.30026875      -0.08165952
Br       8.57278348       2.92601079       0.07021800       22      -0.10720905      -0.07540141       0.28215169
Br       8.79772885      11.45282888       2.78757662       23      -0.23891752      -0.15105644       0.04491366
Br       5.72062610       2.93680354       2.90819604       24       0.38954099      -0.08146838       0.03033970
Rb       5.85676751      11.41676776       5.66552214       25      -0.02383736      -0.00769067       0.02874245
Sn       8.62411285       2.83789812       8.54850054       26      -0.18039880      -0.03944294       0.04962023
Br       8.72947084       2.80008975       5.68977246       27      -0.04058429      -0.01806967      -0.21901239
Br       8.61264609       0.14145614       8.51159496       28      -0.02802594      -1.24476270       0.07736210
Br       5.71574409       2.83525422       8.65068889       29      -0.28887293      -0.07543188      -0.07824798
Rb       5.78829688       5.84545149       0.16655823       30      -0.03947158      -0.08604993      -0.07467629
Ge       8.63913466       8.58927731       2.92909476       31      -0.20925834      -0.16031687       0.09987092
Br       8.62395233       8.57219585       0.08709480       32       0.04201127      -0.00342383       0.34758502
Br       8.53425208       5.63438483       3.00804604       33       0.08877181       0.17233880      -0.04199245
Br       6.00560914       8.55347807       2.80696537       34      -0.66082635       0.05413529       0.02895947
Rb       5.91891584       5.93140874       5.64976265       35      -0.03021132      -0.01555231       0.05518806
Sn       8.60694142       8.55141437       8.75604587       36       0.07538910       0.01720883      -0.38055358
Br       8.56988927       8.58287735       5.81554552       37       0.02481421       0.02444386      -0.34387211
Br       8.55365466       5.54980702       8.65437010       38       0.00266709       1.25444643       0.00368613
Br       5.66736333       8.62397527       8.69365411       39      -0.01564219       0.02712079      -0.00281262
