5
Lattice="5.714958824489778 0.0 0.0 0.0 5.714958824489773 0.0 0.0 -1.4877768990576327e-14 5.714958824489776" Properties=species:S:1:pos:R:3:spacegroup_kinds:I:1:forces:R:3 spacegroup="P 1" unit_cell=conventional candidate_id=c8157fcc1299a7bd formula=FAPbCl3 config_index=0 rattle_stdev=0.0 method=PBE fidelity=phase2_force energy=-17.610689517767398 stress="0.0003392088863081204 0.0 6.4809150233371386e-21 0.0 0.0003392088863081225 8.554807830805023e-19 6.4809150233371386e-21 8.554807830805023e-19 0.00033920888630812257" pbc="T T T"
Cs       0.00000000       0.00000000       0.00000000        0      -0.00000000      -0.00000000       0.00000000
Pb       2.85747941       2.85747941       2.85747941        1       0.00000000      -0.00000000      -0.00000000
Cl       2.85747941       2.85747941       0.00000000        2      -0.00000000      -0.00000000      -0.00000000
Cl       2.85747941      -0.00000000       2.85747941        3       0.00000000       0.00000000      -0.00000000
Cl       0.00000000       2.85747941       2.85747941        4       0.00000000      -0.00000000      -0.00000000
5
Lattice="5.714958824489778 0.0 0.0 0.0 5.714958824489773 0.0 0.0 -1.4877768990576327e-14 5.714958824489776" Properties=species:S:1:pos:R:3:spacegroup_kinds:I:1:forces:R:3 spacegroup="P 1" unit_cell=conventional candidate_id=c8157fcc1299a7bd formula=FAPbCl3 config_index=1 rattle_stdev=0.08 method=PBE fidelity=phase2_force energy=-17.586100034180706 stress="0.00018619882295039869 -0.00013253981208527943 2.8004148506409433e-06 -0.00013253981208527943 -0.000611012450677385 -0.00038037781881213457 2.8004148506409433e-06 -0.00038037781881213457 0.0003292928263611204" pbc="T T T"
Cs      -0.08691571      -0.07168521      -0.02450395        0      -0.02773141      -0.02411769      -0.00510362
Pb       2.75028472       2.76095257       2.80614127        1       0.08986595       0.16299295       0.16808506
Cl       2.96211506       3.00511625       0.06632920        2      -0.05222882      -0.05281032      -0.15441797
Cl       2.85561551      -0.01668512       2.78414983        3      -0.02975288      -0.06192920       0.00688656
Cl      -0.08597941       2.85058793       2.95154650        4       0.01454594      -0.02419775      -0.00906571
5
Lattice="5.714958824489778 0.0 0.0 0.0 5.714958824489773 0.0 0.0 -1.4877768990576327e-14 5.714958824489776" Properties=species:S:1:pos:R:3:spacegroup_kinds:I:1:forces:R:3 spacegroup="P 1" unit_cell=conventional candidate_id=c8157fcc1299a7bd formula=FAPbCl3 config_index=2 rattle_stdev=0.08 method=PBE fidelity=phase2_force energy=-17.522562684510525 stress="-0.008084865123075682 3.326991026886822e-05 3.091142593922608e-06 3.326991026886822e-05 -0.0024853307868956537 0.0003439202638651449 3.091142593922608e-06 0.0003439202638651449 -0.0016939804963263024" pbc="T T T"
Cs      -0.00901704      -0.08612512       0.14280215        0      -0.01855517       0.01944993      -0.03328580
Pb       2.74092075       2.83137375       2.75668769        1       0.70119276       0.16747856       0.15559216
Cl       2.88754873       2.78722762      -0.02799806        2      -0.01403697       0.02558120      -0.09166176
Cl       2.88121223       0.09607295       2.73195979        3      -0.01404906      -0.22216688      -0.01496929
Cl       0.14832230       2.89699636       2.84702250        4      -0.64959918       0.01470559      -0.01525374
5
Lattice="5.714958824489778 0.0 0.0 0.0 5.714958824489773 0.0 0.0 -1.4877768990576327e-14 5.714958824489776" Properties=species:S:1:pos:R:3:spacegroup_kinds:I:1:forces:R:3 spacegroup="P 1" unit_cell=conventional candidate_id=c8157fcc1299a7bd formula=FAPbCl3 config_index=3 rattle_stdev=0.08 method=PBE fidelity=phase2_force energy=-17.589084254604664 stress="0.00023369027744819253 -0.0001556729500905385 2.420055107620213e-05 -0.0001556729500905385 0.00024073573410631692 -0.00015725980366565142 2.420055107620213e-05 -0.00015725980366565142 -0.002197126285723609" pbc="T T T"
Cs      -0.10568348       0.16134023       0.00380516        0      -0.00067848      -0.01597529       0.02663319
Pb       2.83846572       2.86420923       2.93424279        1      -0.03965374      -0.00768048      -0.28843973
Cl       2.80295153       2.89980504      -0.06199346        2       0.00217895      -0.01441774       0.19188437
Cl       2.96987591      -0.01797444       2.75300856        3      -0.01840486       0.02932579       0.03231757
Cl      -0.05428282       2.72780475       2.75508153        4       0.05746834       0.00790050       0.03496951
