Cs Pb Br Cl Cs Pb Cl Cs Pb Cl Br Cs Pb Cl Cs Pb Cl Cs Pb Cl Br Cl Cs Pb Cl Cs Pb Cl
 1.0000000000000000
    12.0749796596101966    0.0000000000000000    0.0000000000000000
     0.0000000000000000   12.0749796596101966    0.0000000000000000
     0.0000000000000000    0.0000000000000000   12.0749796596101966
 Cs  Pb  Br  Cl  Cs  Pb  Cl  Cs  Pb  Cl  Br  Cs  Pb  Cl  Cs  Pb  Cl  Cs  Pb  Cl  Br  Cl  Cs  Pb  Cl  Cs  Pb  Cl 
   1   1   1   2   1   1   3   1   1   2   1   1   1   3   1   1   3   1   1   1   1   1   1   1   3   1   1   3
Cartesian
  0.0000000000000000  0.0000000000000000  0.0000000000000000
  3.0187449149025483  3.0187449149025483  3.0187449149025483
  3.0187449149025483  3.0187449149025483  0.0000000000000000
  3.0187449149025483  0.0000000000000000  3.0187449149025483
  0.0000000000000000  3.0187449149025483  3.0187449149025483
  0.0000000000000000  0.0000000000000000  6.0374898298050974
  3.0187449149025483  3.0187449149025483  9.0562347447076483
  3.0187449149025483  3.0187449149025483  6.0374898298050974
  3.0187449149025483  0.0000000000000000  9.0562347447076483
  0.0000000000000000  3.0187449149025483  9.0562347447076483
  0.0000000000000000  6.0374898298050974  0.0000000000000000
  3.0187449149025483  9.0562347447076483  3.0187449149025483
  3.0187449149025483  9.0562347447076483  0.0000000000000000
  3.0187449149025483  6.0374898298050974  3.0187449149025483
  0.0000000000000000  9.0562347447076483  3.0187449149025483
  0.0000000000000000  6.0374898298050974  6.0374898298050974
  3.0187449149025483  9.0562347447076483  9.0562347447076483
  3.0187449149025483  9.0562347447076483  6.0374898298050974
  3.0187449149025483  6.0374898298050974  9.0562347447076483
  0.0000000000000000  9.0562347447076483  9.0562347447076483
  6.0374898298050974  0.0000000000000000  0.0000000000000000
  9.0562347447076483  3.0187449149025483  3.0187449149025483
  9.0562347447076483  3.0187449149025483  0.0000000000000000
  9.0562347447076483  0.0000000000000000  3.0187449149025483
  6.0374898298050974  3.0187449149025483  3.0187449149025483
  6.0374898298050974  0.0000000000000000  6.0374898298050974
  9.0562347447076483  3.0187449149025483  9.0562347447076483
  9.0562347447076483  3.0187449149025483  6.0374898298050974
  9.0562347447076483  0.0000000000000000  9.0562347447076483
  6.0374898298050974  3.0187449149025483  9.0562347447076483
  6.0374898298050974  6.0374898298050974  0.0000000000000000
  9.0562347447076483  9.0562347447076483  3.0187449149025483
  9.0562347447076483  9.0562347447076483  0.0000000000000000
  9.0562347447076483  6.0374898298050974  3.0187449149025483
  6.0374898298050974  9.0562347447076483  3.0187449149025483
  6.0374898298050974  6.0374898298050974  6.0374898298050974
  9.0562347447076483  9.0562347447076483  9.0562347447076483
  9.0562347447076483  9.0562347447076483  6.0374898298050974
  9.0562347447076483  6.0374898298050974  9.0562347447076483
  6.0374898298050974  9.0562347447076483  9.0562347447076483
