40
Lattice="12.48211504213281 0.0 0.0 0.004837201497764383 12.482114104850874 0.0 -0.0017295912134856297 0.0017302616129367954 12.44198456398387" Properties=species:S:1:pos:R:3:spacegroup_kinds:I:1:forces:R:3 spacegroup="P 1" unit_cell=conventional candidate_id=2a6d98397a20cf98 formula=FASnCl0.11I0.893 config_index=0 rattle_stdev=0.0 method=PBE fidelity=phase2_force energy=-115.42230377017006 stress="5.0188023333458376e-05 -4.8538172170293364e-05 1.53079459257711e-05 -4.8538172170293364e-05 5.022564338998945e-05 -1.5313879373118154e-05 1.53079459257711e-05 -1.5313879373118154e-05 0.00015535936299342163" pbc="T T T"
Cs       0.01240846      12.47453992       0.04103989        0      -0.01538762       0.01539359      -0.00760494
Sn       3.48471830       3.12322669       3.09514606        1      -0.18966365      -0.00076034      -0.00055930
I        3.22418204       3.11758163       0.02047143        2      -0.01721673      -0.00595030      -0.12156540
I        3.22047499      12.46603253       2.99051679        3      -0.00884078      -0.01924478      -0.00554701
I       12.25459449       3.24619236       3.11309531        4       0.06615045       0.04135949       0.00019411
Cs       0.05945603      12.42747411       6.17858220        5       0.00615467      -0.00615706       0.00790701
Sn       3.13185856       3.12036448       9.34775804        6       0.02039367      -0.00796333       0.00378760
I        3.21308938       3.12220139       6.19091284        7      -0.01213176      -0.00443378       0.12327436
I        3.12129398      12.46570710       9.46134912        8      -0.00326609       0.06797966       0.00899837
I        0.01091223       3.12010754       9.33351888        9      -0.00330044      -0.00313622      -0.00387303
Cs       0.02979917       6.23057428       0.02087737       10      -0.01330031      -0.01771795      -0.00758670
Sn       3.14164953       9.34408593       2.78432802       11       0.01637354      -0.01637988       0.22320304
Cl       3.12890048       9.35683992       0.02161807       12      -0.00219381       0.00219466       0.00853427
I        3.21042424       6.23075449       2.98925539       13      -0.00948181       0.02094458      -0.00249759
I        0.01967262       9.26647033       2.99051679       14       0.01924820       0.00883332      -0.00554701
Cs       0.07669094       6.28280899       6.19302532       15       0.00832514       0.00341318       0.00567913
Sn       3.12270942       9.36303338       9.63135673       16      -0.00579947       0.00580172      -0.27059509
I        3.12232302       9.36341993       6.24098302       17      -0.00122238       0.00122286       0.03508922
I        3.12557499       6.26057897       9.46189804       18      -0.00641421      -0.07020516       0.00677324
I        0.02003649       9.36565120       9.46134912       19      -0.06797839       0.00329244       0.00899837
Cs       6.25636689      12.45472948       0.02087737       20       0.01772311       0.01329344      -0.00758670
Sn       9.26489754       3.21846451       3.11434854       21       0.12017337      -0.12021995       0.00817972
I        9.28020165       3.20315447       0.02498071       22      -0.03292384       0.03293660      -0.15712676
I        9.23601110       0.22877853       3.11309531       23      -0.04138512      -0.06613442       0.00019411
Cl       6.02780328       3.17160469       3.10377450       24       0.10740645       0.01434689       0.00171514
Cs       6.20411400      12.40785795       6.19302532       25      -0.00341641      -0.00832382       0.00567913
Sn       9.35034778       3.13298115       9.32704539       26       0.01140467      -0.01140909      -0.00932701
I        9.27925248       3.20410401       6.19665809       27      -0.03752491       0.03753946       0.15789209
I        9.36684070      12.47241102       9.33351888       28       0.00313750       0.00329922      -0.00387303
I        6.24682222       3.12666246       9.32954073       29      -0.00732123      -0.00769337      -0.00700001
Cs       6.23890632       6.24562863       0.00472222       30       0.01335067      -0.01335585      -0.01513006
Sn       9.36237535       8.99860641       3.09514606       31       0.00083385       0.18966334      -0.00055930
I        9.36812138       9.25914047       0.02047143       32       0.00595697       0.01721443      -0.12156540
Cl       9.31301183       6.45554037       3.10377450       33      -0.01438852      -0.10740088       0.00171514
I        6.25495409       9.27410471       2.98925539       34      -0.02094091       0.00948993      -0.00249759
Cs       6.18683004       6.29772509       6.20381057       35      -0.00823654       0.00823973       0.01383628
Sn       9.36537430       9.35146502       9.34775804       36       0.00795543      -0.02039675       0.00378760
I        9.36350591       9.27023492       6.19091284       37       0.00443848       0.01213004       0.12327436
I        9.35786918       6.23650403       9.32954073       38       0.00769620       0.00731824      -0.00700001
I        6.22516248       9.35896552       9.46189804       39       0.07020764       0.00638700       0.00677324
40
Lattice="12.48211504213281 0.0 0.0 0.004837201497764383 12.482114104850874 0.0 -0.0017295912134856297 0.0017302616129367954 12.44198456398387" Properties=species:S:1:pos:R:3:spacegroup_kinds:I:1:forces:R:3 spacegroup="P 1" unit_cell=conventional candidate_id=2a6d98397a20cf98 formula=FASnCl0.11I0.893 config_index=1 rattle_stdev=0.08 method=PBE fidelity=phase2_force energy=-114.89680310039996 stress="-0.0014190938707678436 -0.00010803619954517043 3.5453551755489626e-05 -0.00010803619954517043 -0.0014460390004966618 -9.495432978003755e-05 3.5453551755489626e-05 -9.495432978003755e-05 -0.001989558575065147" pbc="T T T"
Cs      -0.07450725      12.40285471       0.01653594        0      -0.04782924       0.05472774       0.02200975
Sn       3.37752361       3.02669984       3.04380791        1       0.46372203       0.29862584       0.23479444
I        3.32881769       3.26521846       0.08680062        2      -0.07789069      -0.09037352      -0.19171505
I        3.21861108      12.44934741       2.91718721        3      -0.02067602       0.01743358       0.00001906
I       12.16861509       3.23930088       3.20716239        4       0.82942327       0.09020948       0.03600931
Cs      -0.07135131      12.52572963       6.26469310        5       0.04089696       0.03088838      -0.03597444
Sn       3.16344039       3.08934842       9.39483018        6       0.10646378      -0.02607714      -0.20855849
I        3.09842547       3.09631542       6.29115161        7       0.02826685       0.00907611      -0.00689153
I        3.06283457      12.57998590       9.53692143        8      -0.01332215      -0.35576745       0.01620277
I       -0.01020799       3.10705048       9.25639029        9       0.06300962       0.01135573       0.01972261
Cs       0.00238738       6.23448660      -0.01909319       10      -0.03969146      -0.05198652       0.01222897
Sn       2.96469717       9.36887288       2.65715591       11       0.77859547      -0.29278163       0.07031555
Cl       3.18725685       9.34820782      -0.03039565       12      -0.10192609       0.01904553       0.00199449
I        3.07497972       6.20127656       2.86202565       13      -0.01823079       0.08907964       0.08795917
I        0.13811309       9.30442554       3.06362589       14      -0.69420873       0.03303520       0.02140499
Cs       0.15352856       6.28957240       6.33040379       15       0.03348749      -0.03364860      -0.01425729
Sn       3.19086084       9.30264255       9.44834638       16       0.23436490       0.09354807      -0.25369945
I        3.13106211       9.32740728       6.20794523       17      -0.00904305      -0.00179508       0.23652680
I        3.15109369       6.21729034       9.53779135       18      -0.03195152       0.29894427      -0.03542042
I        0.03215129       9.37180340       9.45659709       19       0.16425213       0.01839771      -0.01115311
Cs       6.25075579      12.40943755       0.04575780       20       0.04273493       0.03087833       0.01978005
Sn       9.32283425       3.25978052       3.19643099       21      -0.56265729      -0.19368918      -0.55835494
I        9.32181386       3.13356739       0.14502593       22      -0.00745761       0.09557699      -0.55535280
I        9.32932887       0.26813169       3.05451433       23      -0.06828816      -0.17989844       0.14783322
Cl       6.08222777       3.21232444       3.03677160       24      -0.52723747      -0.03705719       0.05375091
Cs       6.25592559      12.40886111       6.31779245       25      -0.03025216      -0.00056906      -0.03121942
Sn       9.43311541       3.15999657       9.22283655       26      -0.13539266       0.24052806       0.26812393
I        9.18976894       3.30886522       6.15520073       27      -0.06850926      -0.01039588       0.64683204
I        9.33539076      12.55584849       9.33949609       28       0.03847975      -0.16721616      -0.05219638
I        6.25397719       3.13097505       9.36301649       29      -0.05074267      -0.01139537      -0.01879375
Cs       6.14068791       6.15846530       0.03009217       30       0.06902246      -0.00501965       0.03474329
Sn       9.29994291       8.93011593       2.98955635       31      -0.15284207       0.65244819       0.25057668
I        9.40442391       9.33928245       0.13357020       32       0.01709979      -0.00080459      -0.41470886
Cl       9.29779720       6.45794922       2.95390116       33      -0.01176165      -0.48464151      -0.03435776
I        6.24561193       9.26390549       3.06143013       34       0.19040651      -0.05027207       0.01694668
Cs       6.08168027       6.28976103       6.21505455       35      -0.02314194      -0.00957177      -0.00829016
Sn       9.57567878       9.49192733       9.13690621       36      -0.46309701      -0.27753142       0.70130453
I        9.26057435       9.25649714       6.33494913       37       0.05476847       0.07378105      -0.58694248
I        9.40656483       6.23902607       9.21222775       38       0.02169982       0.14347445       0.08080935
I        6.24991774       9.45034294       9.42103050       39      -0.02739922      -0.01372879       0.04073381
40
Lattice="12.48211504213281 0.0 0.0 0.004837201497764383 12.482114104850874 0.0 -0.0017295912134856297 0.0017302616129367954 12.44198456398387" Properties=species:S:1:pos:R:3:spacegroup_kinds:I:1:forces:R:3 spacegroup="P 1" unit_cell=conventional candidate_id=2a6d98397a20cf98 formula=FASnCl0.11I0.893 config_index=2 rattle_stdev=0.08 method=PBE fidelity=phase2_force energy=-114.98280492340912 stress="0.0004515683986465908 0.00023607242209620867 7.720553816651952e-05 0.00023607242209620867 -0.0018787695035977073 6.444223114227603e-05 7.720553816651952e-05 6.444223114227603e-05 -0.0005931897139474384" pbc="T T T"
Cs       0.00339141      12.38841480       0.18384205        0      -0.00377856       0.03269885      -0.06257805
Sn       3.36815964       3.09712103       2.99435434        1       0.14186123       0.38346269       0.21073636
I        3.25425136       3.04732984      -0.00752664        2      -0.03771528       0.04928987      -0.13509506
I        3.24420780      12.56210548       2.86499717        3      -0.04857412      -0.60415279       0.03818081
I       12.40291679       3.28570930       3.10263840        4      -0.29230278      -0.03141920      -0.04050177
Cs       0.02720637      12.34958113       6.14118485        5       0.00103616      -0.00525409       0.04261898
Sn       3.07442484       3.21807595       9.28558204        6       0.38193178       0.00157148      -0.07467946
I        3.16600733       3.11759189       6.19727923        7      -0.00351057      -0.07374009       0.06852379
I        3.02663790      12.34180770       9.53432961        8       0.00349654       0.50743227       0.02468792
I        0.04392589       3.06444602       9.15041712        9      -0.14480925       0.01982187       0.04022099
Cs      -0.03318015       6.14829294       0.02834201       10       0.04229411      -0.01846515      -0.02271236
Sn       3.09931400       9.40650552       2.76826284       11       0.25805700      -0.23290771       0.22126278
Cl       3.09045180       9.27401895      -0.01860068       12       0.00314329       0.03005712       0.30334726
I        3.27361546       6.15675468       3.16605822       13      -0.06139596       0.47147086      -0.08839576
I       -0.09234628       9.24734254       3.00790404       14       0.51903130       0.01408308       0.01712585
Cs       0.04850012       6.28967904       6.20155748       15       0.01761499      -0.00278996       0.00936627
Sn       3.10694693       9.47078809       9.65897064       16      -0.05426988      -0.44401029      -0.35877552
I        3.16693457       9.31579712       6.29960960       17      -0.04116909       0.09083043      -0.14385661
I        3.23207520       6.20217634       9.42303757       18      -0.04904847      -0.11977992       0.01016874
I        0.10618962       9.15802261       9.47470338       19      -0.13572994       0.01838547       0.02319288
Cs       6.33948366      12.31004357       0.08156864       20      -0.00348998       0.05955598      -0.06042246
Sn       9.22488852       3.03092106       3.10571512       21       0.21203879       0.41966213       0.17290949
I        9.15997864       3.24225676      -0.01927357       22       0.03840338       0.05275724      -0.00824638
I        9.32061170       0.15923310       3.10708802       23      -0.01357234      -0.35051744      -0.00998317
Cl       6.01923088       3.33951045       3.07653146       24       0.03157357      -0.12012784      -0.04720982
Cs       6.16188159      12.30428860       6.21015324       25       0.00981403      -0.00525353       0.02780657
Sn       9.44044935       3.16510402       9.38829221       26      -0.34973452      -0.05884623      -0.19689720
I        9.17100229       3.25001269       6.17904712       27       0.00283923      -0.02765954       0.01728886
I        9.41845582      12.39203347       9.48549796       28       0.02775032       0.42223380       0.00662081
I        6.26417109       3.16666009       9.27941344       29       0.05836158      -0.07029836       0.00288418
Cs       6.15867558       6.18312381       0.02106444       30      -0.01651367      -0.05073976       0.01794662
Sn       9.40526271       8.91260661       2.91771768       31      -0.42199424       0.34406244       0.68251177
I        9.41987580       9.23335360       0.00666629       32       0.00478228      -0.03399764      -0.13013510
Cl       9.12993809       6.44657687       3.18019960       33       0.04785081      -0.34565232      -0.10436094
I        6.29133314       9.43905891       2.99425223       34      -0.35347845       0.02396845      -0.05869809
Cs       6.18705744       6.26144078       6.23368917       35       0.00099282      -0.01585164      -0.02237647
Sn       9.30032502       9.34334042       9.38341509       36       0.16216951       0.06455601      -0.44530572
I        9.26149562       9.27886146       6.25909179       37       0.05448080       0.09753926      -0.04732764
I        9.34532101       6.33160957       9.21175966       38       0.05764996      -0.53290659       0.05540877
I        6.29444575       9.28749436       9.41798039       39      -0.05165016       0.04964236       0.06596007
40
Lattice="12.48211504213281 0.0 0.0 0.004837201497764383 12.482114104850874 0.0 -0.0017295912134856297 0.0017302616129367954 12.44198456398387" Properties=species:S:1:pos:R:3:spacegroup_kinds:I:1:forces:R:3 spacegroup="P 1" unit_cell=conventional candidate_id=2a6d98397a20cf98 formula=FASnCl0.11I0.893 config_index=3 rattle_stdev=0.08 method=PBE fidelity=phase2_force energy=-114.71159969678469 stress="-0.0009548260747534516 -1.935443125551858e-05 2.0638409013654283e-05 -1.935443125551858e-05 -0.0013250797327117622 0.00021924679140111948 2.0638409013654283e-05 0.00021924679140111948 -0.0005723657834235645" pbc="T T T"
Cs      -0.09327503      12.63588015       0.04484505        0       0.01339209       0.06561279       0.02512992
Sn       3.46570461       3.12995650       3.17190944        1      -0.38751615      -0.25188821      -0.68369468
I        3.16965416       3.15990726      -0.04152203        2      -0.00190244      -0.02140185      -0.17481206
I        3.33287148      12.44805809       2.88604593        3       0.00210626      -0.20310309      -0.00034163
I       12.20031168       3.11651770       3.01069743        4       0.02994790       0.15088619       0.04422120
Cs       0.04151229      12.35942923       6.11812299        5      -0.01911755       0.00827152      -0.01441716
Sn       3.15291222       2.91594904       9.21413536        6       0.04867815       0.38118600       0.47457950
I        3.15615056       2.92645934       6.08877805        7      -0.04797111      -0.02962592       0.46967953
I        3.17438378      12.36340038       9.39811634        8      -0.03731752       0.57078030       0.00221841
I       -0.10927744       3.02494435       9.51485409        9       0.33087930       0.03188414      -0.04043499
Cs      -0.00834306       6.30230740      -0.12351769       10       0.01802649      -0.11383710       0.00123529
Sn       3.10235236       9.24812620       2.71991039       11       0.08000708       0.29159173       0.13615470
Cl       3.24136597       9.33841466      -0.03547765       12      -0.05184954      -0.05878078       0.38698556
I        3.19741724       6.17644409       3.11038481       13      -0.03840796       0.24268143       0.00608335
I       -0.12013321       9.31915270       2.96298749       14       0.98936304       0.02467963      -0.02260124
Cs       0.01599509       6.29657110       6.14044204       15      -0.01717125      -0.01081465       0.00538502
Sn       3.16692506       9.39364204       9.60165350       16      -0.12153990      -0.59853448      -0.34836381
I        3.24857454       9.38076373       6.33791035       17      -0.04200286       0.01339623      -0.14705015
I        3.18409343       6.31449866       9.41547355       18      -0.02344320      -0.30003245      -0.01957364
I        0.01208932       9.23886201       9.45537181       19      -0.20322237       0.03899383      -0.00503149
Cs       6.35227160      12.43349566      -0.03126660       20      -0.01902977       0.03556575       0.00611015
Sn       9.11317461       3.09524059       3.08292268       21       0.42953288       0.33683299      -0.00017731
I        9.24704319       3.26003989       0.07638275       22      -0.10259523       0.01375235      -0.31476268
I        9.42779800       0.21519594       3.03202462       23      -0.18515235      -0.56062849       0.01366596
Cl       5.99231878       3.23928287       3.14332322       24       0.27603722      -0.00527919       0.04688409
Cs       6.22640506      12.44962522       6.21843465       25       0.01370435      -0.04949570       0.00075615
Sn       9.36851869       3.10175391       9.26960398       26      -0.06470669      -0.11842016       0.00392673
I        9.40278138       3.13506840       6.16795188       27      -0.03318543       0.04536579       0.30230669
I        9.37354485      12.60674878       9.23917190       28      -0.02319057      -0.81827696       0.05933470
I        6.21492405       3.09279132       9.37428767       29      -0.21831249      -0.04410711      -0.06957797
Cs       6.19272674       6.25132842       0.07409863       30      -0.00407345      -0.05754045      -0.04938024
Sn       9.39556807       8.98050763       3.15559351       31      -0.15576865      -0.32058459       0.26240668
I        9.38613177       9.22396022       0.07279777       32       0.03482479       0.01771754      -0.07892378
Cl       9.24132197       6.34158448       3.24317323       33       0.05540924       0.27696989      -0.00519646
I        6.48850014       9.22020669       2.92757345       34      -0.95862176       0.07898423       0.01262339
Cs       6.27126943       6.38938213       6.21346041       35       0.00788320       0.01406443       0.01250506
Sn       9.36637378       9.29550330       9.49786197       36       0.08512461      -0.00710616      -0.27702938
I        9.32745324       9.24573617       6.30393218       37       0.01577354       0.01994092      -0.01483228
I        9.30558190       6.05517870       9.37796889       38      -0.00011943       0.90935070      -0.00652796
I        6.18321704       9.37556470       9.54961020       39       0.31673397       0.01061977       0.01187257
