Cs Pb I  Br Cs Pb Br Cs Pb Br I  Cs Pb Br Cs Pb Br Cs Pb Br I  Br Cs Pb Br Cs Pb Br
 1.0000000000000000
    12.7200024654085659    0.0000000000000000    0.0000000000000000
     0.0000000000000000   12.7200024654085659    0.0000000000000000
     0.0000000000000000    0.0000000000000000   12.7200024654085659
 Cs  Pb  I   Br  Cs  Pb  Br  Cs  Pb  Br  I   Cs  Pb  Br  Cs  Pb  Br  Cs  Pb  Br  I   Br  Cs  Pb  Br  Cs  Pb  Br 
   1   1   1   2   1   1   3   1   1   2   1   1   1   3   1   1   3   1   1   1   1   1   1   1   3   1   1   3
Cartesian
  0.0000000000000000  0.0000000000000000  0.0000000000000000
  3.1800006163521415  3.1800006163521415  3.1800006163521415
  3.1800006163521415  3.1800006163521415  0.0000000000000000
  3.1800006163521415  0.0000000000000000  3.1800006163521415
  0.0000000000000000  3.1800006163521415  3.1800006163521415
  0.0000000000000000  0.0000000000000000  6.3600012327042821
  3.1800006163521415  3.1800006163521415  9.5400018490564236
  3.1800006163521415  3.1800006163521415  6.3600012327042821
  3.1800006163521415  0.0000000000000000  9.5400018490564236
  0.0000000000000000  3.1800006163521415  9.5400018490564236
  0.0000000000000000  6.3600012327042821  0.0000000000000000
  3.1800006163521415  9.5400018490564236  3.1800006163521415
  3.1800006163521415  9.5400018490564236  0.0000000000000000
  3.1800006163521415  6.3600012327042821  3.1800006163521415
  0.0000000000000000  9.5400018490564236  3.1800006163521415
  0.0000000000000000  6.3600012327042821  6.3600012327042821
  3.1800006163521415  9.5400018490564236  9.5400018490564236
  3.1800006163521415  9.5400018490564236  6.3600012327042821
  3.1800006163521415  6.3600012327042821  9.5400018490564236
  0.0000000000000000  9.5400018490564236  9.5400018490564236
  6.3600012327042821  0.0000000000000000  0.0000000000000000
  9.5400018490564236  3.1800006163521415  3.1800006163521415
  9.5400018490564236  3.1800006163521415  0.0000000000000000
  9.5400018490564236  0.0000000000000000  3.1800006163521415
  6.3600012327042821  3.1800006163521415  3.1800006163521415
  6.3600012327042821  0.0000000000000000  6.3600012327042821
  9.5400018490564236  3.1800006163521415  9.5400018490564236
  9.5400018490564236  3.1800006163521415  6.3600012327042821
  9.5400018490564236  0.0000000000000000  9.5400018490564236
  6.3600012327042821  3.1800006163521415  9.5400018490564236
  6.3600012327042821  6.3600012327042821  0.0000000000000000
  9.5400018490564236  9.5400018490564236  3.1800006163521415
  9.5400018490564236  9.5400018490564236  0.0000000000000000
  9.5400018490564236  6.3600012327042821  3.1800006163521415
  6.3600012327042821  9.5400018490564236  3.1800006163521415
  6.3600012327042821  6.3600012327042821  6.3600012327042821
  9.5400018490564236  9.5400018490564236  9.5400018490564236
  9.5400018490564236  9.5400018490564236  6.3600012327042821
  9.5400018490564236  6.3600012327042821  9.5400018490564236
  6.3600012327042821  9.5400018490564236  9.5400018490564236
