Cs Sn I  Cs Sn I  Cs Sn Cl I  Cs Sn I  Cl I  Cs Sn I  Cl Cs Sn I  Cs Sn I  Cl I  Cs Sn I 
 1.0000000000000000
    13.2356247302497962    0.0000000000000000    0.0000000000000000
     0.0000000000000000   13.2356247302497962    0.0000000000000000
     0.0000000000000000    0.0000000000000000   13.2356247302497962
 Cs  Sn  I   Cs  Sn  I   Cs  Sn  Cl  I   Cs  Sn  I   Cl  I   Cs  Sn  I   Cl  Cs  Sn  I   Cs  Sn  I   Cl  I   Cs  Sn  I  
   1   1   3   1   1   3   1   1   1   2   1   1   1   1   1   1   1   2   1   1   1   3   1   1   1   1   1   1   1   3
Cartesian
  0.0000000000000000  0.0000000000000000  0.0000000000000000
  3.3089061825624482  3.3089061825624482  3.3089061825624482
  3.3089061825624482  3.3089061825624482  0.0000000000000000
  3.3089061825624482  0.0000000000000000  3.3089061825624482
  0.0000000000000000  3.3089061825624482  3.3089061825624482
  0.0000000000000000  0.0000000000000000  6.6178123651248972
  3.3089061825624482  3.3089061825624482  9.9267185476873472
  3.3089061825624482  3.3089061825624482  6.6178123651248972
  3.3089061825624482  0.0000000000000000  9.9267185476873472
  0.0000000000000000  3.3089061825624482  9.9267185476873472
  0.0000000000000000  6.6178123651248972  0.0000000000000000
  3.3089061825624482  9.9267185476873472  3.3089061825624482
  3.3089061825624482  9.9267185476873472  0.0000000000000000
  3.3089061825624482  6.6178123651248972  3.3089061825624482
  0.0000000000000000  9.9267185476873472  3.3089061825624482
  0.0000000000000000  6.6178123651248972  6.6178123651248972
  3.3089061825624482  9.9267185476873472  9.9267185476873472
  3.3089061825624482  9.9267185476873472  6.6178123651248972
  3.3089061825624482  6.6178123651248972  9.9267185476873472
  0.0000000000000000  9.9267185476873472  9.9267185476873472
  6.6178123651248972  0.0000000000000000  0.0000000000000000
  9.9267185476873472  3.3089061825624482  3.3089061825624482
  9.9267185476873472  3.3089061825624482  0.0000000000000000
  9.9267185476873472  0.0000000000000000  3.3089061825624482
  6.6178123651248972  3.3089061825624482  3.3089061825624482
  6.6178123651248972  0.0000000000000000  6.6178123651248972
  9.9267185476873472  3.3089061825624482  9.9267185476873472
  9.9267185476873472  3.3089061825624482  6.6178123651248972
  9.9267185476873472  0.0000000000000000  9.9267185476873472
  6.6178123651248972  3.3089061825624482  9.9267185476873472
  6.6178123651248972  6.6178123651248972  0.0000000000000000
  9.9267185476873472  9.9267185476873472  3.3089061825624482
  9.9267185476873472  9.9267185476873472  0.0000000000000000
  9.9267185476873472  6.6178123651248972  3.3089061825624482
  6.6178123651248972  9.9267185476873472  3.3089061825624482
  6.6178123651248972  6.6178123651248972  6.6178123651248972
  9.9267185476873472  9.9267185476873472  9.9267185476873472
  9.9267185476873472  9.9267185476873472  6.6178123651248972
  9.9267185476873472  6.6178123651248972  9.9267185476873472
  6.6178123651248972  9.9267185476873472  9.9267185476873472
