Cs Pb I  Br Cs Pb Br Cs Pb Cl I  Cs Pb I  Cl I  Cs Pb Br Cl Cs Pb Br I  Br Cs Pb I  Cl Br Cs Pb Br Cl
 1.0000000000000000
    12.6900211378862569    0.0000000000000000    0.0000000000000000
     0.0000000000000000   12.6900211378862569    0.0000000000000000
     0.0000000000000000    0.0000000000000000   12.6900211378862569
 Cs  Pb  I   Br  Cs  Pb  Br  Cs  Pb  Cl  I   Cs  Pb  I   Cl  I   Cs  Pb  Br  Cl  Cs  Pb  Br  I   Br  Cs  Pb  I   Cl  Br  Cs  Pb  Br  Cl 
   1   1   1   2   1   1   3   1   1   2   1   1   1   1   1   1   1   1   2   1   1   1   1   1   1   1   1   1   1   1   1   1   2   1
Cartesian
  0.0000000000000000  0.0000000000000000  0.0000000000000000
  3.1725052844715642  3.1725052844715642  3.1725052844715642
  3.1725052844715642  3.1725052844715642  0.0000000000000000
  3.1725052844715642  0.0000000000000000  3.1725052844715642
  0.0000000000000000  3.1725052844715642  3.1725052844715642
  0.0000000000000000  0.0000000000000000  6.3450105689431275
  3.1725052844715642  3.1725052844715642  9.5175158534146949
  3.1725052844715642  3.1725052844715642  6.3450105689431275
  3.1725052844715642  0.0000000000000000  9.5175158534146949
  0.0000000000000000  3.1725052844715642  9.5175158534146949
  0.0000000000000000  6.3450105689431275  0.0000000000000000
  3.1725052844715642  9.5175158534146949  3.1725052844715642
  3.1725052844715642  9.5175158534146949  0.0000000000000000
  3.1725052844715642  6.3450105689431275  3.1725052844715642
  0.0000000000000000  9.5175158534146949  3.1725052844715642
  0.0000000000000000  6.3450105689431275  6.3450105689431275
  3.1725052844715642  9.5175158534146949  9.5175158534146949
  3.1725052844715642  9.5175158534146949  6.3450105689431275
  3.1725052844715642  6.3450105689431275  9.5175158534146949
  0.0000000000000000  9.5175158534146949  9.5175158534146949
  6.3450105689431275  0.0000000000000000  0.0000000000000000
  9.5175158534146949  3.1725052844715642  3.1725052844715642
  9.5175158534146949  3.1725052844715642  0.0000000000000000
  9.5175158534146949  0.0000000000000000  3.1725052844715642
  6.3450105689431275  3.1725052844715642  3.1725052844715642
  6.3450105689431275  0.0000000000000000  6.3450105689431275
  9.5175158534146949  3.1725052844715642  9.5175158534146949
  9.5175158534146949  3.1725052844715642  6.3450105689431275
  9.5175158534146949  0.0000000000000000  9.5175158534146949
  6.3450105689431275  3.1725052844715642  9.5175158534146949
  6.3450105689431275  6.3450105689431275  0.0000000000000000
  9.5175158534146949  9.5175158534146949  3.1725052844715642
  9.5175158534146949  9.5175158534146949  0.0000000000000000
  9.5175158534146949  6.3450105689431275  3.1725052844715642
  6.3450105689431275  9.5175158534146949  3.1725052844715642
  6.3450105689431275  6.3450105689431275  6.3450105689431275
  9.5175158534146949  9.5175158534146949  9.5175158534146949
  9.5175158534146949  9.5175158534146949  6.3450105689431275
  9.5175158534146949  6.3450105689431275  9.5175158534146949
  6.3450105689431275  9.5175158534146949  9.5175158534146949
