Cs Pb I  Cs Pb I  Cs Pb I  Cs Pb I  Cs Pb I  Cs Pb I  Cs Sn I  Cs Pb I 
 1.0000000000000000
    13.5560855234835387    0.0000000000000000    0.0000000000000000
     0.0000000000000000   13.5560855234835387    0.0000000000000000
     0.0000000000000000    0.0000000000000000   13.5560855234835387
 Cs  Pb  I   Cs  Pb  I   Cs  Pb  I   Cs  Pb  I   Cs  Pb  I   Cs  Pb  I   Cs  Sn  I   Cs  Pb  I  
   1   1   3   1   1   3   1   1   3   1   1   3   1   1   3   1   1   3   1   1   3   1   1   3
Cartesian
  0.0000000000000000  0.0000000000000000  0.0000000000000000
  3.3890213808708847  3.3890213808708847  3.3890213808708847
  3.3890213808708847  3.3890213808708847  0.0000000000000000
  3.3890213808708847  0.0000000000000000  3.3890213808708847
  0.0000000000000000  3.3890213808708847  3.3890213808708847
  0.0000000000000000  0.0000000000000000  6.7780427617417685
  3.3890213808708847  3.3890213808708847 10.1670641426126540
  3.3890213808708847  3.3890213808708847  6.7780427617417685
  3.3890213808708847  0.0000000000000000 10.1670641426126540
  0.0000000000000000  3.3890213808708847 10.1670641426126540
  0.0000000000000000  6.7780427617417685  0.0000000000000000
  3.3890213808708847 10.1670641426126540  3.3890213808708847
  3.3890213808708847 10.1670641426126540  0.0000000000000000
  3.3890213808708847  6.7780427617417685  3.3890213808708847
  0.0000000000000000 10.1670641426126540  3.3890213808708847
  0.0000000000000000  6.7780427617417685  6.7780427617417685
  3.3890213808708847 10.1670641426126540 10.1670641426126540
  3.3890213808708847 10.1670641426126540  6.7780427617417685
  3.3890213808708847  6.7780427617417685 10.1670641426126540
  0.0000000000000000 10.1670641426126540 10.1670641426126540
  6.7780427617417685  0.0000000000000000  0.0000000000000000
 10.1670641426126540  3.3890213808708847  3.3890213808708847
 10.1670641426126540  3.3890213808708847  0.0000000000000000
 10.1670641426126540  0.0000000000000000  3.3890213808708847
  6.7780427617417685  3.3890213808708847  3.3890213808708847
  6.7780427617417685  0.0000000000000000  6.7780427617417685
 10.1670641426126540  3.3890213808708847 10.1670641426126540
 10.1670641426126540  3.3890213808708847  6.7780427617417685
 10.1670641426126540  0.0000000000000000 10.1670641426126540
  6.7780427617417685  3.3890213808708847 10.1670641426126540
  6.7780427617417685  6.7780427617417685  0.0000000000000000
 10.1670641426126540 10.1670641426126540  3.3890213808708847
 10.1670641426126540 10.1670641426126540  0.0000000000000000
 10.1670641426126540  6.7780427617417685  3.3890213808708847
  6.7780427617417685 10.1670641426126540  3.3890213808708847
  6.7780427617417685  6.7780427617417685  6.7780427617417685
 10.1670641426126540 10.1670641426126540 10.1670641426126540
 10.1670641426126540 10.1670641426126540  6.7780427617417685
 10.1670641426126540  6.7780427617417685 10.1670641426126540
  6.7780427617417685 10.1670641426126540 10.1670641426126540
