Cs Pb I  Cs Pb I  Cs Pb Br I  Cs Pb I  Cs Pb I  Br Cs Pb I  Cs Pb I  Br I  Cs Pb I 
 1.0000000000000000
    13.4365844774630112    0.0000000000000000    0.0000000000000000
     0.0000000000000000   13.4365844774630112    0.0000000000000000
     0.0000000000000000    0.0000000000000000   13.4365844774630112
 Cs  Pb  I   Cs  Pb  I   Cs  Pb  Br  I   Cs  Pb  I   Cs  Pb  I   Br  Cs  Pb  I   Cs  Pb  I   Br  I   Cs  Pb  I  
   1   1   3   1   1   3   1   1   1   2   1   1   3   1   1   2   1   1   1   3   1   1   1   1   1   1   1   3
Cartesian
  0.0000000000000000  0.0000000000000000  0.0000000000000000
  3.3591461193657528  3.3591461193657528  3.3591461193657528
  3.3591461193657528  3.3591461193657528  0.0000000000000000
  3.3591461193657528  0.0000000000000000  3.3591461193657528
  0.0000000000000000  3.3591461193657528  3.3591461193657528
  0.0000000000000000  0.0000000000000000  6.7182922387315047
  3.3591461193657528  3.3591461193657528 10.0774383580972575
  3.3591461193657528  3.3591461193657528  6.7182922387315047
  3.3591461193657528  0.0000000000000000 10.0774383580972575
  0.0000000000000000  3.3591461193657528 10.0774383580972575
  0.0000000000000000  6.7182922387315047  0.0000000000000000
  3.3591461193657528 10.0774383580972575  3.3591461193657528
  3.3591461193657528 10.0774383580972575  0.0000000000000000
  3.3591461193657528  6.7182922387315047  3.3591461193657528
  0.0000000000000000 10.0774383580972575  3.3591461193657528
  0.0000000000000000  6.7182922387315047  6.7182922387315047
  3.3591461193657528 10.0774383580972575 10.0774383580972575
  3.3591461193657528 10.0774383580972575  6.7182922387315047
  3.3591461193657528  6.7182922387315047 10.0774383580972575
  0.0000000000000000 10.0774383580972575 10.0774383580972575
  6.7182922387315047  0.0000000000000000  0.0000000000000000
 10.0774383580972575  3.3591461193657528  3.3591461193657528
 10.0774383580972575  3.3591461193657528  0.0000000000000000
 10.0774383580972575  0.0000000000000000  3.3591461193657528
  6.7182922387315047  3.3591461193657528  3.3591461193657528
  6.7182922387315047  0.0000000000000000  6.7182922387315047
 10.0774383580972575  3.3591461193657528 10.0774383580972575
 10.0774383580972575  3.3591461193657528  6.7182922387315047
 10.0774383580972575  0.0000000000000000 10.0774383580972575
  6.7182922387315047  3.3591461193657528 10.0774383580972575
  6.7182922387315047  6.7182922387315047  0.0000000000000000
 10.0774383580972575 10.0774383580972575  3.3591461193657528
 10.0774383580972575 10.0774383580972575  0.0000000000000000
 10.0774383580972575  6.7182922387315047  3.3591461193657528
  6.7182922387315047 10.0774383580972575  3.3591461193657528
  6.7182922387315047  6.7182922387315047  6.7182922387315047
 10.0774383580972575 10.0774383580972575 10.0774383580972575
 10.0774383580972575 10.0774383580972575  6.7182922387315047
 10.0774383580972575  6.7182922387315047 10.0774383580972575
  6.7182922387315047 10.0774383580972575 10.0774383580972575
