K  Sn Br K  Sn Br K  Ge Br K  Ge Br K  Ge Br K  Sn Br K  Ge Br K  Sn Br
 1.0000000000000000
    11.6845152950389846    0.0000000000000000    0.0000000000000000
     0.0000000000000000   11.6845152950389846    0.0000000000000000
     0.0000000000000000    0.0000000000000000   11.6845152950389846
 K   Sn  Br  K   Sn  Br  K   Ge  Br  K   Ge  Br  K   Ge  Br  K   Sn  Br  K   Ge  Br  K   Sn  Br 
   1   1   3   1   1   3   1   1   3   1   1   3   1   1   3   1   1   3   1   1   3   1   1   3
Cartesian
  0.0000000000000000  0.0000000000000000  0.0000000000000000
  2.9211288237597461  2.9211288237597461  2.9211288237597461
  2.9211288237597461  2.9211288237597461  0.0000000000000000
  2.9211288237597461  0.0000000000000000  2.9211288237597461
  0.0000000000000000  2.9211288237597461  2.9211288237597461
  0.0000000000000000  0.0000000000000000  5.8422576475194914
  2.9211288237597461  2.9211288237597461  8.7633864712792384
  2.9211288237597461  2.9211288237597461  5.8422576475194914
  2.9211288237597461  0.0000000000000000  8.7633864712792384
  0.0000000000000000  2.9211288237597461  8.7633864712792384
  0.0000000000000000  5.8422576475194914  0.0000000000000000
  2.9211288237597461  8.7633864712792384  2.9211288237597461
  2.9211288237597461  8.7633864712792384  0.0000000000000000
  2.9211288237597461  5.8422576475194914  2.9211288237597461
  0.0000000000000000  8.7633864712792384  2.9211288237597461
  0.0000000000000000  5.8422576475194914  5.8422576475194914
  2.9211288237597461  8.7633864712792384  8.7633864712792384
  2.9211288237597461  8.7633864712792384  5.8422576475194914
  2.9211288237597461  5.8422576475194914  8.7633864712792384
  0.0000000000000000  8.7633864712792384  8.7633864712792384
  5.8422576475194914  0.0000000000000000  0.0000000000000000
  8.7633864712792384  2.9211288237597461  2.9211288237597461
  8.7633864712792384  2.9211288237597461  0.0000000000000000
  8.7633864712792384  0.0000000000000000  2.9211288237597461
  5.8422576475194914  2.9211288237597461  2.9211288237597461
  5.8422576475194914  0.0000000000000000  5.8422576475194914
  8.7633864712792384  2.9211288237597461  8.7633864712792384
  8.7633864712792384  2.9211288237597461  5.8422576475194914
  8.7633864712792384  0.0000000000000000  8.7633864712792384
  5.8422576475194914  2.9211288237597461  8.7633864712792384
  5.8422576475194914  5.8422576475194914  0.0000000000000000
  8.7633864712792384  8.7633864712792384  2.9211288237597461
  8.7633864712792384  8.7633864712792384  0.0000000000000000
  8.7633864712792384  5.8422576475194914  2.9211288237597461
  5.8422576475194914  8.7633864712792384  2.9211288237597461
  5.8422576475194914  5.8422576475194914  5.8422576475194914
  8.7633864712792384  8.7633864712792384  8.7633864712792384
  8.7633864712792384  8.7633864712792384  5.8422576475194914
  8.7633864712792384  5.8422576475194914  8.7633864712792384
  5.8422576475194914  8.7633864712792384  8.7633864712792384
