40
Lattice="12.15512555708022 0.0 0.0 0.0 12.15709495308185 0.0 0.0 -8.833636504341239e-14 12.157094953081781" Properties=species:S:1:pos:R:3:spacegroup_kinds:I:1:forces:R:3 spacegroup="P 1" unit_cell=conventional occupancy="_JSON {\"0\": {\"Rb\": 1.0}, \"1\": {\"Sn\": 1.0}, \"2\": {\"I\": 1.0}, \"3\": {\"I\": 1.0}, \"4\": {\"I\": 1.0}, \"5\": {\"Rb\": 1.0}, \"6\": {\"Sn\": 1.0}, \"7\": {\"I\": 1.0}, \"8\": {\"I\": 1.0}, \"9\": {\"I\": 1.0}, \"10\": {\"Rb\": 1.0}, \"11\": {\"Ge\": 1.0}, \"12\": {\"I\": 1.0}, \"13\": {\"I\": 1.0}, \"14\": {\"I\": 1.0}, \"15\": {\"Rb\": 1.0}, \"16\": {\"Ge\": 1.0}, \"17\": {\"I\": 1.0}, \"18\": {\"I\": 1.0}, \"19\": {\"I\": 1.0}, \"20\": {\"Rb\": 1.0}, \"21\": {\"Ge\": 1.0}, \"22\": {\"I\": 1.0}, \"23\": {\"I\": 1.0}, \"24\": {\"I\": 1.0}, \"25\": {\"Rb\": 1.0}, \"26\": {\"Sn\": 1.0}, \"27\": {\"I\": 1.0}, \"28\": {\"I\": 1.0}, \"29\": {\"I\": 1.0}, \"30\": {\"Rb\": 1.0}, \"31\": {\"Ge\": 1.0}, \"32\": {\"I\": 1.0}, \"33\": {\"I\": 1.0}, \"34\": {\"I\": 1.0}, \"35\": {\"Rb\": 1.0}, \"36\": {\"Sn\": 1.0}, \"37\": {\"I\": 1.0}, \"38\": {\"I\": 1.0}, \"39\": {\"I\": 1.0}}" candidate_id=14eb1a39760fcd16 formula=RbGe0.54Sn0.46I3 config_index=0 rattle_stdev=0.0 method=PBE fidelity=phase2_force energy=-110.11312672409333 stress="-0.0018930944558214519 -9.507815452645125e-16 -9.507815452645245e-16 -9.507815452645125e-16 -0.002032750044866592 -9.451507901166388e-17 -9.507815452645245e-16 -9.451507901166388e-17 -0.0020327500448666124" pbc="T T T"
Rb       0.00000000      12.01969494       0.13740001        0       0.00000000       0.01243791      -0.01243791
Sn       3.03878139       3.03927374       3.03927374        1      -0.00000000      -0.00000000      -0.00000000
I        3.03878139       3.03927374      12.15019271        2      -0.00000000       0.00000000       0.07868538
I        3.03878139      12.07827661       3.03927374        3      -0.00000000      -0.00477935       0.00000000
I       12.07284055       3.03927374       3.03927374        4       0.06347617      -0.00000000      -0.00000000
Rb       0.00000000      12.01969494       5.94114746        5      -0.00000000       0.01243791       0.01243791
Sn       3.03878139       3.03927374       9.11782121        6      -0.00000000      -0.00000000      -0.00000000
I        3.03878139       3.03927374       6.08544972        7      -0.00000000      -0.00000000      -0.07868538
I        3.03878139      12.07794572       9.11782121        8      -0.00000000       0.00855455      -0.00000000
I       12.15512556       3.03927374       9.11782121        9       0.00000000      -0.00000000       0.00000000
Rb       0.00000000       6.21594749       0.13740001       10       0.00000000      -0.01243791      -0.01243791
Ge       3.03878139       9.11782121       3.03927374       11      -0.00000000      -0.00000000      -0.00000000
I        3.03878139       9.11782121       0.00066014       12      -0.00000000      -0.00000000       0.05141397
I        3.03878139       6.15736582       3.03927374       13      -0.00000000       0.00477935      -0.00000000
I        0.00000000       9.11782121       3.03927374       14       0.00000000       0.00000000      -0.00000000
Rb       0.00000000       6.21594749       5.94114746       15       0.00000000      -0.01243791       0.01243791
Ge       3.03878139       9.11782121       9.11782121       16      -0.00000000       0.00000000       0.00000000
I        3.03878139       9.11782121       6.07788734       17      -0.00000000       0.00000000      -0.05141397
I        3.03878139       6.15769671       9.11782121       18      -0.00000000      -0.00855455      -0.00000000
I        0.08228500       9.11782121       9.11782121       19      -0.06347617       0.00000000       0.00000000
Rb       6.07756278      12.01969494       0.13740001       20       0.00000000       0.01243791      -0.01243791
Ge       9.11634417       3.03927374       3.03927374       21       0.00000000      -0.00000000      -0.00000000
I        9.11634417       3.03927374       0.07914923       22       0.00000000       0.00000000      -0.00855455
I        9.11634417      12.15643481       3.03927374       23       0.00000000      -0.05141397       0.00000000
I        6.15984778       3.03927374       3.03927374       24      -0.06347617      -0.00000000      -0.00000000
Rb       6.07756278      12.01969494       5.94114746       25       0.00000000       0.01243791       0.01243791
Sn       9.11634417       3.03927374       9.11782121       26       0.00000000       0.00000000       0.00000000
I        9.11634417       3.03927374       5.99939824       27       0.00000000       0.00000000       0.00855455
I        9.11634417       0.00690224       9.11782121       28       0.00000000      -0.07868538      -0.00000000
I        6.07756278       3.03927374       9.11782121       29       0.00000000      -0.00000000       0.00000000
Rb       6.07756278       6.21594749       0.13740001       30      -0.00000000      -0.01243791      -0.01243791
Ge       9.11634417       9.11782121       3.03927374       31       0.00000000       0.00000000       0.00000000
I        9.11634417       9.11782121       0.07881835       32       0.00000000      -0.00000000       0.00477935
I        9.11634417       6.07920762       3.03927374       33       0.00000000       0.05141397      -0.00000000
I        6.07756278       9.11782121       3.03927374       34       0.00000000      -0.00000000       0.00000000
Rb       6.07756278       6.21594749       5.94114746       35       0.00000000      -0.01243791       0.01243791
Sn       9.11634417       9.11782121       9.11782121       36       0.00000000       0.00000000       0.00000000
I        9.11634417       9.11782121       5.99972913       37       0.00000000       0.00000000      -0.00477935
I        9.11634417       6.07164523       9.11782121       38       0.00000000       0.07868538       0.00000000
I        5.99527778       9.11782121       9.11782121       39       0.06347617       0.00000000       0.00000000
40
Lattice="12.15512555708022 0.0 0.0 0.0 12.15709495308185 0.0 0.0 -8.833636504341239e-14 12.157094953081781" Properties=species:S:1:pos:R:3:spacegroup_kinds:I:1:forces:R:3 spacegroup="P 1" unit_cell=conventional occupancy="_JSON {\"0\": {\"Rb\": 1.0}, \"1\": {\"Sn\": 1.0}, \"2\": {\"I\": 1.0}, \"3\": {\"I\": 1.0}, \"4\": {\"I\": 1.0}, \"5\": {\"Rb\": 1.0}, \"6\": {\"Sn\": 1.0}, \"7\": {\"I\": 1.0}, \"8\": {\"I\": 1.0}, \"9\": {\"I\": 1.0}, \"10\": {\"Rb\": 1.0}, \"11\": {\"Ge\": 1.0}, \"12\": {\"I\": 1.0}, \"13\": {\"I\": 1.0}, \"14\": {\"I\": 1.0}, \"15\": {\"Rb\": 1.0}, \"16\": {\"Ge\": 1.0}, \"17\": {\"I\": 1.0}, \"18\": {\"I\": 1.0}, \"19\": {\"I\": 1.0}, \"20\": {\"Rb\": 1.0}, \"21\": {\"Ge\": 1.0}, \"22\": {\"I\": 1.0}, \"23\": {\"I\": 1.0}, \"24\": {\"I\": 1.0}, \"25\": {\"Rb\": 1.0}, \"26\": {\"Sn\": 1.0}, \"27\": {\"I\": 1.0}, \"28\": {\"I\": 1.0}, \"29\": {\"I\": 1.0}, \"30\": {\"Rb\": 1.0}, \"31\": {\"Ge\": 1.0}, \"32\": {\"I\": 1.0}, \"33\": {\"I\": 1.0}, \"34\": {\"I\": 1.0}, \"35\": {\"Rb\": 1.0}, \"36\": {\"Sn\": 1.0}, \"37\": {\"I\": 1.0}, \"38\": {\"I\": 1.0}, \"39\": {\"I\": 1.0}}" candidate_id=14eb1a39760fcd16 formula=RbGe0.54Sn0.46I3 config_index=1 rattle_stdev=0.08 method=PBE fidelity=phase2_force energy=-109.67371713277969 stress="-0.003779188937437663 4.121228267791879e-05 -8.08944140999224e-05 4.121228267791879e-05 -0.003309759274939305 -5.18779111540675e-05 -8.08944140999224e-05 -5.18779111540675e-05 -0.004455730278921896" pbc="T T T"
Rb      -0.08691571      11.94800973       0.11289606        0      -0.01044284       0.05290334       0.00715681
Sn       2.93158670       2.94274689       2.98793559        1       0.24383595       0.25035167       0.31140977
I        3.14341704       3.18691057      12.21652190        2      -0.05462553      -0.02181504      -0.01193629
I        3.03691748      12.06159149       2.96594416        3       0.02226594       0.00357145       0.00662236
I       11.98686115       3.03238226       3.13334082        4       0.56164016       0.01306290       0.02166359
Rb      -0.13080734      12.11795046       6.02725836        5       0.03468568       0.05817330      -0.02456968
Sn       3.07036322       3.00825767       9.16489336        6       0.08529754      -0.04616721      -0.15143394
I        2.92411748       3.01338776       6.18568850        7       0.05935696       0.03203662      -0.34584234
I        2.98032198      12.19222453       9.19339353        8      -0.01285526      -0.40212068       0.01985666
I       12.13400533       3.02621667       9.04069263        9       0.15407465       0.01253341       0.05006834
Rb      -0.02741179       6.21985981       0.09742946       10      -0.00227004      -0.04419830      -0.00050123
Ge       2.86182903       9.14260816       2.91210164       11       0.33282763      -0.25050474      -0.22231713
I        3.09713776       9.10918912      -0.05135358       12      -0.06954156       0.03352499       0.23647073
I        2.90333687       6.12788790       2.91204400       13       0.02069455       0.03950905       0.09302156
I        0.11844047       9.15577643       3.11238284       14      -0.44827816       0.01159272       0.00937503
Rb       0.07683762       6.22271090       6.07852594       15       0.02510773      -0.05856700      -0.00108701
Ge       3.10693281       9.05743039       8.93481087       16       0.29998999      -0.02159794       0.03571729
I        3.04752048       9.08180857       6.04484954       17       0.01024959      -0.00401095       0.10500670
I        3.06430009       6.11440807       9.19371453       18      -0.01545946       0.44029211      -0.06879583
I        0.09439981       9.12397341       9.11306918       19       0.18420978       0.02005423       0.00269273
Rb       6.07195168      11.97440302       0.16228044       20       0.01108804       0.03719029       0.00462666
Ge       9.17428087       3.08058974       3.12135619       21      -0.38238636      -0.21779686      -0.50176899
I        9.15795638       2.96968665       0.19919444       22       0.05622960       0.03310384      -0.44227285
I        9.20966194      12.19578797       2.98069276       23      -0.02922750      -0.12877166       0.16628741
I        6.21427227       3.07999349       2.97227084       24      -0.42349393      -0.01669793       0.07322446
Rb       6.12937437      12.02069810       6.06591459       25      -0.02770124       0.02830597      -0.01295745
Sn       9.19911180       3.06628915       9.01361238       26      -0.21728188       0.31758260       0.26995758
I        9.02686062       3.14403495       5.95794088       27      -0.03321594      -0.03580887       0.42734070
I        9.08489422       0.09033972       9.12379843       28       0.00385354      -0.31677533      -0.01652058
I        6.08471774       3.04358633       9.15129697       29      -0.01517180       0.00358211      -0.00253987
Rb       5.97934437       6.12878417       0.16276996       30       0.00014461      -0.03280373       0.00885518
Ge       9.05391172       9.04933073       2.93368403       31      -0.30710285       0.09214544       0.00319885
I        9.15264670       9.19796320       0.19191712       32      -0.01078996      -0.03757532      -0.20042438
I        9.10112954       6.08161646       2.88940040       33       0.04741209       0.23050116       0.06086101
I        6.06822062       9.10762199       3.11144848       34       0.40230759      -0.00770190      -0.02176405
Rb       5.97241300       6.20798343       5.95239145       35      -0.00903635      -0.03890821       0.00067753
Sn       9.32664864       9.25828352       8.90696939       36      -0.40139639      -0.34710679       0.83927000
I        9.01341261       9.10408344       6.14376543       37       0.04319977       0.03493405      -0.85456142
I        9.16503982       6.07416728       9.00050824       38      -0.00020415       0.29636537       0.08143859
I        6.02003304       9.20919864       9.07695368       39      -0.12264974      -0.01607318       0.02353594
40
Lattice="12.15512555708022 0.0 0.0 0.0 12.15709495308185 0.0 0.0 -8.833636504341239e-14 12.157094953081781" Properties=species:S:1:pos:R:3:spacegroup_kinds:I:1:forces:R:3 spacegroup="P 1" unit_cell=conventional occupancy="_JSON {\"0\": {\"Rb\": 1.0}, \"1\": {\"Sn\": 1.0}, \"2\": {\"I\": 1.0}, \"3\": {\"I\": 1.0}, \"4\": {\"I\": 1.0}, \"5\": {\"Rb\": 1.0}, \"6\": {\"Sn\": 1.0}, \"7\": {\"I\": 1.0}, \"8\": {\"I\": 1.0}, \"9\": {\"I\": 1.0}, \"10\": {\"Rb\": 1.0}, \"11\": {\"Ge\": 1.0}, \"12\": {\"I\": 1.0}, \"13\": {\"I\": 1.0}, \"14\": {\"I\": 1.0}, \"15\": {\"Rb\": 1.0}, \"16\": {\"Ge\": 1.0}, \"17\": {\"I\": 1.0}, \"18\": {\"I\": 1.0}, \"19\": {\"I\": 1.0}, \"20\": {\"Rb\": 1.0}, \"21\": {\"Ge\": 1.0}, \"22\": {\"I\": 1.0}, \"23\": {\"I\": 1.0}, \"24\": {\"I\": 1.0}, \"25\": {\"Rb\": 1.0}, \"26\": {\"Sn\": 1.0}, \"27\": {\"I\": 1.0}, \"28\": {\"I\": 1.0}, \"29\": {\"I\": 1.0}, \"30\": {\"Rb\": 1.0}, \"31\": {\"Ge\": 1.0}, \"32\": {\"I\": 1.0}, \"33\": {\"I\": 1.0}, \"34\": {\"I\": 1.0}, \"35\": {\"Rb\": 1.0}, \"36\": {\"Sn\": 1.0}, \"37\": {\"I\": 1.0}, \"38\": {\"I\": 1.0}, \"39\": {\"I\": 1.0}}" candidate_id=14eb1a39760fcd16 formula=RbGe0.54Sn0.46I3 config_index=2 rattle_stdev=0.08 method=PBE fidelity=phase2_force energy=-109.68633981847793 stress="-0.003213406960670554 2.8356350951247475e-05 -4.158908330398721e-06 2.8356350951247475e-05 -0.0035357430666395615 -3.509288931865029e-05 -4.158908330398721e-06 -3.509288931865029e-05 -0.003118794295828359" pbc="T T T"
Rb      -0.00901704      11.93356982       0.28020217        0       0.02022475       0.01303194      -0.07175634
Sn       2.92222272       3.01316808       2.93848202        1       0.57214811       0.26053912       0.17561200
I        3.06885071       2.96902195      12.12219465        2      -0.03226622       0.04348901       0.02373537
I        3.06251421      12.17434956       2.91375412        3      -0.02345249      -0.59875723       0.06865087
I       12.22116285       3.07879068       3.02881682        4      -0.79938640       0.03203035      -0.03032557
Rb      -0.03224966      11.94180196       5.90375012        5      -0.00953255       0.00140548       0.06291600
Sn       2.98134767       3.13698520       9.05564521        6       0.47109921       0.06658506       0.01386741
I        2.99169934       3.03466423       6.09181611        7       0.05196586      -0.10817247      -0.23596609
I        2.94412530      11.95404632       9.19080171        8       0.02791626       0.36104958      -0.01451187
I       12.18813922       2.98361222       8.93471946        9      -0.18162995       0.00760051       0.02229406
Rb      -0.06297932       6.13366616       0.14486466       10       0.02021828       0.00634013      -0.01979414
Ge       2.99644586       9.18024080       3.02320856       11       0.21120557      -0.17050402       0.00957238
I        3.00033270       9.03500024      -0.03955861       12       0.03156218      -0.04491771       0.38478941
I        3.10197261       6.08336601       3.21607656       13      -0.02720917       0.45430449      -0.08502739
I       -0.11201889       9.09869342       3.05666099       14       0.39995064      -0.03779211       0.01750786
Rb      -0.02819082       6.22281753       5.94967962       15      -0.00559675      -0.00510842       0.03465098
Ge       3.02301889       9.22557592       9.14543513       16      -0.15961866      -0.18259294      -0.07654636
I        3.08339294       9.07019840       6.13651391       17      -0.03270088       0.09990866      -0.32299832
I        3.14528160       6.09929407       9.07896075       18      -0.00988434      -0.15465254       0.03426587
I        0.16843814       8.91019262       9.13117547       19      -0.15162860       0.00553410      -0.02243563
Rb       6.16067955      11.87500903       0.19809129       20      -0.02371928       0.05963674      -0.05127411
Ge       9.07633514       2.85173029       3.03064032       21      -0.31071744       0.13006692       0.18130073
I        8.99612115       3.07837603       0.03489495       22       0.10184140       0.04222326       0.13350960
I        9.20094477      12.08688938       3.03326645       23      -0.00871061       0.25545649      -0.01033383
I        6.15127538       3.20717950       3.01203070       24       0.31129294      -0.18138387      -0.00119171
Rb       6.03533037      11.91612559       5.95827539       25       0.01535126       0.02142415       0.04049389
Sn       9.20644573       3.07139661       9.17906804       26      -0.43014492      -0.09097310      -0.16112401
I        9.00809397       3.08518242       5.98178727       27       0.06566762      -0.09256295      -0.12911751
I        9.16795929      -0.07347530       9.26980030       28       0.03423883       0.48114054       0.00873166
I        6.09491164       3.07927137       9.06769393       29       0.05019880      -0.07301147      -0.01390799
Rb       5.99733204       6.15344267       0.15374223       30      -0.01874883      -0.04703963      -0.00214040
Ge       9.15923153       9.03182142       2.86184536       31      -0.24958110      -0.29033999       0.42180104
I        9.16809859       9.09203435       0.06501321       32       0.00442755      -0.05946536       0.12876276
I        8.93327042       6.07024411       3.11569884       33       0.15110486       0.22815168      -0.09832747
I        6.11394183       9.28277541       3.04427058       34      -0.32265763      -0.04179533      -0.05632028
Rb       6.07779017       6.17966318       5.97102606       35       0.00783644      -0.03194645       0.01943067
Sn       9.05129489       9.10969661       9.15347827       36       0.13848423       0.12377960      -0.46863644
I        9.01433388       9.12644776       6.06790808       37       0.06857622       0.07574521      -0.04654016
I        9.10379600       6.16675077       9.00004014       38       0.06071045      -0.59487245       0.03202996
I        6.06456104       9.04635005       9.07390357       39      -0.04871137       0.05256307       0.08600932
40
Lattice="12.15512555708022 0.0 0.0 0.0 12.15709495308185 0.0 0.0 -8.833636504341239e-14 12.157094953081781" Properties=species:S:1:pos:R:3:spacegroup_kinds:I:1:forces:R:3 spacegroup="P 1" unit_cell=conventional occupancy="_JSON {\"0\": {\"Rb\": 1.0}, \"1\": {\"Sn\": 1.0}, \"2\": {\"I\": 1.0}, \"3\": {\"I\": 1.0}, \"4\": {\"I\": 1.0}, \"5\": {\"Rb\": 1.0}, \"6\": {\"Sn\": 1.0}, \"7\": {\"I\": 1.0}, \"8\": {\"I\": 1.0}, \"9\": {\"I\": 1.0}, \"10\": {\"Rb\": 1.0}, \"11\": {\"Ge\": 1.0}, \"12\": {\"I\": 1.0}, \"13\": {\"I\": 1.0}, \"14\": {\"I\": 1.0}, \"15\": {\"Rb\": 1.0}, \"16\": {\"Ge\": 1.0}, \"17\": {\"I\": 1.0}, \"18\": {\"I\": 1.0}, \"19\": {\"I\": 1.0}, \"20\": {\"Rb\": 1.0}, \"21\": {\"Ge\": 1.0}, \"22\": {\"I\": 1.0}, \"23\": {\"I\": 1.0}, \"24\": {\"I\": 1.0}, \"25\": {\"Rb\": 1.0}, \"26\": {\"Sn\": 1.0}, \"27\": {\"I\": 1.0}, \"28\": {\"I\": 1.0}, \"29\": {\"I\": 1.0}, \"30\": {\"Rb\": 1.0}, \"31\": {\"Ge\": 1.0}, \"32\": {\"I\": 1.0}, \"33\": {\"I\": 1.0}, \"34\": {\"I\": 1.0}, \"35\": {\"Rb\": 1.0}, \"36\": {\"Sn\": 1.0}, \"37\": {\"I\": 1.0}, \"38\": {\"I\": 1.0}, \"39\": {\"I\": 1.0}}" candidate_id=14eb1a39760fcd16 formula=RbGe0.54Sn0.46I3 config_index=3 rattle_stdev=0.08 method=PBE fidelity=phase2_force energy=-109.36629614791705 stress="-0.003343862393005704 8.506103187806928e-05 2.625946017166798e-05 8.506103187806928e-05 -0.0038772931109739557 -5.321582502427999e-05 2.625946017166798e-05 -5.321582502427999e-05 -0.0030687044588096238" pbc="T T T"
Rb      -0.10568348      12.18103517       0.14120517        0       0.03952027       0.06700887      -0.00083073
Sn       3.01976770       3.04600355       3.11603712        1      -0.29252939      -0.28201787      -0.82399290
I        2.98425351       3.08159937      12.08819925        2       0.02611356       0.00771947      -0.00172470
I        3.15117789      12.06030217       2.93480288        3       0.01982394      -0.15594795       0.00695335
I       12.01855774       2.90959908       2.93687586        4       0.29702822       0.07543535       0.03506689
Rb      -0.01794374      11.95165006       5.88068825        5      -0.01496057       0.02910887      -0.00181465
Sn       3.05983505       2.83485829       8.98419854        6      -0.03687303       0.38327952       0.57121182
I        2.98184257       2.84353169       5.98331494        7      -0.05545646      -0.03466286       0.37273673
I        3.09187119      11.97563900       9.05458844        8      -0.06362392       0.50315484       0.03726349
I       12.03493589       2.94411054       9.29915643        9       0.53010639       0.03759802       0.00786142
Rb      -0.03814223       6.28768061      -0.00699505       10       0.03160509      -0.07323180      -0.02683993
Ge       2.99948422       9.02186149       2.97485611       11      -0.04808713       0.27633655      -0.11101018
I        3.15124688       9.09939596      -0.05643558       12      -0.08614811      -0.05802006       0.55662445
I        3.02577439       6.10305543       3.16040315       13      -0.02102764       0.25840860       0.00213415
I       -0.13980583       9.17050358       3.01174444       14       0.91809882      -0.10419872       0.03122792
Rb      -0.06069585       6.22970959       5.88856418       15      -0.02730106      -0.00605894       0.01948364
Ge       3.08299703       9.14842988       9.08811799       16      -0.06854861      -0.60660089      -0.07489148
I        3.16503291       9.13516501       6.17481467       17      -0.03513551       0.01635029      -0.41258018
I        3.09729983       6.21161640       9.07139673       18      -0.02358500      -0.30909429      -0.03464738
I        0.07433784       8.99103202       9.11184390       19      -0.21974596       0.03006269       0.01609565
Rb       6.17346749      11.99846112       0.08525604       20      -0.03627595       0.02511311      -0.00145338
Ge       8.96462124       2.91604982       3.00784788       21       0.32746949       0.20815015      -0.03572343
I        9.08318570       3.09615916       0.13055126       22      -0.09053240      -0.03816348      -0.13055804
I        9.30813107      12.14285223       2.95820304       23      -0.18973055      -0.21964204       0.04044946
I        6.12436329       3.10695191       3.07882246       24      -0.12655439      -0.06729302       0.02703855
Rb       6.09985384      12.06146221       5.96655680       25       0.00549981      -0.02305343       0.00692116
Sn       9.13451508       3.00804650       9.06037981       26      -0.17856368      -0.04574727      -0.05676201
I        9.23987306       2.97023813       5.97069204       27      -0.01831386      -0.01241911       0.19847053
I        9.12304831       0.14124001       9.02347424       28      -0.04749692      -1.22935858       0.06559048
I        6.04566461       3.00540259       9.16256816       29      -0.16770255      -0.02796347      -0.05011859
Rb       6.03138320       6.22164728       0.20677642       30      -0.00956600      -0.04589015      -0.04692528
Ge       9.14953689       9.09972243       3.09972119       31      -0.18966850      -0.14810380       0.14689721
I        9.13435456       9.08264097       0.13114469       32       0.03510811      -0.01662304       0.01254894
I        9.04465431       5.96525172       3.17867247       33       0.09726508       0.26694704      -0.02422061
I        6.31110883       9.06392319       2.97759180       34      -0.71060946       0.05205939       0.04763634
Rb       6.16200216       6.30760453       5.95079731       35       0.00512006       0.00941611       0.03018185
Sn       9.11734364       9.06185950       9.26792515       36       0.08621756       0.02028014      -0.26567911
I        9.08029150       9.09332247       6.11274848       37       0.01455652       0.02268566      -0.14312843
I        9.06405689       5.89031991       9.16624937       38      -0.02059172       1.19633082       0.00708819
I        5.95333233       9.13442040       9.20553338       39       0.34862355       0.01095132       0.00446907
