40
Lattice="12.577348023522473 0.0 0.0 0.0 12.580746161844667 0.0 0.0 -8.021909546380345e-14 12.577348023522386" Properties=species:S:1:pos:R:3:spacegroup_kinds:I:1:forces:R:3 spacegroup="P 1" unit_cell=conventional candidate_id=bb1fd1e9f9c16824 formula=CsGe0.24Pb0.76I3 config_index=0 rattle_stdev=0.0 method=PBE fidelity=phase2_force energy=-112.63855392231196 stress="-0.0006941242293662731 2.4756303080735946e-31 7.592731232435255e-11 2.4756303080735946e-31 -0.0007436547600822724 -4.743075573609251e-18 7.592731232435255e-11 -4.743075573609251e-18 -0.000694124229366283" pbc="T T T"
Cs      12.57734802      12.50404014      12.57734802        0       0.00000000      -0.00895638      -0.00000000
Pb       3.14433701       3.14518654       3.14433701        1       0.00024793       0.00022934       0.00024793
I        3.14433701       3.14518654      12.57030845        2      -0.00000688      -0.00000530       0.01799616
I        3.14433701      12.56033759       3.14433701        3      -0.00000579       0.03406252      -0.00000579
I       12.57030845       3.14518654       3.14433701        4       0.01799616      -0.00000530      -0.00000688
Cs       0.00000000      12.50404014       6.28867401        5      -0.00000000      -0.00895377      -0.00000000
Pb       3.14433701       3.14518654       9.43301102        6       0.00027572      -0.00001022      -0.00027572
I        3.14433701       3.14518654       6.29571359        7      -0.00000481      -0.00000444      -0.01800388
I        3.14433701      12.41239921       9.43301102        8      -0.00000726       0.24458651       0.00000726
I        0.00703958       3.14518654       9.43301102        9      -0.01799616      -0.00000530       0.00000688
Cs      12.57734802       6.36707910       0.00000000       10       0.00000000       0.00894964       0.00000000
Pb       3.14433701       9.43555962       3.14433701       11       0.00001259      -0.00030489       0.00001259
I        3.14433701       9.43555962      12.42371566       12      -0.00000663       0.00000708       0.24617159
I        3.14433701       6.31078166       3.14433701       13      -0.00000483      -0.03408500      -0.00000483
I       12.42371566       9.43555962       3.14433701       14       0.24617159       0.00000708      -0.00000663
Cs      12.57734802       6.36707910       6.28867401       15       0.00000000       0.00894713       0.00000000
Ge       3.14433701       9.43555962       9.43301102       16      -0.00002924       0.00003365       0.00002924
I        3.14433701       9.43555962       6.44230637       17      -0.00000508       0.00000592      -0.24620944
I        3.14433701       6.45872004       9.43301102       18      -0.00000626      -0.24463359       0.00000626
I        0.15363236       9.43555962       9.43301102       19      -0.24617159       0.00000708       0.00000663
Cs       6.28867401      12.50404014      12.57734802       20       0.00000000      -0.00895377       0.00000000
Pb       9.43301102       3.14518654       3.14433701       21      -0.00027572      -0.00001022       0.00027572
I        9.43301102       3.14518654       0.00703958       22       0.00000688      -0.00000530      -0.01799616
I        9.43301102      12.41239921       3.14433701       23       0.00000726       0.24458651      -0.00000726
I        6.29571359       3.14518654       3.14433701       24      -0.01800388      -0.00000444      -0.00000481
Cs       6.28867401      12.50404014       6.28867401       25       0.00000000      -0.00895062       0.00000000
Pb       9.43301102       3.14518654       9.43301102       26      -0.00024793       0.00022934      -0.00024793
I        9.43301102       3.14518654       6.28163443       27       0.00000481      -0.00000444       0.01800388
I        9.43301102      12.56033759       9.43301102       28       0.00000579       0.03406252       0.00000579
I        6.28163443       3.14518654       9.43301102       29       0.01800388      -0.00000444       0.00000481
Cs       6.28867401       6.36707910       0.00000000       30       0.00000000       0.00894713      -0.00000000
Ge       9.43301102       9.43555962       3.14433701       31       0.00002924       0.00003365      -0.00002924
I        9.43301102       9.43555962       0.15363236       32       0.00000663       0.00000708      -0.24617159
I        9.43301102       6.45872004       3.14433701       33       0.00000626      -0.24463359      -0.00000626
I        6.44230637       9.43555962       3.14433701       34      -0.24620944       0.00000592      -0.00000508
Cs       6.28867401       6.36707910       6.28867401       35       0.00000000       0.00894371       0.00000000
Pb       9.43301102       9.43555962       9.43301102       36      -0.00001259      -0.00030489      -0.00001259
I        9.43301102       9.43555962       6.13504165       37       0.00000508       0.00000592       0.24620944
I        9.43301102       6.31078166       9.43301102       38       0.00000483      -0.03408500       0.00000483
I        6.13504165       9.43555962       9.43301102       39       0.24620944       0.00000592       0.00000508
40
Lattice="12.577348023522473 0.0 0.0 0.0 12.580746161844667 0.0 0.0 -8.021909546380345e-14 12.577348023522386" Properties=species:S:1:pos:R:3:spacegroup_kinds:I:1:forces:R:3 spacegroup="P 1" unit_cell=conventional candidate_id=bb1fd1e9f9c16824 formula=CsGe0.24Pb0.76I3 config_index=1 rattle_stdev=0.08 method=PBE fidelity=phase2_force energy=-112.34932536210142 stress="-0.002077715885469876 6.730498735431135e-05 -4.7624531275666765e-06 6.730498735431135e-05 -0.0013602127430351744 -7.339994157688366e-05 -4.7624531275666765e-06 -7.339994157688366e-05 -0.002675164949656007" pbc="T T T"
Cs      12.49043231      12.43235493      12.55284407        0      -0.00781370       0.02163386       0.03150971
Pb       3.03714231       3.04865969       3.09299886        1       0.29669463       0.28407326       0.29668470
I        3.24897266       3.29282337      12.63663764        2      -0.04849322      -0.01061488      -0.08309385
I        3.14247310      12.54365247       3.07100743        3       0.03584491       0.05043710       0.00570023
I       12.48432904       3.13829506       3.23840409        4       0.59396266      -0.00780496       0.02052657
Cs      -0.13080734      12.60229566       6.37478491        5       0.04053516       0.01203254      -0.04569748
Pb       3.17591884       3.11417047       9.48008316        6       0.04858883      -0.12276148      -0.09445361
I        3.02967310       3.11930057       6.39595236        7       0.03608987       0.02684545      -0.28160839
I        3.08587760      12.52667801       9.50858333        8      -0.00560470      -0.04059789      -0.01316892
I       -0.01408065       3.13212948       9.35588244        9       0.13494364       0.00767720       0.03150148
Cs      12.54993624       6.37099142      -0.03997056       10      -0.00313728      -0.01072974       0.01882904
Pb       2.96738465       9.46034657       3.01716490       11       0.29362106      -0.30696753      -0.19487350
I        3.20269337       9.42692752      12.37170194       12      -0.04260568       0.02363127       0.35792035
I        3.00889249       6.28130373       3.01710727       13       0.01745768      -0.00016947       0.06970696
I       12.54215613       9.47351484       3.21744611       14      -0.18524639      -0.00035565       0.03968663
Cs      12.65418564       6.37384251       6.42605249       15       0.01240543      -0.01950796      -0.02501821
Ge       3.21248842       9.37516880       9.25000067       16       0.26563169       0.02038366       0.19482342
I        3.15307610       9.39954697       6.40926858       17       0.00760464      -0.00175391      -0.19125271
I        3.16985571       6.41543140       9.50890434       18      -0.01071483       0.11960851      -0.07129651
I        0.16574717       9.44171182       9.42825899       19      -0.15207523       0.02001218      -0.00084722
Cs       6.28306292      12.45874822      12.60222845       20       0.01128215       0.01712030       0.02339300
Pb       9.49094772       3.18650254       3.22641946       21      -0.48331783      -0.18937028      -0.50899023
I        9.47462323       3.07559946       0.12708479       22       0.03631248       0.01283195      -0.50430011
I        9.52632879      12.45175237       3.08575603       23      -0.01503753       0.15260758       0.11875440
I        6.35013808       3.18590629       3.07733411       24      -0.40108121      -0.00354959       0.04823463
Cs       6.34048560      12.50504330       6.41344114       25      -0.02940834       0.00346688      -0.03278821
Pb       9.51577865       3.17220195       9.32880218       26      -0.21311254       0.26755271       0.39331545
I        9.34352747       3.24994775       6.24017708       27      -0.04343553      -0.02004069       0.48926371
I        9.40156107      12.64377507       9.43898823       28      -0.00998968      -0.14051147       0.00541704
I        6.28878940       3.14949913       9.46648678       29       0.03751213       0.00251367      -0.00412261
Cs       6.19045561       6.27991578       0.02536995       30       0.01447675      -0.00150712       0.02367492
Ge       9.37057857       9.36706914       3.03874729       31      -0.22808146       0.17707980      -0.00921811
I        9.46931355       9.51570161       0.26673114       32      -0.00912938      -0.03167096      -0.31533150
I        9.41779639       6.46112888       2.99446367       33       0.03676932      -0.11337331       0.03963290
I        6.43296422       9.42536039       3.21651175       34       0.09399287       0.00378210      -0.01103267
Cs       6.18352424       6.35911504       6.29991800       35       0.00662649      -0.00675463      -0.01089810
Pb       9.64331549       9.57602193       9.22215919       36      -0.20365222      -0.38591805       0.30048490
I        9.33007946       9.42182185       6.27907795       37       0.05986301       0.04296667      -0.17107380
I        9.48170667       6.31330370       9.31569804       38      -0.00360097       0.17023214       0.06864422
I        6.15979691       9.52693705       9.39214348       39       0.01544516      -0.02147799      -0.00371822
40
Lattice="12.577348023522473 0.0 0.0 0.0 12.580746161844667 0.0 0.0 -8.021909546380345e-14 12.577348023522386" Properties=species:S:1:pos:R:3:spacegroup_kinds:I:1:forces:R:3 spacegroup="P 1" unit_cell=conventional candidate_id=bb1fd1e9f9c16824 formula=CsGe0.24Pb0.76I3 config_index=2 rattle_stdev=0.08 method=PBE fidelity=phase2_force energy=-112.14461265686786 stress="-0.002048452209301048 0.00010863931243635629 2.741152811758207e-07 0.00010863931243635629 -0.002195119837641829 -7.693739599539644e-05 2.741152811758207e-07 -7.693739599539644e-05 -0.0015927817996991762" pbc="T T T"
Cs      12.56833098      12.41791502      12.72015018        0       0.01391410      -0.01382674      -0.05609117
Pb       3.02777834       3.11908088       3.04354529        1       0.80250486       0.27452389       0.15209892
I        3.17440633       3.07493475      12.54231038        2      -0.02822116       0.01632382      -0.05304961
I        3.16806982      12.65641054       3.01881739        3       0.00364220      -0.60633625       0.03524303
I       12.71863075       3.18470349       3.13388009        4      -1.10528251       0.03425397      -0.01203933
Cs      -0.03224966      12.42614716       6.25127667        5      -0.02034596      -0.02379126       0.04922309
Pb       3.08690329       3.24289800       9.37083502        6       0.43817603       0.22812595       0.04089398
I        3.09725495       3.14057703       6.30207998        7       0.02672003      -0.09563911      -0.16654927
I        3.04968092      12.28849981       9.50599151        8       0.01171120       0.52935565      -0.00858647
I        0.04005324       3.08952502       9.24990927        9      -0.21351064      -0.01318827       0.01934930
Cs      12.51436870       6.28479777       0.00746465       10       0.03252406       0.02916226      -0.02290910
Pb       3.10200147       9.49797921       3.12827183       11       0.19263166      -0.24478378       0.01940313
I        3.10588832       9.35273865      12.38349691       12       0.02896737      -0.03281662       0.59857428
I        3.20752822       6.23678185       3.32113983       13      -0.01672956       0.50998192      -0.04073459
I       12.31169677       9.41643183       3.16172426       14       0.68858271      -0.04442885       0.02440809
Cs      12.54915720       6.37394914       6.29720617       15       0.00441453       0.01851420       0.01880389
Ge       3.12857451       9.54331433       9.46062494       16      -0.12922643      -0.25393166      -0.09219659
I        3.18894856       9.38793681       6.50093295       17      -0.02617987       0.07233201      -0.54155976
I        3.25083722       6.40031740       9.39415055       18      -0.02099433      -0.44803317       0.03340916
I        0.23978550       9.22793103       9.44636527       19      -0.26876805       0.02732931      -0.00991646
Cs       6.37179078      12.35935423      12.63803930       20      -0.02350993       0.02494799      -0.02917090
Pb       9.39300199       2.95764309       3.13570359       21      -0.12383306       0.05168174       0.12034166
I        9.31278800       3.18428883      -0.03721471       22       0.05450094       0.04695605       0.20222465
I        9.51761162      12.34285378       3.13832972       23       0.01241364       0.50905444      -0.01292831
I        6.28714119       3.31309230       3.11709397       24       0.28671182      -0.07834740      -0.00712731
Cs       6.24644160      12.40047080       6.30580193       25       0.02479010      -0.00490830       0.02504327
Pb       9.52311258       3.17730941       9.49425784       26      -0.34452778      -0.07013519      -0.27129700
I        9.32476082       3.19109522       6.26402346       27       0.04087124      -0.04328954      -0.04145882
I        9.48462614      12.47996004       9.58499010       28       0.04141775       0.55344491       0.01641620
I        6.29898330       3.18518417       9.38288373       29       0.07816520      -0.06039861       0.00131141
Cs       6.20844327       6.30457428       0.01634222       30      -0.02338840      -0.02221758      -0.00794484
Ge       9.47589838       9.34955982       2.96690863       31      -0.30992352      -0.22627114       0.35218230
I        9.48476544       9.40977276       0.13982723       32       0.00550764      -0.04499852      -0.15829187
I        9.24993727       6.44975653       3.22076211       33       0.09187481      -0.16170379      -0.07532083
I        6.47868543       9.60051382       3.14933384       34      -0.56984897       0.00327621      -0.05044699
Cs       6.28890141       6.33079479       6.31855261       35      -0.00121339      -0.00374209       0.00339755
Pb       9.36796174       9.42743502       9.46866807       36      -0.00076762       0.10434669      -0.39933333
I        9.33100073       9.44418617       6.20322060       37       0.06561323       0.05436764       0.22616517
I        9.42046285       6.40588720       9.31522995       38       0.06049225      -0.65696665       0.03610386
I        6.20432492       9.36408846       9.38909337       39       0.21530775       0.05953073       0.08155784
40
Lattice="12.577348023522473 0.0 0.0 0.0 12.580746161844667 0.0 0.0 -8.021909546380345e-14 12.577348023522386" Properties=species:S:1:pos:R:3:spacegroup_kinds:I:1:forces:R:3 spacegroup="P 1" unit_cell=conventional candidate_id=bb1fd1e9f9c16824 formula=CsGe0.24Pb0.76I3 config_index=3 rattle_stdev=0.08 method=PBE fidelity=phase2_force energy=-111.86501726792997 stress="-0.0023847453333643203 0.00022574970258616947 3.840733389101327e-05 0.00022574970258616947 -0.002121683334604741 -3.965467792945602e-05 3.840733389101327e-05 -3.965467792945602e-05 -0.0016361745293573804" pbc="T T T"
Cs      12.47166454      12.66538037      12.58115318        0       0.03086675       0.02918017       0.02085284
Pb       3.12532331       3.15191635       3.22110039        1      -0.28985268      -0.29179916      -0.72281315
I        3.08980913       3.18751217      12.50831499        2       0.02604837       0.00799097      -0.05555645
I        3.25673350      12.54236315       3.03986615        3       0.02933902      -0.17579016       0.00150382
I       12.51602563       3.01551188       3.04193912        4       0.14098642       0.03031676       0.02404336
Cs      -0.01794374      12.43599526       6.22821480        5      -0.03062693       0.00219368      -0.01242954
Pb       3.16539067       2.94077110       9.29938834        6      -0.06584245       0.17889846       0.48250172
I        3.08739819       2.94944449       6.19357880        7      -0.03921526      -0.03433434       0.39966715
I        3.19742681      12.31009249       9.36977824        8      -0.05523229       0.76734808       0.02949874
I       -0.11315009       3.05002334       9.61434623        9       0.51546265       0.02662998      -0.00334160
Cs      12.53920580       6.43881222      -0.14439506       10       0.02425873      -0.06097598      -0.00574824
Pb       3.10503984       9.33959989       3.07991938       11      -0.05822297       0.35730764      -0.09294573
I        3.25680250       9.41713437      12.36661994       12      -0.06692755      -0.02944743       0.73734028
I        3.13133000       6.25647126       3.26546642       13      -0.00561200       0.18361345       0.03020587
I       12.28390983       9.48824199       3.11680771       14       1.22868314      -0.10419248       0.03654014
Cs      12.51665217       6.38084120       6.23609073       15      -0.03624040       0.00873042       0.01194721
Ge       3.18855264       9.46616828       9.40330779       16      -0.06735512      -0.53680025      -0.01192255
I        3.27058852       9.45290342       6.53923371       17      -0.02344198       0.00540282      -0.67786740
I        3.20285545       6.51263972       9.38658653       18      -0.01473447      -0.43473464      -0.02298193
I        0.14568519       9.30877043       9.42703370       19      -0.39682362       0.04361702       0.00354616
Cs       6.38457872      12.48280633      12.52520405       20      -0.03426405       0.00749707       0.00817214
Pb       9.28128809       3.02196262       3.11291115       21       0.43811989       0.13033666       0.06433970
I        9.39985255       3.20207196       0.05844161       22      -0.04888305      -0.01276827      -0.25260823
I        9.62479792      12.39881662       3.06326631       23      -0.12553492       0.10197272       0.04013288
I        6.26022909       3.21286472       3.18388573       24      -0.21106901       0.00058125       0.02725298
Cs       6.31096507      12.54580742       6.31408335       25       0.01510176      -0.04207329       0.00268061
Pb       9.45118193       3.11395930       9.37556961       26      -0.18878560      -0.03172720       0.04017853
I        9.55653991       3.07615093       6.25292823       27       0.01361322       0.00699696       0.11303866
I        9.43971516      12.69467535       9.33866404       28      -0.03477526      -0.99378176       0.05105360
I        6.24973626       3.11131540       9.47775796       29      -0.15953856      -0.02068681      -0.03940671
Cs       6.24249444       6.37277889       0.06937641       30      -0.00212925      -0.02570437      -0.03726361
Ge       9.46620374       9.41746084       3.20478446       31      -0.16618163      -0.17453354       0.15074135
I        9.45102141       9.40037938       0.20595870       32       0.02496763      -0.02368669      -0.34406488
I        9.36132116       6.34476414       3.28373574       33       0.08428860      -0.02581150      -0.00588983
I        6.67585242       9.38166160       3.08265506       34      -1.06872781       0.06045108       0.03073382
Cs       6.37311340       6.45873614       6.29832386       35       0.01578465       0.02283850       0.01893667
Pb       9.43401049       9.37959790       9.58311495       36       0.09550781       0.03905131      -0.15612441
I        9.39695835       9.41106088       6.24806100       37       0.01763643       0.02922590       0.12862680
I        9.38072374       6.12945633       9.48143917       38      -0.01745570       0.96372955       0.00098778
I        6.09309621       9.45215880       9.52072318       39       0.50321708       0.00683320      -0.01405877
