40
Lattice="12.684226050938133 0.0 0.0 0.0 12.684226050938413 0.0 -4.856243082873588e-15 1.359669550301448e-13 12.684226050938225" Properties=species:S:1:pos:R:3:spacegroup_kinds:I:1:forces:R:3 spacegroup="P 1" unit_cell=conventional occupancy="_JSON {\"0\": {\"Cs\": 1.0}, \"1\": {\"Pb\": 1.0}, \"2\": {\"I\": 1.0}, \"3\": {\"I\": 1.0}, \"4\": {\"I\": 1.0}, \"5\": {\"Cs\": 1.0}, \"6\": {\"Pb\": 1.0}, \"7\": {\"I\": 1.0}, \"8\": {\"I\": 1.0}, \"9\": {\"I\": 1.0}, \"10\": {\"Cs\": 1.0}, \"11\": {\"Pb\": 1.0}, \"12\": {\"I\": 1.0}, \"13\": {\"I\": 1.0}, \"14\": {\"I\": 1.0}, \"15\": {\"Cs\": 1.0}, \"16\": {\"Pb\": 1.0}, \"17\": {\"I\": 1.0}, \"18\": {\"I\": 1.0}, \"19\": {\"I\": 1.0}, \"20\": {\"Cs\": 1.0}, \"21\": {\"Pb\": 1.0}, \"22\": {\"I\": 1.0}, \"23\": {\"I\": 1.0}, \"24\": {\"I\": 1.0}, \"25\": {\"Cs\": 1.0}, \"26\": {\"Pb\": 1.0}, \"27\": {\"I\": 1.0}, \"28\": {\"I\": 1.0}, \"29\": {\"I\": 1.0}, \"30\": {\"Cs\": 1.0}, \"31\": {\"Ge\": 1.0}, \"32\": {\"I\": 1.0}, \"33\": {\"I\": 1.0}, \"34\": {\"I\": 1.0}, \"35\": {\"Cs\": 1.0}, \"36\": {\"Pb\": 1.0}, \"37\": {\"I\": 1.0}, \"38\": {\"I\": 1.0}, \"39\": {\"I\": 1.0}}" candidate_id=7d996de8fd4c4fd7 formula=CsGe0.14Pb0.86I3 config_index=0 rattle_stdev=0.0 method=PBE fidelity=phase2_force energy=-112.91334501743312 stress="-0.00029523675759638064 -1.644418442399477e-10 1.6444184412691852e-10 -1.644418442399477e-10 -0.0002952367575963674 1.644418474046995e-10 1.6444184412691852e-10 1.644418474046995e-10 -0.00029523675759637565" pbc="T T T"
Cs      12.64819836      12.64819836       0.03602769        0      -0.00820735      -0.00820735       0.00820735
Pb       3.17105651       3.17105651       3.17105651        1       0.00028627       0.00028627       0.00031024
I        3.17105651       3.17105651      12.68389773        2      -0.00000430      -0.00000430       0.02592215
I        3.17105651      12.67244160       3.17105651        3      -0.00000292       0.02139730      -0.00000422
I       12.67244160       3.17105651       3.17105651        4       0.02139730      -0.00000292      -0.00000422
Cs      12.64819836      12.64819836       6.30608534        5      -0.00820557      -0.00820557      -0.00819406
Pb       3.17105651       3.17105651       9.51316954        6       0.00031509       0.00031509      -0.00031509
I        3.17105651       3.17105651       6.34244134        7      -0.00000321      -0.00000321      -0.02592166
I        3.17105651       0.00032832       9.51316954        8      -0.00000430      -0.02592215       0.00000430
I        0.00032832       3.17105651       9.51316954        9      -0.02592215      -0.00000430       0.00000430
Cs      12.64819836       6.37814071       0.03602769       10      -0.00820557       0.00819406       0.00820557
Pb       3.17105651       9.51316954       3.17105651       11      -0.00002567      -0.00033941       0.00033941
I        3.17105651       9.51316954       0.01178445       12      -0.00000292       0.00000422      -0.02139730
I        3.17105651       6.35389748       3.17105651       13      -0.00000198      -0.02141474      -0.00000301
I       12.51196394       9.51316954       3.17105651       14       0.25839222       0.00000433      -0.00000433
Cs      12.64819836       6.37814071       6.30608534       15      -0.00820393       0.00819256      -0.00819256
Pb       3.17105651       9.51316954       9.51316954       16       0.00028627      -0.00031024      -0.00028627
I        3.17105651       9.51316954       6.33032857       17      -0.00000198       0.00000301       0.02141474
I        3.17105651       6.34178471       9.51316954       18      -0.00000321       0.02592166       0.00000321
I       12.67244160       9.51316954       9.51316954       19       0.02139730       0.00000422       0.00000292
Cs       6.37814071      12.64819836       0.03602769       20       0.00819406      -0.00820557       0.00820557
Pb       9.51316954       3.17105651       3.17105651       21      -0.00033941      -0.00002567       0.00033941
I        9.51316954       3.17105651       0.01178445       22       0.00000422      -0.00000292      -0.02139730
I        9.51316954      12.51196394       3.17105651       23       0.00000433       0.25839222      -0.00000433
I        6.35389748       3.17105651       3.17105651       24      -0.02141474      -0.00000198      -0.00000301
Cs       6.37814071      12.64819836       6.30608534       25       0.00819256      -0.00820393      -0.00819256
Pb       9.51316954       3.17105651       9.51316954       26      -0.00031024       0.00028627      -0.00028627
I        9.51316954       3.17105651       6.33032857       27       0.00000301      -0.00000198       0.02141474
I        9.51316954      12.67244160       9.51316954       28       0.00000422       0.02139730       0.00000292
I        6.34178471       3.17105651       9.51316954       29       0.02592166      -0.00000321       0.00000321
Cs       6.37814071       6.37814071       0.03602769       30       0.00819256       0.00819256       0.00820393
Ge       9.51316954       9.51316954       3.17105651       31       0.00003256       0.00003256      -0.00003256
I        9.51316954       9.51316954       0.17226211       32       0.00000433       0.00000433      -0.25839222
I        9.51316954       6.51437514       3.17105651       33       0.00000316      -0.25844340      -0.00000316
I        6.51437514       9.51316954       3.17105651       34      -0.25844340       0.00000316      -0.00000316
Cs       6.37814071       6.37814071       6.30608534       35       0.00819041       0.00819041      -0.00819041
Pb       9.51316954       9.51316954       9.51316954       36      -0.00033941      -0.00033941       0.00002567
I        9.51316954       9.51316954       6.16985091       37       0.00000316       0.00000316       0.25844340
I        9.51316954       6.35389748       9.51316954       38       0.00000301      -0.02141474       0.00000198
I        6.35389748       9.51316954       9.51316954       39      -0.02141474       0.00000301       0.00000198
40
Lattice="12.684226050938133 0.0 0.0 0.0 12.684226050938413 0.0 -4.856243082873588e-15 1.359669550301448e-13 12.684226050938225" Properties=species:S:1:pos:R:3:spacegroup_kinds:I:1:forces:R:3 spacegroup="P 1" unit_cell=conventional occupancy="_JSON {\"0\": {\"Cs\": 1.0}, \"1\": {\"Pb\": 1.0}, \"2\": {\"I\": 1.0}, \"3\": {\"I\": 1.0}, \"4\": {\"I\": 1.0}, \"5\": {\"Cs\": 1.0}, \"6\": {\"Pb\": 1.0}, \"7\": {\"I\": 1.0}, \"8\": {\"I\": 1.0}, \"9\": {\"I\": 1.0}, \"10\": {\"Cs\": 1.0}, \"11\": {\"Pb\": 1.0}, \"12\": {\"I\": 1.0}, \"13\": {\"I\": 1.0}, \"14\": {\"I\": 1.0}, \"15\": {\"Cs\": 1.0}, \"16\": {\"Pb\": 1.0}, \"17\": {\"I\": 1.0}, \"18\": {\"I\": 1.0}, \"19\": {\"I\": 1.0}, \"20\": {\"Cs\": 1.0}, \"21\": {\"Pb\": 1.0}, \"22\": {\"I\": 1.0}, \"23\": {\"I\": 1.0}, \"24\": {\"I\": 1.0}, \"25\": {\"Cs\": 1.0}, \"26\": {\"Pb\": 1.0}, \"27\": {\"I\": 1.0}, \"28\": {\"I\": 1.0}, \"29\": {\"I\": 1.0}, \"30\": {\"Cs\": 1.0}, \"31\": {\"Ge\": 1.0}, \"32\": {\"I\": 1.0}, \"33\": {\"I\": 1.0}, \"34\": {\"I\": 1.0}, \"35\": {\"Cs\": 1.0}, \"36\": {\"Pb\": 1.0}, \"37\": {\"I\": 1.0}, \"38\": {\"I\": 1.0}, \"39\": {\"I\": 1.0}}" candidate_id=7d996de8fd4c4fd7 formula=CsGe0.14Pb0.86I3 config_index=1 rattle_stdev=0.08 method=PBE fidelity=phase2_force energy=-112.57199311952942 stress="-0.001679744341360683 5.5816243238106085e-05 -3.1479526688546415e-05 5.5816243238106085e-05 -0.0011451277972879704 -4.792150206783387e-05 -3.1479526688546415e-05 -4.792150206783387e-05 -0.0021270365623538693" pbc="T T T"
Cs      12.56128265      12.57651315       0.01152374        0      -0.02835937       0.02349765       0.04755462
Pb       3.06386182       3.07452967       3.11971837        1       0.26739075       0.26879218       0.25357322
I        3.27569216       3.31869335      12.75022693        2      -0.04672533      -0.02207902      -0.05365066
I        3.16919261      12.65575648       3.09772693        3       0.02863433       0.03818286      -0.00036144
I       12.58646219       3.16416503       3.26512360        4       0.55431983      -0.00802307       0.01710744
Cs      12.51739103      12.74645388       6.39219624        5       0.02226528       0.01550544      -0.05668505
Pb       3.20263834       3.14004045       9.56024168        6       0.06967540       0.05835072      -0.10581831
I        3.05639261       3.14517054       6.44268012        7       0.03233127       0.02392660      -0.25028213
I        3.11259711       0.11460712       9.58874185        8      -0.02096030      -0.57216349       0.02156321
I       -0.02079191       3.15799945       9.43604096        9       0.10125684       0.00859158       0.02424873
Cs      12.62078658       6.38205304      -0.00394287       10      -0.01102428      -0.01979153       0.03293994
Pb       2.99410415       9.53795649       3.04388441       11       0.15672290      -0.27217707      -0.00444886
I        3.22941288       9.50453744      -0.04022926       12      -0.01722683       0.01918797      -0.07741435
I        3.03561199       6.32441956       3.04382678       13       0.01313799       0.00850243       0.06326538
I       12.63040441       9.55112475       3.24416562       14      -0.07305080      -0.00211811       0.01877361
Cs      12.72503598       6.38490412       6.44346381       15       0.00518918      -0.02294449      -0.03538772
Pb       3.23920793       9.45277871       9.33015919       16       0.21494421       0.09448948       0.30473420
I        3.17979561       9.47715689       6.29729078       17       0.01329500      -0.01089408      -0.12963749
I        3.19657521       6.29849607       9.58906286       18      -0.02375526       0.38957084      -0.03363502
I       12.68455640       9.51932173       9.50841751       19       0.40938638       0.00792435       0.04307291
Cs       6.37252962      12.60290644       0.06090812       20       0.02497869       0.01905064       0.03184695
Pb       9.57110624       3.21237251       3.25313897       21      -0.44861900      -0.17843371      -0.48754351
I        9.55478175       3.10146943       0.13182967       22       0.03694205       0.01591596      -0.45117664
I        9.60648731      12.55131710       3.11247554       23      -0.01768888       0.17859554       0.11389449
I        6.40832197       3.21177626       3.10405361       24      -0.36432547      -0.00529584       0.04961489
Cs       6.42995230      12.64920152       6.43085247       25      -0.00920118      -0.00320382      -0.03533362
Pb       9.59593717       3.19807193       9.40896071       26      -0.19185109       0.25301694       0.34354181
I        9.42368599       3.27581772       6.28887121       27      -0.03293823      -0.02295473       0.46708780
I        9.48171959      12.75587908       9.51914675       28       0.01150918      -0.14609784      -0.00414998
I        6.34893967       3.17536910       9.54664530       29       0.03197973      -0.00189826      -0.00643921
Cs       6.27992231       6.29097739       0.06139764       30       0.01314850      -0.01401852       0.02880966
Ge       9.45073709       9.44467905       3.06546680       31      -0.22231987       0.15772348      -0.01961291
I        9.54947207       9.59331153       0.28536089       32      -0.00546756      -0.02751935      -0.28905549
I        9.49795491       6.51678398       3.02118318       33       0.03421211      -0.12596301       0.03996577
I        6.50503298       9.50297031       3.24323126       34       0.09195555       0.00313987      -0.02033352
Cs       6.27299094       6.37017665       6.31732933       35       0.01314303      -0.00347386      -0.01893552
Pb       9.72347401       9.65363184       9.30231771       36      -0.65191969      -0.31982187       0.12788959
I        9.41023798       9.49943176       6.31388721       37       0.08405684       0.04639651      -0.03780094
I        9.56186519       6.35641952       9.39585656       38       0.00725841       0.14948424       0.05894950
I        6.37865274       9.60454697       9.47230201       39      -0.07078436      -0.00145753       0.02997579
40
Lattice="12.684226050938133 0.0 0.0 0.0 12.684226050938413 0.0 -4.856243082873588e-15 1.359669550301448e-13 12.684226050938225" Properties=species:S:1:pos:R:3:spacegroup_kinds:I:1:forces:R:3 spacegroup="P 1" unit_cell=conventional occupancy="_JSON {\"0\": {\"Cs\": 1.0}, \"1\": {\"Pb\": 1.0}, \"2\": {\"I\": 1.0}, \"3\": {\"I\": 1.0}, \"4\": {\"I\": 1.0}, \"5\": {\"Cs\": 1.0}, \"6\": {\"Pb\": 1.0}, \"7\": {\"I\": 1.0}, \"8\": {\"I\": 1.0}, \"9\": {\"I\": 1.0}, \"10\": {\"Cs\": 1.0}, \"11\": {\"Pb\": 1.0}, \"12\": {\"I\": 1.0}, \"13\": {\"I\": 1.0}, \"14\": {\"I\": 1.0}, \"15\": {\"Cs\": 1.0}, \"16\": {\"Pb\": 1.0}, \"17\": {\"I\": 1.0}, \"18\": {\"I\": 1.0}, \"19\": {\"I\": 1.0}, \"20\": {\"Cs\": 1.0}, \"21\": {\"Pb\": 1.0}, \"22\": {\"I\": 1.0}, \"23\": {\"I\": 1.0}, \"24\": {\"I\": 1.0}, \"25\": {\"Cs\": 1.0}, \"26\": {\"Pb\": 1.0}, \"27\": {\"I\": 1.0}, \"28\": {\"I\": 1.0}, \"29\": {\"I\": 1.0}, \"30\": {\"Cs\": 1.0}, \"31\": {\"Ge\": 1.0}, \"32\": {\"I\": 1.0}, \"33\": {\"I\": 1.0}, \"34\": {\"I\": 1.0}, \"35\": {\"Cs\": 1.0}, \"36\": {\"Pb\": 1.0}, \"37\": {\"I\": 1.0}, \"38\": {\"I\": 1.0}, \"39\": {\"I\": 1.0}}" candidate_id=7d996de8fd4c4fd7 formula=CsGe0.14Pb0.86I3 config_index=2 rattle_stdev=0.08 method=PBE fidelity=phase2_force energy=-112.42650945946029 stress="-0.0015832270715992944 5.051651544663803e-05 3.5765660475173592e-06 5.051651544663803e-05 -0.001733618669015499 -9.864053040472435e-05 3.5765660475173592e-06 -9.864053040472435e-05 -0.0009530660139405656" pbc="T T T"
Cs      12.63918132      12.56207325       0.17882984        0       0.00907247      -0.01621482      -0.04834290
Pb       3.05449785       3.14495085       3.07026479        1       0.69671655       0.26431880       0.13502592
I        3.20112583       3.10080472      12.65589967        2      -0.02961244       0.03126851      -0.03146598
I        3.19478933      12.76851455       3.04553689        3      -0.00090990      -0.57940981       0.03288526
I       12.82076390       3.21057346       3.16059960        4      -0.96567588       0.02543886      -0.01643089
Cs      12.61594870      12.57030538       6.26868800        5      -0.02753992      -0.02122072       0.04503031
Pb       3.11362280       3.26876798       9.45099354        6       0.37316121      -0.15263067       0.01277676
I        3.12397446       3.16644700       6.34880773        7       0.02139696      -0.08445109      -0.13757823
I        3.07640043      -0.12357108       9.58615003        8      -0.00066937       0.55668716       0.00319822
I        0.03334198       3.11539499       9.33006779        9      -0.20195927       0.00491333       0.02098020
Cs      12.58521904       6.29585938       0.04349234       10       0.01482636       0.03181096      -0.01430795
Pb       3.12872098       9.57558913       3.15499134       11       0.17829027      -0.20837363       0.06332289
I        3.13260783       9.43034857      -0.02843430       12       0.01027441      -0.05198476       0.37158351
I        3.23424773       6.27989767       3.34785934       13      -0.01753708       0.46886421      -0.04830110
I       12.39994504       9.49404175       3.18844377       14       0.67208294      -0.03927625       0.02107372
Cs      12.62000754       6.38501075       6.31461750       15      -0.01218454       0.02079267       0.01378048
Pb       3.15529402       9.62092425       9.54078346       16      -0.00940014      -0.42317864      -0.10845284
I        3.21566807       9.46554673       6.38895515       17      -0.01438528       0.05104612      -0.33713355
I        3.27755673       6.28338207       9.47430907       18      -0.00892382       0.12857991       0.03220796
I       12.75859473       9.30554094       9.52652379       19      -0.14384385      -0.01468891      -0.00410246
Cs       6.46125748      12.50351246       0.09671896       20      -0.01264107       0.02626870      -0.01353635
Pb       9.47316051       2.98351306       3.16242310       21      -0.14565283       0.03796232       0.12412399
I        9.39294652       3.21015881      -0.03246983       22       0.05932456       0.03951685       0.16486917
I        9.59777014      12.44241851       3.16504923       23       0.00976256       0.53181163      -0.01506612
I        6.34532508       3.33896227       3.14381348       24       0.29015850      -0.08454190      -0.00854456
Cs       6.33590830      12.54462902       6.32321326       25       0.03186771      -0.00462319       0.01182963
Pb       9.60327110       3.20317938       9.57441636       26      -0.32751769      -0.06369339      -0.23848923
I        9.40491934       3.21696519       6.31271760       27       0.04396302      -0.04701770      -0.05060786
I        9.56478466      12.59206405       9.66514862       28       0.03337852       0.48871747       0.01805169
I        6.35913357       3.21105414       9.46304225       29       0.08846011      -0.05530313       0.00231371
Cs       6.29790997       6.31563589       0.05236991       30      -0.01313407      -0.03188873       0.00988174
Ge       9.55605690       9.42716974       2.99362813       31      -0.29924885      -0.21699103       0.34156054
I        9.56492396       9.48738267       0.15845698       32       0.00069554      -0.03869150      -0.18357666
I        9.33009579       6.50541163       3.24748162       33       0.09241866      -0.15699593      -0.07805364
I        6.55075419       9.67812373       3.17605335       34      -0.55734963       0.00940268      -0.05565205
Cs       6.37836811       6.34185641       6.33596394       35       0.01057728      -0.00675303      -0.00789436
Pb       9.44812026       9.50504494       9.54882659       36       0.30358228       0.10184641      -0.37127911
I        9.41115925       9.52179608       6.23802986       37       0.06230629       0.05175262       0.25183108
I        9.50062137       6.44900302       9.39538847       38       0.04890824      -0.59819324       0.03670473
I        6.42318075       9.44169838       9.46925189       39      -0.27010546       0.02798629       0.05726623
40
Lattice="12.684226050938133 0.0 0.0 0.0 12.684226050938413 0.0 -4.856243082873588e-15 1.359669550301448e-13 12.684226050938225" Properties=species:S:1:pos:R:3:spacegroup_kinds:I:1:forces:R:3 spacegroup="P 1" unit_cell=conventional occupancy="_JSON {\"0\": {\"Cs\": 1.0}, \"1\": {\"Pb\": 1.0}, \"2\": {\"I\": 1.0}, \"3\": {\"I\": 1.0}, \"4\": {\"I\": 1.0}, \"5\": {\"Cs\": 1.0}, \"6\": {\"Pb\": 1.0}, \"7\": {\"I\": 1.0}, \"8\": {\"I\": 1.0}, \"9\": {\"I\": 1.0}, \"10\": {\"Cs\": 1.0}, \"11\": {\"Pb\": 1.0}, \"12\": {\"I\": 1.0}, \"13\": {\"I\": 1.0}, \"14\": {\"I\": 1.0}, \"15\": {\"Cs\": 1.0}, \"16\": {\"Pb\": 1.0}, \"17\": {\"I\": 1.0}, \"18\": {\"I\": 1.0}, \"19\": {\"I\": 1.0}, \"20\": {\"Cs\": 1.0}, \"21\": {\"Pb\": 1.0}, \"22\": {\"I\": 1.0}, \"23\": {\"I\": 1.0}, \"24\": {\"I\": 1.0}, \"25\": {\"Cs\": 1.0}, \"26\": {\"Pb\": 1.0}, \"27\": {\"I\": 1.0}, \"28\": {\"I\": 1.0}, \"29\": {\"I\": 1.0}, \"30\": {\"Cs\": 1.0}, \"31\": {\"Ge\": 1.0}, \"32\": {\"I\": 1.0}, \"33\": {\"I\": 1.0}, \"34\": {\"I\": 1.0}, \"35\": {\"Cs\": 1.0}, \"36\": {\"Pb\": 1.0}, \"37\": {\"I\": 1.0}, \"38\": {\"I\": 1.0}, \"39\": {\"I\": 1.0}}" candidate_id=7d996de8fd4c4fd7 formula=CsGe0.14Pb0.86I3 config_index=3 rattle_stdev=0.08 method=PBE fidelity=phase2_force energy=-112.23212536757822 stress="-0.0019421336644997724 0.0001727921469168442 3.1476999067026735e-05 0.0001727921469168442 -0.0015517975261856018 2.707384822049268e-06 3.1476999067026735e-05 2.707384822049268e-06 -0.000999780513248483" pbc="T T T"
Cs      12.54251488      12.80953859       0.03983284        0       0.01670131       0.04277200       0.02935864
Pb       3.15204282       3.17778633       3.24781989        1      -0.26948259      -0.28017482      -0.66595567
I        3.11652863       3.21338214      12.62190428        2       0.02357850      -0.00288330      -0.04698748
I        3.28345301      12.65446716       3.06658566        3       0.02636794      -0.16841742       0.00096278
I       12.61815878       3.04138185       3.06865863        4       0.14162178       0.03180362       0.02783617
Cs      12.63025463      12.58015348       6.24562613        5      -0.04276897       0.00661457      -0.03087134
Pb       3.19211018       2.96664107       9.37954687        6      -0.04016227       0.48717349       0.44438231
I        3.11411770       2.97531446       6.24030656        7      -0.03572675      -0.03302789       0.36103971
I        3.22414632      -0.10197840       9.44993676        8      -0.02224532       0.42334210       0.01554715
I       -0.11986135       3.07589332       9.69450475        9       0.45717991       0.02036738      -0.00268413
Cs      12.61005614       6.44987383      -0.10836737       10       0.00515896      -0.06492351      -0.00321470
Pb       3.13175934       9.41720981       3.10663889       11      -0.08046479       0.31709191       0.05379077
I        3.28352200       9.49474429      -0.04531127       12      -0.01722118      -0.04001274       0.44911715
I        3.15804951       6.29958709       3.29218593       13      -0.00552656       0.18947148       0.02018074
I       12.37215811       9.56585191       3.14352721       14       1.19180572      -0.10109258       0.03835689
Cs      12.58750251       6.39190281       6.25350206       15      -0.04598864       0.00656127      -0.00171940
Pb       3.21527215       9.54377820       9.48346631       16      -0.17729872      -0.56764298       0.05339239
I        3.29730803       9.53051334       6.42725590       17       0.00484571       0.01704968      -0.58071137
I        3.22957496       6.39570440       9.46674505       18      -0.01838179      -0.31254618      -0.03353535
I       12.66449443       9.38638035       9.50719222       19      -0.09507784       0.01121595       0.00006359
Cs       6.47404542      12.62696455      -0.01611628       20      -0.01789673       0.00928888       0.01448224
Pb       9.36144661       3.04783259       3.13963065       21       0.41735684       0.12559884       0.05352409
I        9.48001107       3.22794194       0.06318649       22      -0.04874872      -0.01729229      -0.21868545
I        9.70495644      12.49838135       3.08998582       23      -0.12937600       0.13968797       0.04113015
I        6.31841299       3.23873469       3.21060523       24      -0.19452932      -0.00530614       0.02522595
Cs       6.40043177      12.68996564       6.33149467       25       0.02359279      -0.03653620      -0.00467548
Pb       9.53134045       3.13982927       9.45572813       26      -0.16193914      -0.03228868       0.02723994
I        9.63669843       3.10202090       6.30162236       27       0.00491779       0.00579919       0.11689564
I        9.51987368      12.80677936       9.41882256       28      -0.03086355      -0.92158853       0.04892413
I        6.30988654       3.13718537       9.55791648       29      -0.15874528      -0.03187282      -0.04007243
Cs       6.33196114       6.38384050       0.10540410       30       0.00732859      -0.02581105      -0.02684089
Ge       9.54636226       9.49507076       3.23150396       31      -0.16207248      -0.16104528       0.13691814
I        9.53117993       9.47798929       0.22458845       32       0.02690194      -0.02503950      -0.37477768
I        9.44147968       6.40041924       3.31045524       33       0.07885262      -0.05828139      -0.00875813
I        6.74792119       9.45927152       3.10937457       34      -1.02250077       0.05471192       0.03023935
Cs       6.46258010       6.46979775       6.31573518       35       0.02656231       0.02616519       0.00958716
Pb       9.51416901       9.45720782       9.66327347       36       0.04010159       0.02778620      -0.11393192
I        9.47711687       9.48867079       6.28287026       37       0.01615940       0.02602995       0.14484643
I        9.46088226       6.17257215       9.56159770       38      -0.01558900       0.89930712       0.00122413
I        6.31195204       9.52976872       9.60088171       39       0.28294093       0.01463738       0.00724855
