40
Lattice="12.75194030951499 0.0 0.0 0.0 12.678449422711529 0.0 0.0 0.0008734146361546987 12.67844939262673" Properties=species:S:1:pos:R:3:spacegroup_kinds:I:1:forces:R:3 spacegroup="P 1" unit_cell=conventional candidate_id=f363cfc41c0915a3 formula=MAPbBr0.094I0.913 config_index=0 rattle_stdev=0.0 method=PBE fidelity=phase2_force energy=-114.36604545169148 stress="-0.0005672244282773239 1.884227356759125e-10 -1.6590655894678045e-10 1.884227356759125e-10 -0.00021167666587355017 -6.910479065041177e-06 -1.6590655894678045e-10 -6.910479065041177e-06 -0.00021160975829158374" pbc="T T T"
Cs       0.01163388      12.65778810       0.00909686        0       0.01307256      -0.00940265      -0.00353767
Pb       3.18798508       3.17545173       3.16385120        1       0.00032629       0.00687167      -0.00437220
I        3.18798508       3.15383259       0.00182484        2      -0.00000000      -0.00530695      -0.00315811
I        3.18798508      12.67367149       3.07864230        3      -0.00000009       0.00665394      -0.00093341
I       12.74905276       3.26044294       3.18459841        4       0.00297836       0.00092966       0.00486983
Cs      12.75194031      12.66983573       6.33017492        5      -0.00000248       0.00341047       0.00341525
Pb       3.18798508       3.17086366       9.51426895        6       0.00033862      -0.00289788       0.00478846
I        3.18798508       3.15393787       6.33726406        7       0.00000066      -0.00628188       0.00297104
I        3.18798508      12.67451094       9.60119329        8       0.00000038       0.00571890       0.00260487
I       12.75194031       3.15420139       9.49277213        9      -0.00000049      -0.00517427      -0.00516933
Cs      12.75194031       6.35658616       0.01736026       10      -0.00000070       0.00652429       0.00653119
Pb       3.18798508       9.50241923       3.05605081       11       0.00033155      -0.00327807      -0.01304576
Br       3.18798508       9.52012725       0.00274031       12      -0.00001147       0.00518350      -0.00078678
I        3.18798508       6.34416391       3.07685711       13       0.00000363      -0.00776295      -0.00210663
I       12.75194031       9.42258240       3.08314528       14      -0.00000468       0.00082253       0.00082140
Cs      12.74030643       6.34875685       6.31856275       15      -0.01307329      -0.00354563      -0.00939244
Pb       3.18798508       9.51034328       9.62546036       16       0.00034304       0.00409924       0.01311536
I        3.18798508       9.52402192       6.33732791       17       0.00000060       0.00308406       0.00156906
I        3.18798508       6.34468137       9.60263270       18       0.00000051      -0.00641663       0.00200915
I        0.00288755       9.52448443       9.59944825       19      -0.00298267       0.00487438       0.00092952
Cs       6.36433627      12.65778810       0.00909686       20      -0.01306688      -0.00940194      -0.00353734
Pb       9.56395523       3.28645408       3.17045546       21      -0.00034395       0.01261437       0.00473932
I        9.56395523       3.26340834       0.00479513       22      -0.00000025       0.00200870      -0.00640190
I        9.56395523      12.67677200       3.18436062       23       0.00000024       0.00156742       0.00308059
I        6.37885770       3.26044294       3.18459841       24      -0.00298511       0.00093014       0.00487076
Cs       6.37597015      12.66983573       6.33017492       25       0.00000187       0.00341050       0.00341481
Pb       9.56395523       3.17569937       9.50943292       26      -0.00033862       0.00539947      -0.00349204
I        9.56395523       3.26240499       6.33462479       27      -0.00000058       0.00260531       0.00572047
I        9.56395523      12.67714274       9.49272599       28      -0.00000048       0.00296891      -0.00627608
I        6.37597015       3.15420139       9.49277213       29       0.00000052      -0.00517505      -0.00517060
Cs       6.37597015       6.35658616       0.01736026       30       0.00000119       0.00652352       0.00653003
Pb       9.56395523       9.39549342       3.16298398       31      -0.00033351      -0.01251984      -0.00264309
I        9.56395523       9.41608215       0.00472723       32      -0.00000410      -0.00210685      -0.00775174
Br       9.56395523       6.34218415       3.18090234       33       0.00001082      -0.00077651       0.00517352
I        6.37597015       9.42258240       3.08314528       34       0.00000454       0.00082212       0.00082143
Cs       6.38760404       6.34875685       6.31856275       35       0.01306718      -0.00354594      -0.00939094
Pb       9.56395523       9.50373136       9.51445846       36      -0.00032723      -0.00499724       0.00628385
I        9.56395523       9.41830338       6.33423468       37       0.00000025      -0.00093306       0.00665928
I        9.56395523       6.34170353       9.49305715       38      -0.00000047      -0.00316241      -0.00531093
I        6.37308261       9.52448443       9.59944825       39       0.00298933       0.00487487       0.00092950
40
Lattice="12.75194030951499 0.0 0.0 0.0 12.678449422711529 0.0 0.0 0.0008734146361546987 12.67844939262673" Properties=species:S:1:pos:R:3:spacegroup_kinds:I:1:forces:R:3 spacegroup="P 1" unit_cell=conventional candidate_id=f363cfc41c0915a3 formula=MAPbBr0.094I0.913 config_index=1 rattle_stdev=0.08 method=PBE fidelity=phase2_force energy=-113.77410380235726 stress="-0.0022271598321907363 1.867265575575282e-05 -2.849685424408481e-05 1.867265575575282e-05 -0.0010678925749566016 -0.00010955007410588411 -2.849685424408481e-05 -0.00010955007410588411 -0.0024834637916900455" pbc="T T T"
Cs      -0.07528183      12.58610289      -0.01540709        0      -0.01702446       0.02764305       0.03244757
Pb       3.08079038       3.07892488       3.11251305        1       0.24724542       0.28164906       0.25714074
I        3.29262073       3.30146942       0.06815404        2      -0.04272055      -0.03696226      -0.09280465
I        3.18612117      12.65698638       3.00531272        3       0.01116397       0.02854559      -0.00921026
I       12.66307335       3.25355146       3.27866549        4       0.50434846      -0.00657132       0.02304555
Cs      12.62113297      12.76809125       6.41628582        5       0.02824049       0.04032390      -0.03958199
Pb       3.21956691       3.13984760       9.56134109        6       0.08377606       0.04815558      -0.11230142
I        3.07332117       3.12805190       6.43750283        7       0.03897895       0.01688415      -0.22013089
I        3.12952567      12.78878974       9.67676560        8      -0.01968125      -0.53748321       0.02585357
I       12.73082009       3.14114433       9.41564354        9       0.10482658       0.00633301       0.02096381
Cs      12.72452852       6.36049849      -0.02261030       10      -0.01881609      -0.02963888       0.03373523
Pb       3.01103272       9.52720618       2.92887870       11       0.78969751      -0.27111010      -0.15158311
Br       3.24634144       9.51149515      -0.04927341       12      -0.05459865       0.02118018       0.01357960
I        3.05254056       6.31468598       2.94962737       13       0.01392818       0.02367115       0.06327734
I       12.87038078       9.46053761       3.15625439       14      -0.85853546       0.00916268       0.05299369
Cs      12.81714405       6.35552026       6.45594122       15       0.01653919      -0.03914733      -0.02033021
Pb       3.25613649       9.44995245       9.44245002       16       0.20297329       0.10106055       0.14565767
I        3.19672417       9.48800927       6.30429011       17      -0.00177796      -0.01407526       0.02727478
I        3.21350378       6.30139273       9.67852602       18      -0.02336648       0.36420383      -0.03512767
I        0.01500235       9.53063662       9.59469621       19       0.32420928       0.01054266       0.01066296
Cs       6.35872518      12.61249618       0.03397729       20       0.00132622       0.00777761       0.02299441
Pb       9.62189194       3.32777009       3.25253792       21      -0.40916471      -0.15834533      -0.48243729
I        9.60556744       3.19382126       0.12484034       22       0.04016822       0.01592719      -0.45671601
I        9.65727300      12.71612516       3.12577965       23      -0.00505247      -0.11477939       0.09967311
I        6.43328219       3.30116269       3.11759551       24      -0.33971703      -0.01268560       0.06083879
Cs       6.42778174      12.67083889       6.45494205       25      -0.02003465       0.01308742      -0.01969816
Pb       9.64672286       3.20271478       9.40522408       26      -0.17326752       0.26613909       0.35451668
I        9.47447169       3.36716620       6.29316743       27      -0.03432269      -0.02862856       0.43935379
I        9.53250529      12.76058022       9.49870321       28       0.01238204      -0.16825361      -0.03859822
I        6.38312512       3.15851398       9.52624789       29      -0.00109745      -0.00404009      -0.01707632
Cs       6.27775175       6.26942284       0.04273021       30       0.01884760      -0.00017061       0.04211941
Pb       9.50152279       9.32700294       3.05739427       31      -0.12795349       0.12168618       0.28793433
I        9.60025776       9.49622414       0.11782601       32       0.02073055      -0.00274771      -0.43303405
Br       9.54874060       6.34459300       3.03102900       33       0.03372972       0.12173960       0.02222780
I        6.36662800       9.41238317       3.15532002       34       0.17972343      -0.01201625       0.02305823
Cs       6.28245426       6.34079280       6.32980674       35      -0.00183613      -0.02089329      -0.02208864
Pb       9.77425971       9.64419367       9.30360664       36      -0.46394978      -0.25320134       0.93228721
I        9.46102367       9.40456560       6.47827098       37      -0.01303699       0.01163026      -0.97953041
I        9.61265088       6.34422557       9.37574418       38       0.01471256       0.16345848       0.07283807
I        6.39783787       9.61586186       9.55858071       39      -0.05735698       0.00071927       0.01379190
40
Lattice="12.75194030951499 0.0 0.0 0.0 12.678449422711529 0.0 0.0 0.0008734146361546987 12.67844939262673" Properties=species:S:1:pos:R:3:spacegroup_kinds:I:1:forces:R:3 spacegroup="P 1" unit_cell=conventional candidate_id=f363cfc41c0915a3 formula=MAPbBr0.094I0.913 config_index=2 rattle_stdev=0.08 method=PBE fidelity=phase2_force energy=-113.84684780189613 stress="-0.0016924604488054217 4.300493608591521e-05 5.127285783700663e-06 4.300493608591521e-05 -0.001552756784709312 -1.267253419817608e-05 5.127285783700663e-06 -1.267253419817608e-05 -0.0010886876527657517" pbc="T T T"
Cs       0.00261684      12.57166298       0.15189901        0       0.02579943      -0.01939921      -0.06785649
Pb       3.07142641       3.14934607       3.06305948        1       0.67096709       0.25727993       0.15722195
I        3.21805440       3.08358080      -0.02617322        2      -0.02788853       0.03162636      -0.06898519
I        3.21171789      12.76974445       2.95312268        3      -0.00712092      -0.61372476       0.03103480
I       12.89737506       3.29995989       3.17414149        4      -0.92789402       0.02221534      -0.01224047
Cs      12.71969065      12.59194275       6.29277758        5      -0.01118612      -0.01038725       0.05504579
Pb       3.13055136       3.26857513       9.45209295        6       0.35109122      -0.13632807       0.01620640
I        3.14090303       3.14932837       6.34363045        7       0.02502084      -0.07914829      -0.11735121
I        3.09332899      12.55061154       9.67417378        8       0.00095710       0.60220889       0.01002737
I       12.78495397       3.09853987       9.30967038        9      -0.16716987       0.00514230       0.02197452
Cs      12.68896099       6.27430483       0.02482491       10       0.03531862       0.02904623      -0.02737355
Pb       3.14564954       9.56483882       3.03998563       11       0.20320393      -0.23184113       0.02813045
Br       3.14953639       9.43730628      -0.03747844       12       0.00976180      -0.00548918       0.33125230
I        3.25117629       6.27016410       3.25365993       13      -0.01203137       0.50535133      -0.03995993
I       12.63992141       9.40345461       3.10053254       14       0.56944540       0.00553225       0.03103324
Cs      12.71211560       6.35562690       6.32709491       15      -0.01347583       0.01058815       0.01817489
Pb       3.17222258       9.61809799       9.65307428       16       0.00156193      -0.49829863      -0.07574314
I        3.23259663       9.47639911       6.39595448       17      -0.02460224       0.06873981      -0.28527751
I        3.29448529       6.28627873       9.56377223       18      -0.01166306       0.08467379       0.02050549
I        0.08904069       9.31685583       9.61280250       19      -0.15459619      -0.01127199      -0.00362245
Cs       6.44745304      12.51310219       0.06978813       20      -0.02815377       0.02653382      -0.03749694
Pb       9.52394621       3.09891063       3.16182205       21      -0.17661920       0.23037384       0.14380521
I        9.44373222       3.30251063      -0.03945915       22       0.05390494       0.03763954       0.18161098
I        9.64855583      12.60722657       3.17835334       23       0.01239391       0.14367772      -0.01539631
I        6.37028531       3.42834870       3.15735537       24       0.29079988      -0.10705245      -0.00884022
Cs       6.33373775      12.56626639       6.34730285       25       0.01685819      -0.00080269       0.02691605
Pb       9.65405680       3.20782223       9.57067974       26      -0.31121252      -0.05761939      -0.25806720
I        9.45570504       3.30831367       6.31701382       27       0.04568577      -0.05456223      -0.05936684
I        9.61557035      12.59676519       9.64470508       28       0.03277537       0.47312165       0.01512180
I        6.39331902       3.19419902       9.44264484       29       0.05886196      -0.06004607       0.00074290
Cs       6.29573942       6.29408135       0.03370248       30      -0.02108910      -0.02534267       0.00974862
Pb       9.60684259       9.30949362       2.98555560       31      -0.41762852      -0.24165451       0.62740187
I        9.61570965       9.39029529      -0.00907790       32       0.01388286      -0.02830843      -0.02349386
Br       9.38088149       6.33322064       3.25732744       33       0.09766752      -0.00058502      -0.07127704
I        6.41234921       9.58753659       3.08814212       34      -0.35168565       0.04286402      -0.03143909
Cs       6.38783143       6.31247255       6.34844135       35       0.02252111      -0.01276304      -0.01900645
Pb       9.49890595       9.49560676       9.55011552       36       0.24077929       0.09791858      -0.39351914
I        9.46194494       9.42692993       6.40241363       37       0.04557474       0.07943492      -0.20770869
I        9.55140706       6.43680907       9.37527608       38       0.04997762      -0.59083921       0.03841431
I        6.44236587       9.45301327       9.55553060       39      -0.21184105       0.03398534       0.05785274
40
Lattice="12.75194030951499 0.0 0.0 0.0 12.678449422711529 0.0 0.0 0.0008734146361546987 12.67844939262673" Properties=species:S:1:pos:R:3:spacegroup_kinds:I:1:forces:R:3 spacegroup="P 1" unit_cell=conventional candidate_id=f363cfc41c0915a3 formula=MAPbBr0.094I0.913 config_index=3 rattle_stdev=0.08 method=PBE fidelity=phase2_force energy=-113.68973335079576 stress="-0.0018498879452959966 7.01010125801866e-05 1.585368547140855e-05 7.01010125801866e-05 -0.0015420559147820358 0.00010192001153240543 1.585368547140855e-05 0.00010192001153240543 -0.0009415070718386676" pbc="T T T"
Cs      -0.09404960      12.81912833       0.01290202        0       0.02575312       0.05372381       0.02235975
Pb       3.16897138       3.18218154       3.24061458        1      -0.26190703      -0.27271197      -0.66981066
I        3.13345720       3.19615822      -0.06016862        2       0.02287265      -0.00400838      -0.07721759
I        3.30038157      12.65569706       2.97417144        3       0.02242262      -0.17996854      -0.00086817
I       12.69476994       3.13076828       3.08220052        4       0.12762454       0.04098132       0.02914268
Cs      12.73399657      12.60179085       6.26971572        5      -0.03293036       0.02416138      -0.01305104
Pb       3.20903874       2.96644822       9.38064628        6      -0.02850531       0.46287237       0.45592908
I        3.13104626       2.95819583       6.23512927        7      -0.03678689      -0.04326662       0.38988437
I        3.24107488      12.57220422       9.53796051        8      -0.02628381       0.48569927       0.01420644
I       12.63175064       3.05903819       9.67410734        9       0.45575460       0.01887201      -0.01721961
Cs      12.71379808       6.42831929      -0.12703480       10       0.02069139      -0.07415648      -0.01042698
Pb       3.14868791       9.40645951       2.99163318       11       0.04069850       0.29772390      -0.03953727
Br       3.30045057       9.50170199      -0.05435541       12      -0.03415236      -0.04846084       0.42261573
I        3.17497807       6.28985351       3.19798652       13      -0.02227889       0.22666816       0.01881604
I       12.61213448       9.47526476       3.05561598       14       1.04117548      -0.03970428      -0.00504671
Cs      12.67961058       6.36251896       6.26597947       15      -0.05067294      -0.01749912      -0.00464338
Pb       3.23220071       9.54095194       9.59575713       16      -0.15328099      -0.58394877       0.01385305
I        3.31423659       9.54136572       6.43425524       17      -0.01747200       0.00975866      -0.41604960
I        3.24650352       6.39860105       9.55620821       18      -0.01744608      -0.33693287      -0.03573712
I       -0.00505962       9.39769524       9.59347093       19      -0.11743098       0.01875218      -0.00024226
Cs       6.46024098      12.63655429      -0.04304711       20      -0.03795353       0.01395084       0.00331166
Pb       9.41223230       3.16323017       3.13902960       21       0.36355363       0.21071133       0.04323430
I        9.53079677       3.32029376       0.05619716       22      -0.04654358      -0.01829915      -0.18556363
I        9.75574214      12.66318942       3.10328993       23      -0.09219476      -0.17552934       0.01617859
I        6.34337321       3.32812112       3.22414713       24      -0.13730679      -0.01771906       0.03003860
Cs       6.39826121      12.71160301       6.35558426       25       0.01350156      -0.01779233       0.01051486
Pb       9.58212614       3.14447213       9.45199151       26      -0.13929538      -0.02110350       0.04041213
I        9.68748413       3.19336938       6.30591858       27       0.00642535      -0.00070178       0.09892044
I        9.57065938      12.81148050       9.39837901       28      -0.03182747      -0.95099831       0.04362855
I        6.34407198       3.12033025       9.53751907       29      -0.18579034      -0.03592569      -0.04947384
Cs       6.32979058       6.36228595       0.08673667       30      -0.00912064      -0.02690817      -0.03984293
Pb       9.59714795       9.37739464       3.22343143       31      -0.12471274      -0.18497635       0.22463025
I        9.58196562       9.38090191       0.05705357       32       0.02142018      -0.01039000       0.03244438
Br       9.49226537       6.22822826       3.32030107       33       0.04319119       0.17778577       0.01117016
I        6.60951620       9.36868438       3.02146334       34      -0.98000158       0.02112473      -0.00337702
Cs       6.47204342       6.44041389       6.32821259       35       0.03754019       0.00730740       0.00371374
Pb       9.56495470       9.44776965       9.66456239       36       0.04086361       0.00189068      -0.26894537
I        9.52790256       9.39380464       6.44725403       37       0.00556636       0.00856059      -0.09873838
I        9.51166795       6.16037820       9.54148531       38      -0.01322002       0.95116846      -0.00126707
I        6.33113716       9.54108361       9.68716041       39       0.29305343       0.01427784       0.01281711
