40
Lattice="12.723687697635116 0.0 0.0 0.0 12.724575191171185 0.0 0.0 9.255425327406284e-15 12.724575191171214" Properties=species:S:1:pos:R:3:spacegroup_kinds:I:1:forces:R:3 spacegroup="P 1" unit_cell=conventional candidate_id=da2d02076107a4c9 formula=FA0.26Rb0.74PbI3 config_index=0 rattle_stdev=0.0 method=PBE fidelity=phase2_force energy=-111.8191571451046 stress="-0.0004971778709948737 0.0 0.0 0.0 -0.0005024525396139188 3.6546697168144468e-19 0.0 3.6546697168144468e-19 -0.0005022859857501633" pbc="T T T"
Rb      12.72368770       0.00000000      12.72457519        0       0.00000000       0.00000000       0.00000000
Pb       3.18092192       3.18917763       3.17310996        1       0.00032165      -0.00961388       0.01024915
I        3.18092192       3.20352513      12.72457519        2      -0.00000292      -0.00393614       0.00000000
I        3.18092192      12.72457519       3.11097867        3      -0.00000628       0.00000000       0.00948664
I       12.72368770       3.22525667       3.13703092        4      -0.00000000      -0.00797794       0.00796989
Cs      12.72368770      12.72457519       6.36228760        5       0.00000000       0.00000000       0.00000000
Pb       3.18092192       3.18917763       9.55146523        6       0.00032165      -0.00961388      -0.01024915
I        3.18092192       3.25130893       6.36228760        7      -0.00000130      -0.00948562       0.00000000
I        3.18092192      12.72457519       9.61359652        8      -0.00000628      -0.00000000      -0.00948664
I       12.72368770       3.22525667       9.58754427        9      -0.00000000      -0.00797794      -0.00796989
Rb      12.72368770       6.36228760      12.72457519       10       0.00000000       0.00000000       0.00000000
Pb       3.18092192       9.53539756       3.17310996       11       0.00032165       0.00961388       0.01024915
I        3.18092192       9.52105006      12.72457519       12      -0.00000292       0.00393614       0.00000000
I        3.18092192       6.36228760       3.15876246       13      -0.00000060       0.00000000       0.00393152
I       12.72368770       9.49931852       3.13703092       14       0.00000000       0.00797794       0.00796989
Rb      12.72368770       6.36228760       6.36228760       15       0.00000000       0.00000000       0.00000000
Pb       3.18092192       9.53539756       9.55146523       16       0.00032165       0.00961388      -0.01024915
I        3.18092192       9.47326626       6.36228760       17      -0.00000130       0.00948562       0.00000000
I        3.18092192       6.36228760       9.56581273       18      -0.00000060      -0.00000000      -0.00393152
I       12.72368770       9.49931852       9.58754427       19       0.00000000       0.00797794      -0.00796989
Rb       6.36184385       0.00000000      12.72457519       20      -0.00000000       0.00000000       0.00000000
Pb       9.54276577       3.18917763       3.17310996       21      -0.00032165      -0.00961388       0.01024915
I        9.54276577       3.20352513      12.72457519       22       0.00000292      -0.00393614       0.00000000
I        9.54276577      12.72457519       3.11097867       23       0.00000628       0.00000000       0.00948664
I        6.36184385       3.22525667       3.13703092       24      -0.00000000      -0.00797056       0.00796985
Cs       6.36184385      12.72457519       6.36228760       25      -0.00000000       0.00000000       0.00000000
Pb       9.54276577       3.18917763       9.55146523       26      -0.00032165      -0.00961388      -0.01024915
I        9.54276577       3.25130893       6.36228760       27       0.00000130      -0.00948562       0.00000000
I        9.54276577      12.72457519       9.61359652       28       0.00000628      -0.00000000      -0.00948664
I        6.36184385       3.22525667       9.58754427       29       0.00000000      -0.00797056      -0.00796985
Rb       6.36184385       6.36228760      12.72457519       30       0.00000000       0.00000000       0.00000000
Pb       9.54276577       9.53539756       3.17310996       31      -0.00032165       0.00961388       0.01024915
I        9.54276577       9.52105006      12.72457519       32       0.00000292       0.00393614       0.00000000
I        9.54276577       6.36228760       3.15876246       33       0.00000060       0.00000000       0.00393152
I        6.36184385       9.49931852       3.13703092       34       0.00000000       0.00797056       0.00796985
Rb       6.36184385       6.36228760       6.36228760       35       0.00000000      -0.00000000       0.00000000
Pb       9.54276577       9.53539756       9.55146523       36      -0.00032165       0.00961388      -0.01024915
I        9.54276577       9.47326626       6.36228760       37       0.00000130       0.00948562       0.00000000
I        9.54276577       6.36228760       9.56581273       38       0.00000060      -0.00000000      -0.00393152
I        6.36184385       9.49931852       9.58754427       39      -0.00000000       0.00797056      -0.00796985
40
Lattice="12.723687697635116 0.0 0.0 0.0 12.724575191171185 0.0 0.0 9.255425327406284e-15 12.724575191171214" Properties=species:S:1:pos:R:3:spacegroup_kinds:I:1:forces:R:3 spacegroup="P 1" unit_cell=conventional candidate_id=da2d02076107a4c9 formula=FA0.26Rb0.74PbI3 config_index=1 rattle_stdev=0.08 method=PBE fidelity=phase2_force energy=-111.24083087529874 stress="-0.0021628840931800777 3.997549179624857e-05 -1.8057543920629457e-05 3.997549179624857e-05 -0.0013127273614752355 -8.58239589014696e-05 -1.8057543920629457e-05 -8.58239589014696e-05 -0.002712802299316252" pbc="T T T"
Rb      12.63677199      -0.07168521      12.70007124        0      -0.04949087       0.01350318       0.03010225
Pb       3.07372723       3.09265079       3.12177182        1       0.26611796       0.25540132       0.24550079
I        3.28555758       3.35116196      12.79090439        2      -0.03865378      -0.01274671      -0.08194384
I        3.17905802      12.70789007       3.03764909        3       0.01771088       0.02302361      -0.00806454
I       12.63770829       3.21836519       3.23109801        4       0.50580192      -0.00969719       0.02823860
Cs      12.59288036      12.82283071       6.44839850        5       0.02895036       0.04551942      -0.03732429
Pb       3.21250375       3.15816157       9.59853737        6       0.07619469       0.02915208      -0.11737310
I        3.06625802       3.22542295       6.46252637        7       0.03107144       0.00959004      -0.20628640
I        3.12246252      12.83885400       9.68916884        8      -0.01827834      -0.50797593       0.00645331
I       12.70256748       3.21219961       9.51041569        9       0.12252345       0.00294136       0.01119356
Rb      12.69627591       6.36619992      12.68460463       10      -0.00530232      -0.02896807       0.02384969
Pb       3.00396956       9.56018451       3.04593786       11       0.80494379      -0.23706607      -0.05582686
I        3.23927829       9.51241796      12.67256147       12      -0.01992053       0.02212736      -0.06455310
I        3.04547740       6.33280967       3.03153273       13       0.00329831       0.01900569       0.05696624
I       12.84212817       9.53727373       3.21014003       14      -0.92348303       0.02051415       0.06247557
Rb      12.80052532       6.36905100       6.49966607       15       0.02987085      -0.04580942       0.00585886
Pb       3.24907334       9.47500673       9.36845488       16       0.20211330       0.08785411       0.29764992
I        3.18966102       9.43725361       6.32924980       17       0.00445161      -0.02019015      -0.12894606
I        3.20644063       6.31899896       9.64170604       18      -0.02082874       0.37030295      -0.03656223
I       12.73580250       9.50547071       9.58279224       19       0.34704464       0.01008383       0.01176707
Rb       6.35623275      -0.04529192      12.74945562       20       0.01571889       0.01167065       0.02656008
Pb       9.60070248       3.23049363       3.25519242       21      -0.42332704      -0.23432498      -0.40404593
I        9.58437798       3.13393805      12.84462040       22       0.04469485       0.01515544      -0.44735374
I        9.63608355      12.76392835       3.05239769       23       0.00516072      -0.14863948       0.10461888
I        6.41626834       3.26597642       3.07002802       24      -0.33451414      -0.01309853       0.05974553
Cs       6.41365544      12.72557835       6.48705472       25      -0.01692612       0.00919499      -0.01861310
Pb       9.62553340       3.21619305       9.44725639       26      -0.19463685       0.22533749       0.32822777
I        9.45328223       3.35607014       6.32083024       27      -0.03211337      -0.03199708       0.40108867
I        9.51131583      12.80801267       9.61957374       28       0.02074497      -0.17563933      -0.04337242
I        6.36899881       3.22956926       9.62102003       29       0.00835150      -0.01030902      -0.01834238
Rb       6.26362544       6.27512427      12.74994514       30      -0.01790354      -0.03876048       0.04021009
Pb       9.48033333       9.46690708       3.06752025       31      -0.12401600       0.24378315       0.27262826
I        9.57906831       9.60119205      12.83767397       32       0.02760366       0.01493482      -0.41163731
I        9.52755114       6.36469644       3.00888913       33       0.03333198       0.09964402      -0.00602326
I        6.35250169       9.48911929       3.20920567       34       0.17816983       0.00492468       0.02919768
Rb       6.25669407       6.35432354       6.37353158       35      -0.00858854      -0.01488328      -0.01152325
Pb       9.75307025       9.67585987       9.34061340       36      -0.50228546      -0.21631498       0.89464356
I        9.43983421       9.45952849       6.50632389       37      -0.00810124       0.02010669      -0.95188763
I        9.59146142       6.36480964       9.44849975       38       0.02028588       0.16385093       0.05391552
I        6.38659911       9.59069595       9.54667674       39      -0.05332944       0.01945841       0.00794991
40
Lattice="12.723687697635116 0.0 0.0 0.0 12.724575191171185 0.0 0.0 9.255425327406284e-15 12.724575191171214" Properties=species:S:1:pos:R:3:spacegroup_kinds:I:1:forces:R:3 spacegroup="P 1" unit_cell=conventional candidate_id=da2d02076107a4c9 formula=FA0.26Rb0.74PbI3 config_index=2 rattle_stdev=0.08 method=PBE fidelity=phase2_force energy=-111.30801862585942 stress="-0.0016217243719808233 5.1770698916939725e-06 -6.394925738672143e-06 5.1770698916939725e-06 -0.0018053996786816635 -5.9227551023177804e-05 -6.394925738672143e-06 -5.9227551023177804e-05 -0.0012865616591036736" pbc="T T T"
Rb      12.71467066      -0.08612512      12.86737735        0       0.02120436      -0.02213291      -0.03710723
Pb       3.06436326       3.16307197       3.07231824        1       0.72257051       0.23282448       0.15533355
I        3.21099124       3.13327334      12.69657713        2      -0.02811943       0.03950850      -0.05762146
I        3.20465474      12.82064815       2.98545905        3      -0.01367232      -0.58769851       0.02583776
I       12.87201000       3.26477362       3.12657401        4      -1.00229530       0.02628029      -0.02254739
Cs      12.69143804      12.64668221       6.32489025        5      -0.01189804      -0.01099417       0.05452375
Pb       3.12348821       3.28688910       9.48928923        6       0.36962365      -0.15082133      -0.00691164
I        3.13383987       3.24669942       6.36865399        7       0.01266602      -0.09165970      -0.10421166
I        3.08626584      12.60067580       9.68657702        8      -0.00644789       0.53211507      -0.00684487
I       12.75670136       3.16959515       9.40444252        9      -0.16553924       0.00919908       0.01144869
Rb      12.66070838       6.28000626      12.73203984       10       0.01573653       0.02499488      -0.02827389
Pb       3.13858639       9.59781715       3.15704479       11       0.19242541      -0.19735494       0.05399234
I        3.14247324       9.43822909      12.68435644       12       0.01382636      -0.06077964       0.39700961
I        3.24411314       6.28828779       3.33556529       13      -0.00796222       0.49769177      -0.03384250
I       12.61166880       9.48019073       3.15441818       14       0.58337952       0.01072771       0.03834904
Rb      12.69549688       6.36915764       6.37081975       15      -0.00104558       0.01116336       0.03102872
Pb       3.16515943       9.64315227       9.57907915       16      -0.00759514      -0.38558185      -0.12997972
I        3.22553348       9.42564345       6.42091417       17      -0.01482447       0.06608884      -0.33059283
I        3.28742214       6.30388496       9.52695226       18       0.00272076       0.10266350       0.03265438
I       12.80984083       9.29168992       9.60089852       19      -0.15896578      -0.02081902      -0.02233017
Rb       6.44496062      -0.14468591      12.78526647       20      -0.01373745       0.00940723      -0.01272439
Pb       9.50275675       3.00163418       3.16447655       21      -0.17064995       0.38117942       0.12766609
I        9.42254276       3.24262742      12.68032091       22       0.05711826       0.04583769       0.20647275
I        9.62736638      12.65502976       3.10497138       23       0.02901545       0.08349853      -0.00564075
I        6.35327145       3.39316243       3.10978789       24       0.29641833      -0.10862512      -0.00151434
Cs       6.31961144      12.62100585       6.37941552       25       0.01666695      -0.00401805       0.02405059
Pb       9.63286734       3.22130050       9.61271205       26      -0.33301134      -0.06596137      -0.25655390
I        9.43451558       3.29721761       6.34467663       27       0.03748675      -0.07141217      -0.07022346
I        9.59438089      12.64419765       9.76557561       28       0.02916660       0.43727264       0.00899564
I        6.37919271       3.26525430       9.53741698       29       0.06083814      -0.05518482      -0.01244233
Rb       6.28161311       6.29978278      12.74091741       30      -0.02408904      -0.05776224       0.00339466
Pb       9.58565313       9.44939776       2.99568158       31      -0.39057533      -0.19048865       0.53926461
I        9.59452019       9.49526320      12.71077006       32       0.01995677      -0.02213278      -0.00096382
I        9.35969203       6.35332409       3.23518757       33       0.06730925      -0.11250672      -0.03455971
I        6.39822290       9.66427271       3.14202776       34      -0.35414714       0.07016580      -0.03487123
Rb       6.36207124       6.32600329       6.39216620       35       0.01138581      -0.02709843      -0.00004673
Pb       9.47771649       9.52727296       9.58712228       36       0.26674978       0.11425355      -0.40440527
I        9.44075548       9.48189281       6.43046655       37       0.04808572       0.08504307      -0.19168959
I        9.53021761       6.45739314       9.44803166       38       0.05371219      -0.56459241       0.03338797
I        6.43112712       9.42784736       9.54362662       39      -0.23669929       0.03346015       0.05689057
40
Lattice="12.723687697635116 0.0 0.0 0.0 12.724575191171185 0.0 0.0 9.255425327406284e-15 12.724575191171214" Properties=species:S:1:pos:R:3:spacegroup_kinds:I:1:forces:R:3 spacegroup="P 1" unit_cell=conventional candidate_id=da2d02076107a4c9 formula=FA0.26Rb0.74PbI3 config_index=3 rattle_stdev=0.08 method=PBE fidelity=phase2_force energy=-111.16267210840182 stress="-0.0017056611632821756 0.00010127651559718774 1.1504969355456017e-05 0.00010127651559718774 -0.0017612954126740845 3.333998487008669e-05 1.1504969355456017e-05 3.333998487008669e-05 -0.001215226923061158" pbc="T T T"
Rb      12.61800422       0.16134023      12.72838035        0      -0.00355398       0.09795314       0.03782065
Pb       3.16190823       3.19590745       3.24987334        1      -0.26264775      -0.30122056      -0.63275825
I        3.12639404       3.24585076      12.66258173        2       0.02304468       0.00030324      -0.07834623
I        3.29331842      12.70660075       3.00650781        3       0.02775818      -0.16692525       0.01911335
I       12.66940488       3.09558201       3.03463304        4       0.12144080       0.01746203       0.02950130
Cs      12.70574396      12.65653031       6.30182839        5      -0.03372698       0.02319985      -0.02193980
Pb       3.20197559       2.98476219       9.41784255        6      -0.02732292       0.44505794       0.42987191
I        3.12398311       3.05556688       6.26015281        7      -0.03530856      -0.04206673       0.38289673
I        3.23401173      12.62226847       9.55036375        8      -0.01750140       0.43786050       0.00097777
I       12.60349803       3.13009348       9.76887948        9       0.46453650      -0.00216507      -0.00312940
Rb      12.68554547       6.43402072      12.58018013       10       0.00693898      -0.06074834      -0.04511953
Pb       3.14162475       9.43943783       3.10869234       11       0.02830294       0.28493075       0.02649412
I        3.29338741       9.50262481      12.66747947       12      -0.02223878      -0.05140340       0.47431139
I        3.16791492       6.30797720       3.27989188       13      -0.01988363       0.22622454       0.03067543
I       12.58388187       9.55200089       3.10950162       14       1.07620451      -0.04685631       0.01252062
Rb      12.66299185       6.37604970       6.30970431       15      -0.04480312       0.00032443       0.00092567
Pb       3.22513756       9.56600622       9.52176200       16      -0.17364025      -0.52285042       0.02917022
I        3.30717344       9.49061006       6.45921493       17       0.00454600       0.02997885      -0.56982863
I        3.23944037       6.41620728       9.51938824       18      -0.01795326      -0.33509770      -0.04066570
I       12.71574053       9.37252933       9.58156695       19      -0.10279312      -0.00108365       0.00347765
Rb       6.45774856      -0.02123382      12.67243122       20      -0.02023835       0.01178955      -0.00353370
Pb       9.39104285       3.06595371       3.14168410       21       0.34412442       0.24383789       0.04090212
I        9.50960731       3.26041055      12.77597722       22      -0.05656169      -0.02484545      -0.17151587
I        9.73455268      12.71099261       3.02990797       23      -0.04957670      -0.25497685       0.00397499
I        6.32635935       3.29293485       3.17657964       24      -0.15064993      -0.02160943       0.02990970
Cs       6.38413491      12.76634247       6.38769693       25       0.01151068      -0.01928303       0.00701850
Pb       9.56093668       3.15795039       9.49402382       26      -0.14566082      -0.04468539       0.00558610
I        9.66629467       3.18227332       6.33358139       27       0.01124865      -0.02310570       0.09595285
I        9.54946992      12.85891295       9.51924955       28      -0.02939787      -0.90427647       0.04597155
I        6.32994568       3.19138553       9.63229121       29      -0.18989691      -0.05149901      -0.05216115
Rb       6.31566427       6.36798739      12.79395160       30      -0.00849670      -0.02711747      -0.02651650
Pb       9.57595849       9.51729878       3.23355741       31      -0.12393893      -0.18267607       0.22421788
I        9.56077616       9.48586982      12.77690153       32       0.02550813      -0.00867825       0.03888795
I        9.47107591       6.24833170       3.29816120       33       0.06109416       0.24369089       0.03171087
I        6.59538990       9.44542050       3.07534898       34      -1.03088364       0.01620288      -0.00571925
Rb       6.44628323       6.45394464       6.37193744       35       0.03386656       0.03388750       0.00668904
Pb       9.54376525       9.47943584       9.70156916       36       0.03918396       0.01084159      -0.27893913
I        9.50671310       9.44876752       6.47530694       37      -0.00021848       0.01350206      -0.09954740
I        9.49047849       6.18096227       9.61424088       38      -0.01638713       0.91490213       0.00596996
I        6.31989841       9.51591770       9.67525644       39       0.29184869       0.02565212       0.00982025
