Cs Sn I  Cs Sn I  Cs Ge I  Cs Ge I  Cs Ge I  Cs Sn I  Cs Ge I  Cs Sn I 
 1.0000000000000000
    12.5764597888276946    0.0000000000000000    0.0000000000000000
     0.0000000000000000   12.5764597888276946    0.0000000000000000
     0.0000000000000000    0.0000000000000000   12.5764597888276946
 Cs  Sn  I   Cs  Sn  I   Cs  Ge  I   Cs  Ge  I   Cs  Ge  I   Cs  Sn  I   Cs  Ge  I   Cs  Sn  I  
   1   1   3   1   1   3   1   1   3   1   1   3   1   1   3   1   1   3   1   1   3   1   1   3
Cartesian
  0.0000000000000000  0.0000000000000000  0.0000000000000000
  3.1441149472069236  3.1441149472069236  3.1441149472069236
  3.1441149472069236  3.1441149472069236  0.0000000000000000
  3.1441149472069236  0.0000000000000000  3.1441149472069236
  0.0000000000000000  3.1441149472069236  3.1441149472069236
  0.0000000000000000  0.0000000000000000  6.2882298944138464
  3.1441149472069236  3.1441149472069236  9.4323448416207718
  3.1441149472069236  3.1441149472069236  6.2882298944138464
  3.1441149472069236  0.0000000000000000  9.4323448416207718
  0.0000000000000000  3.1441149472069236  9.4323448416207718
  0.0000000000000000  6.2882298944138464  0.0000000000000000
  3.1441149472069236  9.4323448416207718  3.1441149472069236
  3.1441149472069236  9.4323448416207718  0.0000000000000000
  3.1441149472069236  6.2882298944138464  3.1441149472069236
  0.0000000000000000  9.4323448416207718  3.1441149472069236
  0.0000000000000000  6.2882298944138464  6.2882298944138464
  3.1441149472069236  9.4323448416207718  9.4323448416207718
  3.1441149472069236  9.4323448416207718  6.2882298944138464
  3.1441149472069236  6.2882298944138464  9.4323448416207718
  0.0000000000000000  9.4323448416207718  9.4323448416207718
  6.2882298944138464  0.0000000000000000  0.0000000000000000
  9.4323448416207718  3.1441149472069236  3.1441149472069236
  9.4323448416207718  3.1441149472069236  0.0000000000000000
  9.4323448416207718  0.0000000000000000  3.1441149472069236
  6.2882298944138464  3.1441149472069236  3.1441149472069236
  6.2882298944138464  0.0000000000000000  6.2882298944138464
  9.4323448416207718  3.1441149472069236  9.4323448416207718
  9.4323448416207718  3.1441149472069236  6.2882298944138464
  9.4323448416207718  0.0000000000000000  9.4323448416207718
  6.2882298944138464  3.1441149472069236  9.4323448416207718
  6.2882298944138464  6.2882298944138464  0.0000000000000000
  9.4323448416207718  9.4323448416207718  3.1441149472069236
  9.4323448416207718  9.4323448416207718  0.0000000000000000
  9.4323448416207718  6.2882298944138464  3.1441149472069236
  6.2882298944138464  9.4323448416207718  3.1441149472069236
  6.2882298944138464  6.2882298944138464  6.2882298944138464
  9.4323448416207718  9.4323448416207718  9.4323448416207718
  9.4323448416207718  9.4323448416207718  6.2882298944138464
  9.4323448416207718  6.2882298944138464  9.4323448416207718
  6.2882298944138464  9.4323448416207718  9.4323448416207718
