Cs Pb I  Cl Cs Pb Cl Cs Pb Cl I  Cs Pb Cl Cs Pb Cl Cs Pb Cl I  Cl Cs Pb Cl Cs Pb Cl
 1.0000000000000000
    12.1950463910556728    0.0000000000000000    0.0000000000000000
     0.0000000000000000   12.1950463910556728    0.0000000000000000
     0.0000000000000000    0.0000000000000000   12.1950463910556728
 Cs  Pb  I   Cl  Cs  Pb  Cl  Cs  Pb  Cl  I   Cs  Pb  Cl  Cs  Pb  Cl  Cs  Pb  Cl  I   Cl  Cs  Pb  Cl  Cs  Pb  Cl 
   1   1   1   2   1   1   3   1   1   2   1   1   1   3   1   1   3   1   1   1   1   1   1   1   3   1   1   3
Cartesian
  0.0000000000000000  0.0000000000000000  0.0000000000000000
  3.0487615977639182  3.0487615977639182  3.0487615977639182
  3.0487615977639182  3.0487615977639182  0.0000000000000000
  3.0487615977639182  0.0000000000000000  3.0487615977639182
  0.0000000000000000  3.0487615977639182  3.0487615977639182
  0.0000000000000000  0.0000000000000000  6.0975231955278355
  3.0487615977639182  3.0487615977639182  9.1462847932917555
  3.0487615977639182  3.0487615977639182  6.0975231955278355
  3.0487615977639182  0.0000000000000000  9.1462847932917555
  0.0000000000000000  3.0487615977639182  9.1462847932917555
  0.0000000000000000  6.0975231955278355  0.0000000000000000
  3.0487615977639182  9.1462847932917555  3.0487615977639182
  3.0487615977639182  9.1462847932917555  0.0000000000000000
  3.0487615977639182  6.0975231955278355  3.0487615977639182
  0.0000000000000000  9.1462847932917555  3.0487615977639182
  0.0000000000000000  6.0975231955278355  6.0975231955278355
  3.0487615977639182  9.1462847932917555  9.1462847932917555
  3.0487615977639182  9.1462847932917555  6.0975231955278355
  3.0487615977639182  6.0975231955278355  9.1462847932917555
  0.0000000000000000  9.1462847932917555  9.1462847932917555
  6.0975231955278355  0.0000000000000000  0.0000000000000000
  9.1462847932917555  3.0487615977639182  3.0487615977639182
  9.1462847932917555  3.0487615977639182  0.0000000000000000
  9.1462847932917555  0.0000000000000000  3.0487615977639182
  6.0975231955278355  3.0487615977639182  3.0487615977639182
  6.0975231955278355  0.0000000000000000  6.0975231955278355
  9.1462847932917555  3.0487615977639182  9.1462847932917555
  9.1462847932917555  3.0487615977639182  6.0975231955278355
  9.1462847932917555  0.0000000000000000  9.1462847932917555
  6.0975231955278355  3.0487615977639182  9.1462847932917555
  6.0975231955278355  6.0975231955278355  0.0000000000000000
  9.1462847932917555  9.1462847932917555  3.0487615977639182
  9.1462847932917555  9.1462847932917555  0.0000000000000000
  9.1462847932917555  6.0975231955278355  3.0487615977639182
  6.0975231955278355  9.1462847932917555  3.0487615977639182
  6.0975231955278355  6.0975231955278355  6.0975231955278355
  9.1462847932917555  9.1462847932917555  9.1462847932917555
  9.1462847932917555  9.1462847932917555  6.0975231955278355
  9.1462847932917555  6.0975231955278355  9.1462847932917555
  6.0975231955278355  9.1462847932917555  9.1462847932917555
