40
Lattice="11.808943933061066 0.0 0.0 -0.003589236301007864 11.78186967363698 0.0 -0.0008453930682538439 -0.006151580857219527 12.035897406511872" Properties=species:S:1:pos:R:3:spacegroup_kinds:I:1:forces:R:3 spacegroup="P 1" unit_cell=conventional occupancy="_JSON {\"0\": {\"Cs\": 1.0}, \"1\": {\"Pb\": 1.0}, \"2\": {\"I\": 1.0}, \"3\": {\"Br\": 1.0}, \"4\": {\"Cl\": 1.0}, \"5\": {\"Cs\": 1.0}, \"6\": {\"Pb\": 1.0}, \"7\": {\"Cl\": 1.0}, \"8\": {\"Cl\": 1.0}, \"9\": {\"Cl\": 1.0}, \"10\": {\"Cs\": 1.0}, \"11\": {\"Pb\": 1.0}, \"12\": {\"Cl\": 1.0}, \"13\": {\"Cl\": 1.0}, \"14\": {\"I\": 1.0}, \"15\": {\"Cs\": 1.0}, \"16\": {\"Pb\": 1.0}, \"17\": {\"I\": 1.0}, \"18\": {\"Cl\": 1.0}, \"19\": {\"I\": 1.0}, \"20\": {\"Cs\": 1.0}, \"21\": {\"Pb\": 1.0}, \"22\": {\"Cl\": 1.0}, \"23\": {\"Br\": 1.0}, \"24\": {\"Cl\": 1.0}, \"25\": {\"Cs\": 1.0}, \"26\": {\"Pb\": 1.0}, \"27\": {\"Cl\": 1.0}, \"28\": {\"I\": 1.0}, \"29\": {\"Cl\": 1.0}, \"30\": {\"Cs\": 1.0}, \"31\": {\"Pb\": 1.0}, \"32\": {\"I\": 1.0}, \"33\": {\"Cl\": 1.0}, \"34\": {\"Cl\": 1.0}, \"35\": {\"Cs\": 1.0}, \"36\": {\"Pb\": 1.0}, \"37\": {\"Br\": 1.0}, \"38\": {\"Cl\": 1.0}, \"39\": {\"Cl\": 1.0}}" candidate_id=40146d989fef1528 formula=FAPbBr0.12Cl0.62I0.253 config_index=0 rattle_stdev=0.0 method=PBE fidelity=phase2_force energy=-131.6180370461221 stress="0.0003062815904163957 -6.430762250174075e-05 6.0863939751436624e-06 -6.430762250174075e-05 0.0009592916832620129 7.436310848936665e-05 6.0863939751436624e-06 7.436310848936665e-05 -0.0005161944962640823" pbc="T T T"
Cs      11.75747154       0.05561726       0.05678209        0      -0.01287623      -0.04135840       0.00977487
Pb       2.97259535       3.03329881       3.17313069        1      -0.00943837       0.02303529       0.03311229
I        2.91866230       2.94057557       0.01088814        2      -0.02595563      -0.01843309      -0.02648830
Br       3.06732117       0.00334502       2.99298672        3      -0.00601409       0.08355732       0.00900456
Cl       0.00755228       3.09862337       3.20504710        4      -0.03658348      -0.01003906       0.00559076
Cs       0.06406646       0.16821341       5.96759997        5      -0.00027793       0.00047321      -0.00716030
Pb       3.02208721       2.99845606       8.88571816        6       0.01330845       0.01342376      -0.02368537
Cl       2.93906167       3.00092687       6.02498899        7      -0.01399276      -0.01454294       0.02066174
Cl       3.14990202       0.00779065       9.04632632        8       0.00427156       0.05734988      -0.00626084
Cl      11.79446180       3.12263672       8.85899912        9       0.00711897       0.00184058       0.00593588
Cs      11.69382796       5.68596118      12.01699589       10      -0.01805904       0.03057518       0.00424688
Pb       3.13102961       8.72242302       2.83424439       11      -0.01021255      -0.00112106       0.01342304
Cl       3.26736375       8.79382032      12.03296748       12       0.03250669       0.02481329      -0.03167046
Cl       3.13043753       5.87291854       2.96736348       13       0.00271220      -0.08128741      -0.00356199
I       11.79701931       8.79010386       2.94105019       14       0.02058343      -0.01334626      -0.01525803
Cs      11.77366172       5.62596333       6.04778095       15      -0.01400483       0.01741814       0.00120763
Pb       3.14071315       8.82872103       9.17484206       16       0.02264610       0.02426081      -0.01032610
I        3.19325385       8.82164076       6.00700955       17      -0.00707679       0.00131952       0.03418201
Cl       3.12184641       5.87037860       9.06134690       18      -0.00199105      -0.09038163      -0.00296504
I       -0.00154456       8.67345164       9.10237384       19       0.08569865      -0.00663946       0.02308324
Cs       5.81160539      11.77469476       0.04434070       20      -0.02213878      -0.08572207      -0.00061078
Pb       8.81893548       3.04813872       3.11256341       21       0.00937397       0.02806167       0.07085805
Cl       8.87951383       3.16862313      11.96159103       22       0.02697054       0.00884802      -0.02105629
Br       8.74069605       0.00598328       3.04182228       23       0.00285629       0.17443914       0.00319531
Cl       5.90392763       3.04934462       3.22191095       24       0.04068733      -0.02847467       0.02087350
Cs       5.82386732       0.20429301       5.96473891       25      -0.00010273      -0.00728562      -0.00432560
Pb       8.86873045       3.11136104       9.06658793       26       0.02385990       0.05235657       0.01072023
Cl       8.87578339       3.13231688       5.95841649       27       0.01079412      -0.01310428      -0.07669780
I        8.71251020       0.00780722       8.91895625       28       0.01222717       0.13573626       0.00600479
Cl       5.90699615       3.08516832       8.84617305       29      -0.04417394      -0.00999715      -0.00878740
Cs       5.90025352       5.76674153      11.98701244       30      -0.01722817       0.06836728      -0.01416875
Pb       8.65385870       8.73698913       3.11946326       31       0.01999882       0.01154052      -0.00215067
I        8.65233363       8.72155010       0.00527037       32       0.03036131       0.00161179       0.03658988
Cl       8.66491703       5.89504326       3.10597668       33       0.00462008      -0.17198139       0.00288775
Cl       5.89435738       8.76217804       2.91471878       34      -0.01367551       0.01833724      -0.01920626
Cs       5.95104347       5.65239188       6.04282233       35       0.01312357       0.04387862       0.00884991
Pb       8.66444204       8.66151078       8.93056246       36       0.02300222      -0.02259315       0.01958747
Br       8.68381408       8.74182135       6.03073881       37      -0.03181302      -0.01703762      -0.06513401
Cl       8.64802126       5.88742111       8.91179334       38      -0.00907456      -0.16288110      -0.02386634
Cl       5.91350021       8.64050864       9.12404661       39      -0.11361927      -0.02652777       0.02208188
40
Lattice="11.808943933061066 0.0 0.0 -0.003589236301007864 11.78186967363698 0.0 -0.0008453930682538439 -0.006151580857219527 12.035897406511872" Properties=species:S:1:pos:R:3:spacegroup_kinds:I:1:forces:R:3 spacegroup="P 1" unit_cell=conventional occupancy="_JSON {\"0\": {\"Cs\": 1.0}, \"1\": {\"Pb\": 1.0}, \"2\": {\"I\": 1.0}, \"3\": {\"Br\": 1.0}, \"4\": {\"Cl\": 1.0}, \"5\": {\"Cs\": 1.0}, \"6\": {\"Pb\": 1.0}, \"7\": {\"Cl\": 1.0}, \"8\": {\"Cl\": 1.0}, \"9\": {\"Cl\": 1.0}, \"10\": {\"Cs\": 1.0}, \"11\": {\"Pb\": 1.0}, \"12\": {\"Cl\": 1.0}, \"13\": {\"Cl\": 1.0}, \"14\": {\"I\": 1.0}, \"15\": {\"Cs\": 1.0}, \"16\": {\"Pb\": 1.0}, \"17\": {\"I\": 1.0}, \"18\": {\"Cl\": 1.0}, \"19\": {\"I\": 1.0}, \"20\": {\"Cs\": 1.0}, \"21\": {\"Pb\": 1.0}, \"22\": {\"Cl\": 1.0}, \"23\": {\"Br\": 1.0}, \"24\": {\"Cl\": 1.0}, \"25\": {\"Cs\": 1.0}, \"26\": {\"Pb\": 1.0}, \"27\": {\"Cl\": 1.0}, \"28\": {\"I\": 1.0}, \"29\": {\"Cl\": 1.0}, \"30\": {\"Cs\": 1.0}, \"31\": {\"Pb\": 1.0}, \"32\": {\"I\": 1.0}, \"33\": {\"Cl\": 1.0}, \"34\": {\"Cl\": 1.0}, \"35\": {\"Cs\": 1.0}, \"36\": {\"Pb\": 1.0}, \"37\": {\"Br\": 1.0}, \"38\": {\"Cl\": 1.0}, \"39\": {\"Cl\": 1.0}}" candidate_id=40146d989fef1528 formula=FAPbBr0.12Cl0.62I0.253 config_index=1 rattle_stdev=0.08 method=PBE fidelity=phase2_force energy=-130.7944022179264 stress="-0.0017183989893348758 -3.2408946370922477e-05 -0.0001773275647568434 -3.2408946370922477e-05 -5.920604103346238e-05 -0.00014390085591768701 -0.0001773275647568434 -0.00014390085591768701 -0.0041216970799262415" pbc="T T T"
Cs      11.67055583      -0.01606795       0.03227814        0      -0.03887579       0.02658258       0.04595835
Pb       2.86540066       2.93677196       3.12179254        1       0.22556997       0.32114446       0.32380220
I        3.02329795       3.08821241       0.07721733        2      -0.15867013      -0.15132328      -0.12919811
Br       3.06545726      -0.01334009       2.91965714        3      -0.02061939       0.09941777       0.01034671
Cl      -0.07842713       3.09173189       3.29911418        4       0.34176410      -0.02248160       0.01952924
Cs      -0.06674088       0.26646893       6.05371087        5       0.05360706       0.02925441      -0.05751679
Pb       3.05366904       2.96744000       8.93279030        6       0.08975278      -0.09026380      -0.13146304
Cl       2.82439777       2.97504090       6.12522777        7       0.03242723      -0.01093975      -0.15163121
Cl       3.09144261       0.12206946       9.12189863        8       0.00969411      -0.18934352      -0.05005881
Cl      11.77334158       3.10957966       8.78187054        9       0.04769313      -0.01334840       0.03311049
Cs      11.66641617       5.68987351      11.97702533       10      -0.04630230      -0.00935009       0.05152575
Pb       2.95407725       8.74720997       2.70707229       11       1.12901999      -0.28385813      -0.08448837
Cl       3.32572012       8.78518822      11.98095376       12      -0.05375394       0.03345489      -0.07113701
Cl       2.99499301       5.84344061       2.84013375       13      -0.03610924      -0.05195561       0.05666441
I       11.91545977       8.82805908       3.01415929       14      -1.11657283       0.01470765       0.08151422
Cs      11.85049934       5.63272674       6.18515942       15       0.01929870       0.00636327      -0.05431822
Pb       3.20886457       8.76833020       8.99183171       16       0.20051474       0.03377058       0.47107519
I        3.20199295       8.78562811       5.97397176       17      -0.01695094       0.01151349      -0.20555775
Cl       3.14736511       5.82708997       9.13724022       18      -0.03054489       0.25270801      -0.07344937
I        0.01057024       8.67960384       9.09762181       19       0.52433170      -0.00718715       0.05411111
Cs       5.80599429      11.72940283       0.06922113       20      -0.00377460      -0.04938817       0.02268704
Pb       8.87687219       3.08945473       3.19464587       21      -0.33760239      -0.21550498      -0.60279394
Cl       8.92112604       3.09903605      12.08163624       22       0.10535670       0.04231467      -0.32629443
Br       8.83401383       0.04533644       2.98324130       23       0.01563979       0.02053695       0.09920620
Cl       5.95835212       3.09006437       3.15490806       24      -0.26269179      -0.05670381       0.08331975
Cs       5.87567890       0.20529617       6.08950604       25      -0.05737091       0.00727194      -0.07946607
Pb       8.95149807       3.13837645       8.96237910       26      -0.18152037       0.37760968       0.32164583
Cl       8.78629984       3.23707809       5.91695913       27       0.05357886      -0.05379355       0.50119528
I        8.68106025       0.09124470       8.92493347       28       0.02222625      -0.05971919       0.00730418
Cl       5.91415111       3.08948091       8.87964881       29      -0.07351098      -0.03329214      -0.05245155
Cs       5.80203511       5.67957820      12.01238239       30       0.11682559       0.14059812       0.02694314
Pb       8.59142626       8.66849865       3.01387355       31      -0.01964925       0.24567376       0.50022413
I        8.68863616       8.80169209       0.11836914       32       0.04829041      -0.00148504      -0.70172590
Cl       8.64970240       5.89745210       2.95610334       33       0.03554236      -0.05817154       0.01180492
Cl       5.88501522       8.75197882       2.98689352       34       0.07291549       0.01716670       0.02004774
Cs       5.84589369       5.64442782       6.05406632       35       0.02779823       0.01040783      -0.01666754
Pb       8.87474651       8.80197309       8.71971064       36      -0.65320064      -0.42647786       1.84203633
Br       8.58088252       8.72808357       6.17477511       37      -0.13295955      -0.01261265      -1.81707352
Cl       8.69671691       5.88994315       8.79448037       38       0.05413048       0.09110327       0.00345305
Cl       5.93825547       8.73188607       9.08317907       39       0.01309409       0.01731731       0.01295289
40
Lattice="11.808943933061066 0.0 0.0 -0.003589236301007864 11.78186967363698 0.0 -0.0008453930682538439 -0.006151580857219527 12.035897406511872" Properties=species:S:1:pos:R:3:spacegroup_kinds:I:1:forces:R:3 spacegroup="P 1" unit_cell=conventional occupancy="_JSON {\"0\": {\"Cs\": 1.0}, \"1\": {\"Pb\": 1.0}, \"2\": {\"I\": 1.0}, \"3\": {\"Br\": 1.0}, \"4\": {\"Cl\": 1.0}, \"5\": {\"Cs\": 1.0}, \"6\": {\"Pb\": 1.0}, \"7\": {\"Cl\": 1.0}, \"8\": {\"Cl\": 1.0}, \"9\": {\"Cl\": 1.0}, \"10\": {\"Cs\": 1.0}, \"11\": {\"Pb\": 1.0}, \"12\": {\"Cl\": 1.0}, \"13\": {\"Cl\": 1.0}, \"14\": {\"I\": 1.0}, \"15\": {\"Cs\": 1.0}, \"16\": {\"Pb\": 1.0}, \"17\": {\"I\": 1.0}, \"18\": {\"Cl\": 1.0}, \"19\": {\"I\": 1.0}, \"20\": {\"Cs\": 1.0}, \"21\": {\"Pb\": 1.0}, \"22\": {\"Cl\": 1.0}, \"23\": {\"Br\": 1.0}, \"24\": {\"Cl\": 1.0}, \"25\": {\"Cs\": 1.0}, \"26\": {\"Pb\": 1.0}, \"27\": {\"Cl\": 1.0}, \"28\": {\"I\": 1.0}, \"29\": {\"Cl\": 1.0}, \"30\": {\"Cs\": 1.0}, \"31\": {\"Pb\": 1.0}, \"32\": {\"I\": 1.0}, \"33\": {\"Cl\": 1.0}, \"34\": {\"Cl\": 1.0}, \"35\": {\"Cs\": 1.0}, \"36\": {\"Pb\": 1.0}, \"37\": {\"Br\": 1.0}, \"38\": {\"Cl\": 1.0}, \"39\": {\"Cl\": 1.0}}" candidate_id=40146d989fef1528 formula=FAPbBr0.12Cl0.62I0.253 config_index=2 rattle_stdev=0.08 method=PBE fidelity=phase2_force energy=-130.94880258099178 stress="-0.0009623577209142463 -0.00010988055422913309 5.114754795968272e-06 -0.00010988055422913309 -0.0006980521199333093 0.00016216700984039557 5.114754795968272e-06 0.00016216700984039557 -0.0018942894729185424" pbc="T T T"
Cs      11.74845450      -0.03050786       0.19958424        0       0.03375308      -0.04777405      -0.07783904
Pb       2.85603669       3.00719315       3.07233897        1       0.53223044       0.37272986       0.35454557
I        2.94873162       2.87032379      -0.01710992        2      -0.08728263       0.01871622      -0.13789161
Br       3.09105399       0.09941798       2.86746711        3      -0.04316518      -0.57835208       0.04110679
Cl       0.15587458       3.13814031       3.19459019        4      -0.67125794      -0.03715915      -0.04463494
Cs       0.03181680       0.09032042       5.93020263        5       0.00097014      -0.00849671       0.07642388
Pb       2.96465349       3.09616753       8.82354216        6       0.31255611      -0.00192847      -0.04732568
Cl       2.89197962       2.99631736       6.03135538        7      -0.01590195      -0.07592956      -0.07877607
Cl       3.05524594      -0.11610874       9.11930682        8       0.01284881       0.27352524      -0.00210535
Cl      11.82747546       3.06697520       8.67589737        9      -0.08646570       0.05132496       0.10046281
Cs      11.63084863       5.60367985      12.02446054       10       0.03390594       0.06564816       0.00863351
Pb       3.08869408       8.78484261       2.81817922       11       0.27335163      -0.24242475       0.18456992
Cl       3.22891507       8.71099935      11.99274873       12       0.04218912       0.00847054       0.37070405
Cl       3.19362875       5.79891873       3.14416631       13      -0.07335256       0.42322649      -0.11402609
I       11.68500041       8.77097607       2.95843744       14       0.83419247      -0.01276156       0.02609569
Cs      11.74547089       5.63283337       6.05631311       15      -0.01773969       0.04415804      -0.01597810
Pb       3.12495066       8.93647574       9.20245598       16       0.04494168      -0.19526168      -0.13656479
I        3.23786540       8.77401794       6.06563613       17      -0.07046847       0.06015011      -0.37059085
Cl       3.22834662       5.81197597       9.02248644       18      -0.06964077      -0.12109772       0.00612240
I        0.08460857       8.46582305       9.11572809       19      -0.11699263      -0.01030016       0.03227268
Cs       5.89472216      11.63000885       0.10503197       20      -0.07364920      -0.01482219      -0.02381391
Pb       8.77892646       2.86059527       3.10393000       21      -0.40066498       0.61995627       0.30312014
Cl       8.75929081       3.20772543      11.91733675       22       0.12584156       0.01041958       0.13444042
Br       8.82529666      -0.06356215       3.03581499       23       0.01221991       0.30116245      -0.00869958
Cl       5.89535523       3.21725039       3.19466792       24       0.43308831      -0.28482721      -0.05941010
Cs       5.78163491       0.10072366       5.98186683       25       0.04254392       0.01706333       0.02678857
Pb       8.95883201       3.14348390       9.12783475       26      -0.41899038      -0.07667223      -0.30988513
Cl       8.76753319       3.17822556       5.94080552       27       0.11784549      -0.18062515      -0.23046087
I        8.76412531      -0.07257032       9.07093534       28       0.06511684       0.83416153       0.02639890
Cl       5.92434501       3.12516595       8.79604577       29       0.04784977      -0.08925096       0.04054459
Cs       5.82002278       5.70423671      12.00335466       30      -0.01698881       0.02609699       0.00023019
Pb       8.69674606       8.65098933       2.94203488       31      -0.57649377      -0.26237162       0.92944317
I        8.70408805       8.69576324      -0.00853476       32       0.03885621      -0.05255628      -0.01753841
Cl       8.48184329       5.88607975       3.18240178       33       0.14159384      -0.24704205      -0.10938201
Cl       5.93073643       8.92713224       2.91971561       34      -0.48143736       0.11840820      -0.08867144
Cs       5.95127086       5.61610757       6.07270093       35       0.00823489       0.04571408      -0.02933392
Pb       8.59939276       8.65338618       8.96621952       36       0.53821901       0.06573640      -0.49003015
Br       8.58180379       8.75044789       6.09891776       37       0.01502811       0.07752395      -0.40233009
Cl       8.63547309       5.98252665       8.79401227       38       0.07737776      -0.89822521       0.03181764
Cl       5.98278348       8.56903748       9.08012896       39      -0.56803629       0.00583299       0.10000127
40
Lattice="11.808943933061066 0.0 0.0 -0.003589236301007864 11.78186967363698 0.0 -0.0008453930682538439 -0.006151580857219527 12.035897406511872" Properties=species:S:1:pos:R:3:spacegroup_kinds:I:1:forces:R:3 spacegroup="P 1" unit_cell=conventional occupancy="_JSON {\"0\": {\"Cs\": 1.0}, \"1\": {\"Pb\": 1.0}, \"2\": {\"I\": 1.0}, \"3\": {\"Br\": 1.0}, \"4\": {\"Cl\": 1.0}, \"5\": {\"Cs\": 1.0}, \"6\": {\"Pb\": 1.0}, \"7\": {\"Cl\": 1.0}, \"8\": {\"Cl\": 1.0}, \"9\": {\"Cl\": 1.0}, \"10\": {\"Cs\": 1.0}, \"11\": {\"Pb\": 1.0}, \"12\": {\"Cl\": 1.0}, \"13\": {\"Cl\": 1.0}, \"14\": {\"I\": 1.0}, \"15\": {\"Cs\": 1.0}, \"16\": {\"Pb\": 1.0}, \"17\": {\"I\": 1.0}, \"18\": {\"Cl\": 1.0}, \"19\": {\"I\": 1.0}, \"20\": {\"Cs\": 1.0}, \"21\": {\"Pb\": 1.0}, \"22\": {\"Cl\": 1.0}, \"23\": {\"Br\": 1.0}, \"24\": {\"Cl\": 1.0}, \"25\": {\"Cs\": 1.0}, \"26\": {\"Pb\": 1.0}, \"27\": {\"Cl\": 1.0}, \"28\": {\"I\": 1.0}, \"29\": {\"Cl\": 1.0}, \"30\": {\"Cs\": 1.0}, \"31\": {\"Pb\": 1.0}, \"32\": {\"I\": 1.0}, \"33\": {\"Cl\": 1.0}, \"34\": {\"Cl\": 1.0}, \"35\": {\"Cs\": 1.0}, \"36\": {\"Pb\": 1.0}, \"37\": {\"Br\": 1.0}, \"38\": {\"Cl\": 1.0}, \"39\": {\"Cl\": 1.0}}" candidate_id=40146d989fef1528 formula=FAPbBr0.12Cl0.62I0.253 config_index=3 rattle_stdev=0.08 method=PBE fidelity=phase2_force energy=-130.80800480348958 stress="-0.001852437519810601 5.1162758975008915e-05 0.00010449769038252536 5.1162758975008915e-05 -0.0005731805049828949 0.00020445198338130637 0.00010449769038252536 0.00020445198338130637 -0.0012469858666048267" pbc="T T T"
Cs      11.65178806       0.21695749       0.06058724        0      -0.00976511       0.05910703       0.04152392
Pb       2.95358166       3.04002862       3.24989407        1      -0.22499286      -0.28732169      -0.80277759
I        2.86413442       2.98290121      -0.05110532        2       0.03131210      -0.03105825      -0.11721783
Br       3.17971767      -0.01462942       2.88851587        3       0.00414173      -0.11032004       0.04047715
Cl      -0.04673054       2.96894871       3.10264922        4       0.11576760       0.01935308       0.06456630
Cs       0.04612272       0.10016852       5.90714076        5      -0.05784156       0.00930858      -0.04913243
Pb       3.04314087       2.79404062       8.75209549        6       0.14525994       0.40609091       0.65108126
Cl       2.88212286       2.80518482       5.92285421        7      -0.04327114      -0.05473770       0.42733100
Cl       3.20299183      -0.09451606       8.98309355        8       0.01201606       0.54383160      -0.04010083
Cl      11.67427214       3.02747352       9.04033433        9       0.33910202       0.01652599      -0.07548098
Cs      11.65568573       5.75769431      11.87260083       10      -0.01119731      -0.12072889       0.01652402
Pb       3.09173244       8.62646329       2.76982677       11       0.11309280       0.35015327       0.12302861
Cl       3.37982924       8.77539506      11.97587176       12      -0.01202235      -0.03430434       0.49219921
Cl       3.11743053       5.81860815       3.08849290       13      -0.01054705       0.17488972       0.01372844
I       11.65721348       8.84278623       2.91352089       14       1.37635365      -0.05560948      -0.06527794
Cs      11.71296587       5.63972543       5.99519767       15      -0.06230276      -0.00378174      -0.00934064
Pb       3.18492879       8.85932969       9.14513883       16      -0.27073043      -0.48287910       0.13031028
I        3.31950537       8.83898455       6.10393688       17      -0.03128574       0.01318367      -0.70317241
Cl       3.18036486       5.92429829       9.01492241       18      -0.03457832      -0.30919529      -0.06059044
I       -0.00949173       8.54666245       9.09639653       19      -0.01823118       0.03312446      -0.03609512
Cs       5.90751010      11.75346094      -0.00780327       20      -0.07764599      -0.03848580       0.00231430
Pb       8.66721256       2.92491481       3.08113755       21       0.42386823       0.42663210      -0.04450690
Cl       8.84635536       3.22550856      12.01299307       22      -0.02130743      -0.08348841      -0.02554278
Br       8.93248296      -0.00759931       2.96075158       23      -0.10335257      -0.08774323       0.01485729
Cl       5.86844314       3.11702280       3.26145968       24      -0.10787266      -0.10100564       0.06555447
Cs       5.84615838       0.24606029       5.99014825       25       0.01684237      -0.05206027      -0.02264512
Pb       8.88690135       3.08013380       9.00914652       26       0.00989479       0.07179759       0.18852005
Cl       8.99931228       3.06328127       5.92971028       27      -0.06121488      -0.04261390       0.03557802
I        8.71921434       0.14214498       8.82460928       28      -0.02467087      -1.18726621       0.03454364
Cl       5.87509797       3.05129717       8.89092000       29      -0.34293681      -0.10320684      -0.12278696
Cs       5.85407394       5.77244132      12.05638885       30      -0.00867186       0.00039837      -0.06901761
Pb       8.68705142       8.71889035       3.17991071       31       0.03054952      -0.25181326       0.35025015
I        8.67034402       8.68636986       0.05759671       32       0.06456891       0.01613220       0.15797604
Cl       8.59322717       5.78108736       3.24537541       33       0.06354728       0.12825222      -0.00294373
Cl       6.12790343       8.70828002       2.85303683       34      -1.46657362       0.02263715      -0.07873689
Cs       6.03548285       5.74404892       6.05247218       35       0.02580773       0.03314325       0.03906259
Pb       8.66544151       8.60554906       9.08066639       36       0.04960733       0.04670139      -0.38388015
Br       8.64776141       8.71732261       6.14375816       37      -0.02519497      -0.00110987      -0.16620184
Cl       8.59573398       5.70609578       8.96022150       38      -0.06298201       1.06919006      -0.04452686
Cl       5.87155477       8.65710783       9.21175877       39       0.26762027      -0.00030084       0.03411093
