Cs Sn I  Cs Sn I  Cs Sn I  Cs Ge I  Cs Ge I  Cs Sn I  Cs Ge I  Cs Sn I 
 1.0000000000000000
    12.7962285764204733    0.0000000000000000    0.0000000000000000
     0.0000000000000000   12.7962285764204733    0.0000000000000000
     0.0000000000000000    0.0000000000000000   12.7962285764204733
 Cs  Sn  I   Cs  Sn  I   Cs  Sn  I   Cs  Ge  I   Cs  Ge  I   Cs  Sn  I   Cs  Ge  I   Cs  Sn  I  
   1   1   3   1   1   3   1   1   3   1   1   3   1   1   3   1   1   3   1   1   3   1   1   3
Cartesian
  0.0000000000000000  0.0000000000000000  0.0000000000000000
  3.1990571441051183  3.1990571441051183  3.1990571441051183
  3.1990571441051183  3.1990571441051183  0.0000000000000000
  3.1990571441051183  0.0000000000000000  3.1990571441051183
  0.0000000000000000  3.1990571441051183  3.1990571441051183
  0.0000000000000000  0.0000000000000000  6.3981142882102358
  3.1990571441051183  3.1990571441051183  9.5971714323153545
  3.1990571441051183  3.1990571441051183  6.3981142882102358
  3.1990571441051183  0.0000000000000000  9.5971714323153545
  0.0000000000000000  3.1990571441051183  9.5971714323153545
  0.0000000000000000  6.3981142882102358  0.0000000000000000
  3.1990571441051183  9.5971714323153545  3.1990571441051183
  3.1990571441051183  9.5971714323153545  0.0000000000000000
  3.1990571441051183  6.3981142882102358  3.1990571441051183
  0.0000000000000000  9.5971714323153545  3.1990571441051183
  0.0000000000000000  6.3981142882102358  6.3981142882102358
  3.1990571441051183  9.5971714323153545  9.5971714323153545
  3.1990571441051183  9.5971714323153545  6.3981142882102358
  3.1990571441051183  6.3981142882102358  9.5971714323153545
  0.0000000000000000  9.5971714323153545  9.5971714323153545
  6.3981142882102358  0.0000000000000000  0.0000000000000000
  9.5971714323153545  3.1990571441051183  3.1990571441051183
  9.5971714323153545  3.1990571441051183  0.0000000000000000
  9.5971714323153545  0.0000000000000000  3.1990571441051183
  6.3981142882102358  3.1990571441051183  3.1990571441051183
  6.3981142882102358  0.0000000000000000  6.3981142882102358
  9.5971714323153545  3.1990571441051183  9.5971714323153545
  9.5971714323153545  3.1990571441051183  6.3981142882102358
  9.5971714323153545  0.0000000000000000  9.5971714323153545
  6.3981142882102358  3.1990571441051183  9.5971714323153545
  6.3981142882102358  6.3981142882102358  0.0000000000000000
  9.5971714323153545  9.5971714323153545  3.1990571441051183
  9.5971714323153545  9.5971714323153545  0.0000000000000000
  9.5971714323153545  6.3981142882102358  3.1990571441051183
  6.3981142882102358  9.5971714323153545  3.1990571441051183
  6.3981142882102358  6.3981142882102358  6.3981142882102358
  9.5971714323153545  9.5971714323153545  9.5971714323153545
  9.5971714323153545  9.5971714323153545  6.3981142882102358
  9.5971714323153545  6.3981142882102358  9.5971714323153545
  6.3981142882102358  9.5971714323153545  9.5971714323153545
