40
Lattice="12.40628279205261 0.0 0.0 0.0007546205602242974 12.333026186407468 0.0 -4.489379273035267e-06 -0.008018579763973301 12.481848376276416" Properties=species:S:1:pos:R:3:spacegroup_kinds:I:1:forces:R:3 spacegroup="P 1" unit_cell=conventional occupancy="_JSON {\"0\": {\"Cs\": 1.0}, \"1\": {\"Pb\": 1.0}, \"2\": {\"I\": 1.0}, \"3\": {\"I\": 1.0}, \"4\": {\"I\": 1.0}, \"5\": {\"Cs\": 1.0}, \"6\": {\"Pb\": 1.0}, \"7\": {\"Br\": 1.0}, \"8\": {\"Br\": 1.0}, \"9\": {\"I\": 1.0}, \"10\": {\"Cs\": 1.0}, \"11\": {\"Pb\": 1.0}, \"12\": {\"Br\": 1.0}, \"13\": {\"Br\": 1.0}, \"14\": {\"I\": 1.0}, \"15\": {\"Cs\": 1.0}, \"16\": {\"Pb\": 1.0}, \"17\": {\"I\": 1.0}, \"18\": {\"Br\": 1.0}, \"19\": {\"I\": 1.0}, \"20\": {\"Cs\": 1.0}, \"21\": {\"Pb\": 1.0}, \"22\": {\"I\": 1.0}, \"23\": {\"I\": 1.0}, \"24\": {\"Br\": 1.0}, \"25\": {\"Cs\": 1.0}, \"26\": {\"Pb\": 1.0}, \"27\": {\"Br\": 1.0}, \"28\": {\"I\": 1.0}, \"29\": {\"Br\": 1.0}, \"30\": {\"Cs\": 1.0}, \"31\": {\"Pb\": 1.0}, \"32\": {\"I\": 1.0}, \"33\": {\"Br\": 1.0}, \"34\": {\"Br\": 1.0}, \"35\": {\"Cs\": 1.0}, \"36\": {\"Pb\": 1.0}, \"37\": {\"I\": 1.0}, \"38\": {\"Br\": 1.0}, \"39\": {\"Br\": 1.0}}" candidate_id=14ecedb062f15667 formula=FAPbBr0.5I0.53 config_index=0 rattle_stdev=0.0 method=PBE fidelity=phase2_force energy=-120.39069179836724 stress="0.0003986732763907696 -1.1614023124417641e-05 -4.507952267508363e-06 -1.1614023124417641e-05 0.0008156289191016809 -3.062479491929202e-05 -4.507952267508363e-06 -3.062479491929202e-05 -0.00027106572519857575" pbc="T T T"
Cs       0.07545852      12.30653055      12.44543282        0       0.02016601      -0.01226460      -0.00737219
Pb       3.22752531       3.19819888       3.23114762        1      -0.01160248      -0.01874066      -0.02017949
I        3.24183469       3.14869079      12.47435073        2      -0.02010452      -0.01045000      -0.01237294
I        3.23791881       0.00003680       3.11152707        3      -0.01301859       0.00089757      -0.00140778
I        0.00532357       3.21903292       3.27150270        4       0.00043763      -0.01239528      -0.00343393
Cs       0.04516249       0.05179449       6.27396259        5       0.00513874       0.01399756       0.00312280
Pb       3.23045903       3.09821644       9.25010223        6      -0.02409925       0.00134163       0.03239554
Br       3.20102712       3.11163409       6.23911207        7       0.03237504       0.00589654       0.02106194
Br       3.15963688      -0.00359877       9.36894693        8       0.02905048       0.00211161       0.00256691
I        0.00773145       3.13361660       9.20764882        9       0.01406814      -0.00830308       0.00580500
Cs       0.04027152       6.16569528      12.46865361       10      -0.00190308       0.00193698       0.00148140
Pb       3.23409750       9.13315446       3.01674173       11      -0.00327775       0.01850710       0.02498521
Br       3.18715055       9.22605255       0.00195509       12       0.02896727      -0.00973537      -0.02228444
Br       3.20472830       6.16261505       3.11993899       13       0.02648293       0.00204423      -0.00619114
I        0.00915496       9.11743207       3.03241739       14       0.00217460       0.00919429      -0.00153261
Cs       0.03892295       6.13018227       6.25439661       15      -0.00972920       0.00307343      -0.00071157
Pb       3.23749334       9.22688328       9.46460115       16      -0.01769154       0.00126987      -0.03469047
I        3.27537228       9.16240894       6.24831664       17      -0.02561231       0.01183440       0.01199064
Br       3.20463041       6.15812263       9.36193881       18       0.02189489      -0.00144323       0.00499876
I        0.01156051       9.19941063       9.45617436       19       0.01439445       0.00715784       0.00016994
Cs       6.14993942      -0.00247854      12.44738477       20      -0.00371177      -0.01658922      -0.00664627
Pb       9.18312487       3.20988353       3.23539649       21       0.00874002      -0.00546355      -0.00789473
I        9.16461851       3.24301924      12.47898759       22       0.01332345      -0.01898584       0.00214560
I        9.17184182       0.00364187       3.19870821       23       0.00735946       0.00404877       0.00015213
Br       6.19861984       3.18802062       3.22097009       24       0.00611981       0.03313760       0.04807052
Cs       6.15967679       0.03313751       6.27438805       25      -0.00166733       0.01483386       0.00324643
Pb       9.18861812       3.20094282       9.24456676       26       0.01647166      -0.01069820       0.01075097
Br       9.21552037       3.16946413       6.24474883       27      -0.03517715       0.02953622      -0.00517832
I        9.17405588      -0.00024084       9.28535368       28       0.00169376       0.00270489       0.00215022
Br       6.20137353       3.13495567       9.25171129       29      -0.01790933       0.00907232      -0.04590767
Cs       6.15414166       6.16339470      12.45601922       30      -0.00736884       0.01661624       0.00496828
Pb       9.18843440       9.13488499       3.12277429       31       0.00891460       0.01189275      -0.00306632
I        9.12542561       9.08460001      12.47999554       32      -0.00735901      -0.00072956       0.00526574
Br       9.21699950       6.16364646       3.16772066       33      -0.02681528      -0.00985325       0.01757169
Br       6.19995715       9.15289864       3.07306775       34      -0.00689496      -0.03280336      -0.03207761
Cs       6.16610203       6.11234192       6.26711023       35       0.00734405      -0.02516636      -0.00597266
Pb       9.19383594       9.13500511       9.35986489       36       0.01856696       0.01814006       0.00264932
I        9.14309377       9.04671204       6.24388192       37       0.00205954      -0.01041474      -0.00381981
Br       9.23990045       6.15925341       9.31387833       38      -0.02293006      -0.00798253      -0.01679463
Br       6.20251013       9.19782459       9.41711612       39      -0.03017414      -0.00672381       0.03187251
40
Lattice="12.40628279205261 0.0 0.0 0.0007546205602242974 12.333026186407468 0.0 -4.489379273035267e-06 -0.008018579763973301 12.481848376276416" Properties=species:S:1:pos:R:3:spacegroup_kinds:I:1:forces:R:3 spacegroup="P 1" unit_cell=conventional occupancy="_JSON {\"0\": {\"Cs\": 1.0}, \"1\": {\"Pb\": 1.0}, \"2\": {\"I\": 1.0}, \"3\": {\"I\": 1.0}, \"4\": {\"I\": 1.0}, \"5\": {\"Cs\": 1.0}, \"6\": {\"Pb\": 1.0}, \"7\": {\"Br\": 1.0}, \"8\": {\"Br\": 1.0}, \"9\": {\"I\": 1.0}, \"10\": {\"Cs\": 1.0}, \"11\": {\"Pb\": 1.0}, \"12\": {\"Br\": 1.0}, \"13\": {\"Br\": 1.0}, \"14\": {\"I\": 1.0}, \"15\": {\"Cs\": 1.0}, \"16\": {\"Pb\": 1.0}, \"17\": {\"I\": 1.0}, \"18\": {\"Br\": 1.0}, \"19\": {\"I\": 1.0}, \"20\": {\"Cs\": 1.0}, \"21\": {\"Pb\": 1.0}, \"22\": {\"I\": 1.0}, \"23\": {\"I\": 1.0}, \"24\": {\"Br\": 1.0}, \"25\": {\"Cs\": 1.0}, \"26\": {\"Pb\": 1.0}, \"27\": {\"Br\": 1.0}, \"28\": {\"I\": 1.0}, \"29\": {\"Br\": 1.0}, \"30\": {\"Cs\": 1.0}, \"31\": {\"Pb\": 1.0}, \"32\": {\"I\": 1.0}, \"33\": {\"Br\": 1.0}, \"34\": {\"Br\": 1.0}, \"35\": {\"Cs\": 1.0}, \"36\": {\"Pb\": 1.0}, \"37\": {\"I\": 1.0}, \"38\": {\"Br\": 1.0}, \"39\": {\"Br\": 1.0}}" candidate_id=14ecedb062f15667 formula=FAPbBr0.5I0.53 config_index=1 rattle_stdev=0.08 method=PBE fidelity=phase2_force energy=-119.74026385324248 stress="-0.0010900876726501563 -2.486504444071493e-05 -0.0001237340333065703 -2.486504444071493e-05 -0.00013854070607907692 -0.00016993247660011593 -0.0001237340333065703 -0.00016993247660011593 -0.0029530223966829196" pbc="T T T"
Cs      -0.01145719      12.23484534      12.42092887        0      -0.01610157       0.02048509       0.02604340
Pb       3.12033061       3.10167203       3.17980948        1       0.27937132       0.28629904       0.16073280
I        3.34647034       3.29632762      12.54067992        2      -0.12918762      -0.11233387      -0.04720906
I        3.23605491      -0.01664832       3.03819749        3      -0.00449325       0.01581905       0.00402475
I       -0.08065583       3.21214144       3.36556978        4       0.46649785      -0.01056318       0.01467924
Cs      -0.08564485       0.15005001       6.36007349        5       0.04184629       0.03209575      -0.05540039
Pb       3.26204086       3.06720037       9.29717437        6       0.03173020      -0.05689978      -0.07252828
Br       3.08636321       3.08574812       6.33935085        7       0.06741292       0.01426032      -0.14084757
Br       3.10117747       0.11068003       9.44451924        8       0.02606108      -0.25723869      -0.01338011
I       -0.01338877       3.12055953       9.13052024        9       0.09904495       0.00094401       0.05436570
Cs       0.01285973       6.16960761      12.42868305       10      -0.01124456      -0.03283653       0.03504384
Pb       3.05714514       9.15794141       2.88956963       11       0.72203366      -0.25481780      -0.05938912
Br       3.24550692       9.21742045      -0.05005863       12      -0.03138538       0.00410359      -0.04249035
Br       3.06928378       6.13313712       2.99270925       13       0.01489649       0.02641971       0.04181985
I        0.12759543       9.15538729       3.10552649       14      -0.74821715       0.01548353       0.03229101
Cs       0.11576057       6.13694568       6.39177509       15       0.01897927      -0.02467604      -0.03180243
Pb       3.30564476       9.16649246       9.28159080       16       0.17312748       0.02491785       0.29263128
I        3.28411138       9.12639629       6.21527884       17      -0.03383781       0.01177508      -0.08503202
Br       3.23014911       6.11483400       9.43783213       18      -0.00754875       0.30898995      -0.05380479
I        0.02367531       9.20556282       9.45142233       19       0.30511188       0.01968451      -0.00565936
Cs       6.14432832      -0.04777047      12.47226520       20       0.01894315       0.00248622       0.01652816
Pb       9.24106157       3.25119953       3.31747894       21      -0.40004725      -0.23666507      -0.48608430
I        9.20623072       3.17343216      12.59903280       22       0.06186994      -0.00284819      -0.38101881
I        9.26515960       0.04299503       3.14012723       23       0.01420754      -0.14588106       0.08394595
Br       6.25304433       3.22874036       3.15396719       24      -0.34439579       0.01896809       0.09887458
Cs       6.21148838       0.03414066       6.39915518       25      -0.03581661       0.01695609      -0.04441357
Pb       9.27138574       3.22795824       9.14035793       26      -0.17320440       0.25178466       0.35468188
Br       9.12603683       3.27422534       6.20329147       27      -0.04066674      -0.00848818       0.40879300
I        9.14260594       0.08319664       9.29133090       28       0.03557616      -0.16551660      -0.01905111
Br       6.20852849       3.13926826       9.28518705       29      -0.02070328      -0.00566188      -0.06000631
Cs       6.05592325       6.07623138      12.48138917       30       0.07667537       0.05423767       0.04379830
Pb       9.12600196       9.06639451       3.01718457       31      -0.14550102       0.25801361       0.48937838
I        9.16172814       9.16474200      12.59309431       32       0.01691142       0.01738983      -0.65064598
Br       9.20178487       6.16605530       3.01784732       33       0.01531221       0.10321051       0.02696296
Br       6.19061499       9.14269941       3.14524249       34       0.16930065      -0.03321743      -0.00945894
Cs       6.06095225       6.10437786       6.27835421       35       0.01269709      -0.05641137      -0.02792177
Pb       9.40414042       9.27546742       9.14901307       36      -0.39830270      -0.21158270       1.31691235
I        9.04016222       9.03297427       6.38791821       37      -0.06427456      -0.03582016      -1.29625068
Br       9.28859610       6.16177546       9.19656536       38       0.02347619       0.13377456       0.04101458
Br       6.22726539       9.28920202       9.37624859       39      -0.08885111       0.01348164       0.03841825
40
Lattice="12.40628279205261 0.0 0.0 0.0007546205602242974 12.333026186407468 0.0 -4.489379273035267e-06 -0.008018579763973301 12.481848376276416" Properties=species:S:1:pos:R:3:spacegroup_kinds:I:1:forces:R:3 spacegroup="P 1" unit_cell=conventional occupancy="_JSON {\"0\": {\"Cs\": 1.0}, \"1\": {\"Pb\": 1.0}, \"2\": {\"I\": 1.0}, \"3\": {\"I\": 1.0}, \"4\": {\"I\": 1.0}, \"5\": {\"Cs\": 1.0}, \"6\": {\"Pb\": 1.0}, \"7\": {\"Br\": 1.0}, \"8\": {\"Br\": 1.0}, \"9\": {\"I\": 1.0}, \"10\": {\"Cs\": 1.0}, \"11\": {\"Pb\": 1.0}, \"12\": {\"Br\": 1.0}, \"13\": {\"Br\": 1.0}, \"14\": {\"I\": 1.0}, \"15\": {\"Cs\": 1.0}, \"16\": {\"Pb\": 1.0}, \"17\": {\"I\": 1.0}, \"18\": {\"Br\": 1.0}, \"19\": {\"I\": 1.0}, \"20\": {\"Cs\": 1.0}, \"21\": {\"Pb\": 1.0}, \"22\": {\"I\": 1.0}, \"23\": {\"I\": 1.0}, \"24\": {\"Br\": 1.0}, \"25\": {\"Cs\": 1.0}, \"26\": {\"Pb\": 1.0}, \"27\": {\"Br\": 1.0}, \"28\": {\"I\": 1.0}, \"29\": {\"Br\": 1.0}, \"30\": {\"Cs\": 1.0}, \"31\": {\"Pb\": 1.0}, \"32\": {\"I\": 1.0}, \"33\": {\"Br\": 1.0}, \"34\": {\"Br\": 1.0}, \"35\": {\"Cs\": 1.0}, \"36\": {\"Pb\": 1.0}, \"37\": {\"I\": 1.0}, \"38\": {\"Br\": 1.0}, \"39\": {\"Br\": 1.0}}" candidate_id=14ecedb062f15667 formula=FAPbBr0.5I0.53 config_index=2 rattle_stdev=0.08 method=PBE fidelity=phase2_force energy=-119.88177848358076 stress="-0.0005373720510986062 3.087376333052301e-05 6.475603731033485e-05 3.087376333052301e-05 -0.0003537425160747732 -4.764116005348187e-05 6.475603731033485e-05 -4.764116005348187e-05 -0.0011514016211860412" pbc="T T T"
Cs       0.06644148      12.22040543      12.58823497        0       0.03646312      -0.02374922      -0.07106530
Pb       3.11096664       3.17209322       3.13035591        1       0.64708302       0.26698798       0.12823112
I        3.27190401       3.07843900      12.44635267        2      -0.07198744       0.02665105      -0.03675181
I        3.26165163       0.09610975       2.98600745        3      -0.02828833      -0.62542643       0.02869576
I        0.15364587       3.25854986       3.26104578        4      -0.85982755      -0.00566220      -0.02423339
Cs       0.01291283      -0.02609849       6.23656524        5      -0.00276785      -0.00984085       0.04959714
Pb       3.17302531       3.19592790       9.18792623        6       0.36748905       0.03474141       0.02369316
Br       3.15394506       3.10702459       6.24547846        7       0.03546055      -0.06087838      -0.06329562
Br       3.06498079      -0.12749817       9.44192742        8       0.02736504       0.19065050       0.00063324
I        0.04074511       3.07795508       9.02454707        9      -0.15114377       0.00455074       0.04924621
Cs      -0.02270781       6.08341395      12.47611826       10       0.02407977       0.02130004      -0.02528131
Pb       3.19176197       9.19557405       3.00067656       11       0.23204544      -0.19484058       0.12582076
Br       3.14870186       9.14323158      -0.03826366       12       0.03425260      -0.02302304       0.34215579
Br       3.26791952       6.08861524       3.29674181       13      -0.01039586       0.49991766      -0.06733699
I       -0.10286393       9.09830428       3.04980464       14       0.54376165       0.01352157       0.01149524
Cs       0.01073212       6.13705232       6.26292877       15      -0.01285333       0.03087299       0.01156150
Pb       3.22173085       9.33463799       9.49221507       16      -0.05285809      -0.16153870      -0.14440171
I        3.31998384       9.11478612       6.30694322       17      -0.06637157       0.08068098      -0.30650105
Br       3.31113062       6.09972000       9.32307834       18      -0.02469505      -0.07466445       0.01695920
I        0.09771364       8.99178203       9.46952861       19      -0.08337848       0.01364215      -0.00002919
Cs       6.23305619      -0.14716445      12.50807605       20      -0.02768173       0.02037753      -0.02706668
Pb       9.14311585       3.02234007       3.22676307       21      -0.21447774       0.44820217       0.13222184
I        9.04439550       3.28212153      12.43473331       22       0.08831232      -0.00579946       0.14152584
I        9.25644243      -0.06590356       3.19270092       23       0.02865979       0.08110694      -0.00538924
Br       6.19004744       3.35592638       3.19372706       24       0.31807515      -0.10834112       0.01662126
Cs       6.11744438      -0.07043184       6.29151598       25       0.02974970       0.01067343       0.02653827
Pb       9.27871968       3.23306569       9.30581358       26      -0.35352960      -0.05246942      -0.21501291
Br       9.10727018       3.21537281       6.22713786       27       0.03293154      -0.05596000      -0.07473704
I        9.22567100      -0.08061839       9.43733277       28       0.03382744       0.47174199       0.00551905
Br       6.21872240       3.17495330       9.20158400       29       0.05897877      -0.03766786      -0.02969188
Cs       6.07391092       6.10088988      12.47236144       30      -0.02428856      -0.01525490       0.01152307
Pb       9.23132176       9.04888519       2.94534590       31      -0.37168027      -0.19484534       0.78691039
I        9.17718003       9.05881315      12.46619040       32      -0.00437537      -0.03700622      -0.03440705
Br       9.03392575       6.15468295       3.24414577       33       0.06314692      -0.13070474      -0.04492085
Br       6.23633620       9.31785284       3.07806458       34      -0.37574588       0.02612294      -0.08913271
Cs       6.16632942       6.07605762       6.29698883       35       0.02204612      -0.05058995      -0.01988085
Pb       9.12878666       9.12688051       9.39552195       36       0.26839323       0.10616349      -0.45591295
I        9.04108348       9.05533859       6.31206087       37       0.06316959       0.09387815      -0.31810619
Br       9.22735228       6.25435895       9.19609726       38       0.03823539      -0.60511866       0.04081835
Br       6.27179340       9.12635343       9.37319847       39      -0.25867173       0.02949066       0.10424368
40
Lattice="12.40628279205261 0.0 0.0 0.0007546205602242974 12.333026186407468 0.0 -4.489379273035267e-06 -0.008018579763973301 12.481848376276416" Properties=species:S:1:pos:R:3:spacegroup_kinds:I:1:forces:R:3 spacegroup="P 1" unit_cell=conventional occupancy="_JSON {\"0\": {\"Cs\": 1.0}, \"1\": {\"Pb\": 1.0}, \"2\": {\"I\": 1.0}, \"3\": {\"I\": 1.0}, \"4\": {\"I\": 1.0}, \"5\": {\"Cs\": 1.0}, \"6\": {\"Pb\": 1.0}, \"7\": {\"Br\": 1.0}, \"8\": {\"Br\": 1.0}, \"9\": {\"I\": 1.0}, \"10\": {\"Cs\": 1.0}, \"11\": {\"Pb\": 1.0}, \"12\": {\"Br\": 1.0}, \"13\": {\"Br\": 1.0}, \"14\": {\"I\": 1.0}, \"15\": {\"Cs\": 1.0}, \"16\": {\"Pb\": 1.0}, \"17\": {\"I\": 1.0}, \"18\": {\"Br\": 1.0}, \"19\": {\"I\": 1.0}, \"20\": {\"Cs\": 1.0}, \"21\": {\"Pb\": 1.0}, \"22\": {\"I\": 1.0}, \"23\": {\"I\": 1.0}, \"24\": {\"Br\": 1.0}, \"25\": {\"Cs\": 1.0}, \"26\": {\"Pb\": 1.0}, \"27\": {\"Br\": 1.0}, \"28\": {\"I\": 1.0}, \"29\": {\"Br\": 1.0}, \"30\": {\"Cs\": 1.0}, \"31\": {\"Pb\": 1.0}, \"32\": {\"I\": 1.0}, \"33\": {\"Br\": 1.0}, \"34\": {\"Br\": 1.0}, \"35\": {\"Cs\": 1.0}, \"36\": {\"Pb\": 1.0}, \"37\": {\"I\": 1.0}, \"38\": {\"Br\": 1.0}, \"39\": {\"Br\": 1.0}}" candidate_id=14ecedb062f15667 formula=FAPbBr0.5I0.53 config_index=3 rattle_stdev=0.08 method=PBE fidelity=phase2_force energy=-119.70526353953453 stress="-0.0010985722238743042 9.15623047264327e-05 6.942684752080984e-05 9.15623047264327e-05 -0.00048158674756863557 7.360215402584593e-05 6.942684752080984e-05 7.360215402584593e-05 -0.0010971756480691384" pbc="T T T"
Cs      -0.03022496      12.46787078      12.44923798        0       0.01963026       0.05174430       0.02931544
Pb       3.20851161       3.20492869       3.30791100        1      -0.28508793      -0.32552950      -0.63061792
I        3.18730681       3.19101642      12.41235727        2       0.00355549      -0.03389180      -0.09440125
I        3.35031531      -0.01793764       3.00705621        3       0.00667295      -0.20065350       0.00540788
I       -0.04895925       3.08935825       3.16910482        4       0.13230856       0.03525779       0.02761758
Cs       0.02721875      -0.01625040       6.21350338        5      -0.03391799       0.04238166      -0.01560585
Pb       3.25151269       2.89380099       9.11647956        6      -0.03099958       0.33135002       0.49538886
Br       3.14408830       2.91589205       6.13697729        7       0.00470624      -0.03844041       0.37869069
Br       3.21272668      -0.10590549       9.30571415        8       0.01374824       0.39691095      -0.02174575
I       -0.11245821       3.03845340       9.38898403        9       0.44458240       0.01298064      -0.03313224
Cs       0.00212929       6.23742840      12.32425855       10       0.01411883      -0.09364244      -0.00215483
Pb       3.19480033       9.03719474       2.95232411       11       0.04677335       0.35220257       0.05417664
Br       3.29961604       9.20762730      -0.05514063       12      -0.00734629      -0.06566146       0.43830854
Br       3.19172130       6.10830465       3.24106840       13       0.00436489       0.25693376       0.02021165
I       -0.13065087       9.17011444       3.00488809       14       1.01320137      -0.04688223      -0.00941830
Cs      -0.02177290       6.14394438       6.20181333       15      -0.05252496      -0.03106882       0.00034310
Pb       3.28170898       9.25749194       9.43489792       16      -0.18201112      -0.46027051       0.01626016
I        3.40162380       9.17975273       6.34524397       17      -0.04397090       0.03172324      -0.53348839
Br       3.26314886       6.21204232       9.31551432       18      -0.00186347      -0.18164407      -0.03257277
I        0.00361334       9.07262143       9.45019705       19      -0.12001787       0.03927746      -0.01474531
Cs       6.24584412      -0.02371236      12.39524080       20      -0.03523198       0.01156940      -0.00528955
Pb       9.03140194       3.08665961       3.20397063       21       0.39935731       0.29937123      -0.00480012
I        9.13146005       3.29990466      12.53038962       22      -0.02485500      -0.06069502      -0.11769723
I        9.36362873      -0.00994072       3.11763751       23      -0.05049637      -0.26457129       0.00042207
Br       6.16313535       3.25569879       3.26051881       24      -0.16126107       0.00447294       0.07781160
Cs       6.18196785       0.07490478       6.29979739       25       0.01686655      -0.01707666      -0.00790602
Pb       9.20678902       3.16971558       9.18712535       26      -0.10617951      -0.10235217       0.02669293
Br       9.33904926       3.10042853       6.21604262       27      -0.04918119       0.02096468       0.07456388
I        9.18076003       0.13409692       9.19100671       28      -0.02462500      -0.93174545       0.07398882
Br       6.16947536       3.10108452       9.29645824       29      -0.23259610      -0.05061950      -0.10840899
Cs       6.10796208       6.16909449      12.52539563       30      -0.01230515      -0.02151862      -0.03904054
Pb       9.22162712       9.11678621       3.18322174       31      -0.04992829      -0.20617375       0.23939828
I        9.14343600       9.04941977      12.53232188       32       0.01494787      -0.00780967       0.11173227
Br       9.14530964       6.04969056       3.30711939       33       0.02679152       0.23087518       0.03920846
Br       6.43350320       9.09900062       3.01138581       34      -1.03700734      -0.02105436      -0.03333196
Cs       6.25054141       6.20399896       6.27676007       35       0.01704969      -0.03374053       0.01325826
Pb       9.19483542       9.07904340       9.50996882       36       0.07121853       0.03724539      -0.36909255
I        9.10704110       9.02221330       6.35690126       37       0.02869536       0.02902535      -0.11035880
Br       9.18761317       5.97792809       9.36230649       38      -0.02206202       0.97766228       0.00395780
Br       6.16056469       9.21442378       9.50482829       39       0.27603381       0.01931673       0.05142558
