40
Lattice="12.76803111426316 0.0 0.0 0.0 12.76803111426295 0.0 0.0 -8.143528388689882e-14 12.768031114262937" Properties=species:S:1:pos:R:3:spacegroup_kinds:I:1:forces:R:3 spacegroup="P 1" unit_cell=conventional occupancy="_JSON {\"0\": {\"Cs\": 1.0}, \"1\": {\"Pb\": 1.0}, \"2\": {\"I\": 1.0}, \"3\": {\"I\": 1.0}, \"4\": {\"I\": 1.0}, \"5\": {\"Cs\": 1.0}, \"6\": {\"Pb\": 1.0}, \"7\": {\"I\": 1.0}, \"8\": {\"I\": 1.0}, \"9\": {\"I\": 1.0}, \"10\": {\"Cs\": 1.0}, \"11\": {\"Pb\": 1.0}, \"12\": {\"I\": 1.0}, \"13\": {\"I\": 1.0}, \"14\": {\"I\": 1.0}, \"15\": {\"Cs\": 1.0}, \"16\": {\"Pb\": 1.0}, \"17\": {\"I\": 1.0}, \"18\": {\"I\": 1.0}, \"19\": {\"I\": 1.0}, \"20\": {\"Cs\": 1.0}, \"21\": {\"Pb\": 1.0}, \"22\": {\"I\": 1.0}, \"23\": {\"I\": 1.0}, \"24\": {\"I\": 1.0}, \"25\": {\"Cs\": 1.0}, \"26\": {\"Pb\": 1.0}, \"27\": {\"I\": 1.0}, \"28\": {\"I\": 1.0}, \"29\": {\"I\": 1.0}, \"30\": {\"Cs\": 1.0}, \"31\": {\"Sn\": 1.0}, \"32\": {\"I\": 1.0}, \"33\": {\"I\": 1.0}, \"34\": {\"I\": 1.0}, \"35\": {\"Cs\": 1.0}, \"36\": {\"Pb\": 1.0}, \"37\": {\"I\": 1.0}, \"38\": {\"I\": 1.0}, \"39\": {\"I\": 1.0}}" candidate_id=b8b092a6e4ff5945 formula=CsPb0.88Sn0.12I3 config_index=0 rattle_stdev=0.0 method=PBE fidelity=phase2_force energy=-113.07818794104739 stress="0.00034669812443956135 -2.8752338480419892e-11 2.875233848041973e-11 -2.8752338480419892e-11 0.0003466981244395729 2.875234069168224e-11 2.875233848041973e-11 2.875234069168224e-11 0.0003466981244395738" pbc="T T T"
Cs      12.76682016      12.76682016       0.00121095        0      -0.00626233      -0.00626233       0.00626233
Pb       3.19200778       3.19200778       3.19200778        1       0.00032471       0.00032471       0.00035390
I        3.19200778       3.19200778       0.00207233        2      -0.00000055      -0.00000055      -0.00601897
I        3.19200778      12.75877775       3.19200778        3      -0.00000041       0.03410746      -0.00000037
I       12.75877775       3.19200778       3.19200778        4       0.03410746      -0.00000041      -0.00000037
Cs      12.76682016      12.76682016       6.38280461        5      -0.00626104      -0.00626104      -0.00626127
Pb       3.19200778       3.19200778       9.57602334        6       0.00034412       0.00034412      -0.00034412
I        3.19200778       3.19200778       6.38194323        7       0.00000112       0.00000112       0.00602204
I        3.19200778      12.76595879       9.57602334        8      -0.00000055       0.00601897       0.00000055
I       12.76595879       3.19200778       9.57602334        9       0.00601897      -0.00000055       0.00000055
Cs      12.76682016       6.38522651       0.00121095       10      -0.00626104       0.00626127       0.00626104
Pb       3.19200778       9.57602334       3.19200778       11       0.00012662      -0.00037209       0.00037209
I        3.19200778       9.57602334       0.00925336       12      -0.00000041       0.00000037      -0.03410746
I        3.19200778       6.39326892       3.19200778       13       0.00000050      -0.03412346       0.00000124
I       12.68520727       9.57602334       3.19200778       14       0.25928077       0.00000102      -0.00000102
Cs      12.76682016       6.38522651       6.38280461       15      -0.00625907       0.00626023      -0.00626023
Pb       3.19200778       9.57602334       9.57602334       16       0.00032471      -0.00035390      -0.00032471
I        3.19200778       9.57602334       6.37476220       17       0.00000050      -0.00000124       0.03412346
I        3.19200778       6.38608788       9.57602334       18       0.00000112      -0.00602204      -0.00000112
I       12.75877775       9.57602334       9.57602334       19       0.03410746       0.00000037       0.00000041
Cs       6.38522651      12.76682016       0.00121095       20       0.00626127      -0.00626104       0.00626104
Pb       9.57602334       3.19200778       3.19200778       21      -0.00037209       0.00012662       0.00037209
I        9.57602334       3.19200778       0.00925336       22       0.00000037      -0.00000041      -0.03410746
I        9.57602334      12.68520727       3.19200778       23       0.00000102       0.25928077      -0.00000102
I        6.39326892       3.19200778       3.19200778       24      -0.03412346       0.00000050       0.00000124
Cs       6.38522651      12.76682016       6.38280461       25       0.00626023      -0.00625907      -0.00626023
Pb       9.57602334       3.19200778       9.57602334       26      -0.00035390       0.00032471      -0.00032471
I        9.57602334       3.19200778       6.37476220       27      -0.00000124       0.00000050       0.03412346
I        9.57602334      12.75877775       9.57602334       28       0.00000037       0.03410746       0.00000041
I        6.38608788       3.19200778       9.57602334       29      -0.00602204       0.00000112      -0.00000112
Cs       6.38522651       6.38522651       0.00121095       30       0.00626023       0.00626023       0.00625907
Sn       9.57602334       9.57602334       3.19200778       31      -0.00017467      -0.00017467       0.00017467
I        9.57602334       9.57602334       0.08282384       32       0.00000102       0.00000102      -0.25928077
I        9.57602334       6.46683940       3.19200778       33      -0.00000032      -0.25937753       0.00000032
I        6.46683940       9.57602334       3.19200778       34      -0.25937753      -0.00000032       0.00000032
Cs       6.38522651       6.38522651       6.38280461       35       0.00625805       0.00625805      -0.00625805
Pb       9.57602334       9.57602334       9.57602334       36      -0.00037209      -0.00037209      -0.00012662
I        9.57602334       9.57602334       6.30119172       37      -0.00000032      -0.00000032       0.25937753
I        9.57602334       6.39326892       9.57602334       38      -0.00000124      -0.03412346      -0.00000050
I        6.39326892       9.57602334       9.57602334       39      -0.03412346      -0.00000124      -0.00000050
40
Lattice="12.76803111426316 0.0 0.0 0.0 12.76803111426295 0.0 0.0 -8.143528388689882e-14 12.768031114262937" Properties=species:S:1:pos:R:3:spacegroup_kinds:I:1:forces:R:3 spacegroup="P 1" unit_cell=conventional occupancy="_JSON {\"0\": {\"Cs\": 1.0}, \"1\": {\"Pb\": 1.0}, \"2\": {\"I\": 1.0}, \"3\": {\"I\": 1.0}, \"4\": {\"I\": 1.0}, \"5\": {\"Cs\": 1.0}, \"6\": {\"Pb\": 1.0}, \"7\": {\"I\": 1.0}, \"8\": {\"I\": 1.0}, \"9\": {\"I\": 1.0}, \"10\": {\"Cs\": 1.0}, \"11\": {\"Pb\": 1.0}, \"12\": {\"I\": 1.0}, \"13\": {\"I\": 1.0}, \"14\": {\"I\": 1.0}, \"15\": {\"Cs\": 1.0}, \"16\": {\"Pb\": 1.0}, \"17\": {\"I\": 1.0}, \"18\": {\"I\": 1.0}, \"19\": {\"I\": 1.0}, \"20\": {\"Cs\": 1.0}, \"21\": {\"Pb\": 1.0}, \"22\": {\"I\": 1.0}, \"23\": {\"I\": 1.0}, \"24\": {\"I\": 1.0}, \"25\": {\"Cs\": 1.0}, \"26\": {\"Pb\": 1.0}, \"27\": {\"I\": 1.0}, \"28\": {\"I\": 1.0}, \"29\": {\"I\": 1.0}, \"30\": {\"Cs\": 1.0}, \"31\": {\"Sn\": 1.0}, \"32\": {\"I\": 1.0}, \"33\": {\"I\": 1.0}, \"34\": {\"I\": 1.0}, \"35\": {\"Cs\": 1.0}, \"36\": {\"Pb\": 1.0}, \"37\": {\"I\": 1.0}, \"38\": {\"I\": 1.0}, \"39\": {\"I\": 1.0}}" candidate_id=b8b092a6e4ff5945 formula=CsPb0.88Sn0.12I3 config_index=1 rattle_stdev=0.08 method=PBE fidelity=phase2_force energy=-112.66921373937521 stress="-0.0011019063845886102 3.0013950823790154e-05 -3.4213964970201635e-06 3.0013950823790154e-05 -0.00047440985238278856 -5.38583000995347e-05 -3.4213964970201635e-06 -5.38583000995347e-05 -0.001660542897286566" pbc="T T T"
Cs      12.67990446      12.69513495      -0.02329300        0      -0.03481656       0.01819087       0.04232288
Pb       3.08481309       3.09548093       3.14066963        1       0.24538601       0.25187416       0.22659372
I        3.29664343       3.33964461       0.06840152        2      -0.05174514      -0.02953788      -0.07153530
I        3.19014387      12.74209264       3.11867820        3       0.02011403       0.05596938      -0.00377846
I       12.67279835       3.18511630       3.28607486        4       0.52773432      -0.00646842       0.01720269
Cs      12.63601283      12.86507568       6.46891551        5       0.02092330       0.02223336      -0.04951063
Pb       3.22358961       3.16099171       9.62309548        6       0.07288184       0.03971052      -0.11132209
I        3.07734387       3.16612180       6.48218201        7       0.03309050       0.02193353      -0.19224235
I        3.13354837      12.88023759       9.65159565        8      -0.01741826      -0.48284523       0.01640120
I       12.74483857       3.17895071       9.49889475        9       0.11202858       0.00826996       0.02450221
Cs      12.73940838       6.38913883      -0.03875961       10      -0.01139313      -0.01902082       0.03046799
Pb       3.01505542       9.60081028       3.06483568       11       0.39831378      -0.25411820      -0.03753546
I        3.25036415       9.56739124      -0.04276036       12      -0.02605036       0.01844187      -0.06987845
I        3.05656326       6.36379099       3.06477804       13       0.00844881      -0.00415579       0.05900228
I       12.80364774       9.61397855       3.26511688       14      -0.31749659       0.00791416       0.02416624
Cs      12.84365779       6.39198991       6.52018308       15       0.00805268      -0.02521833      -0.02802590
Pb       3.26015920       9.51563251       9.39301299       16       0.21147975       0.08636012       0.27587205
I        3.20074687       9.54001069       6.34172440       17       0.00792105      -0.01389330      -0.08170806
I        3.21752648       6.34279925       9.65191665       18      -0.02310186       0.33795560      -0.03744811
I       12.77089256       9.58217553       9.57127130       19       0.37529102       0.00900342       0.02529158
Cs       6.37961541      12.72152824       0.02609138       20       0.02442800       0.01425966       0.03085546
Pb       9.63396004       3.23332378       3.27409023       21      -0.41373438      -0.18908362      -0.45762824
I        9.61763554       3.12242069       0.12929857       22       0.03888451       0.01735611      -0.42726342
I        9.66934111      12.72456043       3.13342680       23      -0.00710273       0.12002716       0.09375238
I        6.44769341       3.23272753       3.12500488       24      -0.34794419      -0.00643040       0.04949629
Cs       6.43703810      12.76782332       6.50757174       25      -0.00857870      -0.00342725      -0.02802458
Pb       9.65879097       3.21902319       9.47181450       26      -0.17992998       0.24119414       0.31176580
I        9.48653979       3.29676899       6.33330484       27      -0.02533903      -0.02530563       0.44788456
I        9.54457339      12.84221523       9.58200055       28       0.01887908      -0.12524577      -0.01782902
I        6.39324285       3.19632037       9.60949909       29      -0.00871172      -0.00264814      -0.00839733
Cs       6.28700810       6.29806318       0.02658090       30       0.01295479      -0.01238505       0.03489619
Sn       9.51359089       9.50753285       3.08641807       31      -0.10924288       0.24183900       0.26007055
I        9.61232587       9.65616532       0.19592261       32       0.00884210      -0.00207254      -0.50549379
I        9.56080870       6.46924824       3.04213444       33       0.02935126      -0.18154073       0.01225315
I        6.45749724       9.56582411       3.26418252       34      -0.00195890      -0.00003575      -0.00853397
Cs       6.28007673       6.37726245       6.39404860       35       0.00981715      -0.00438031      -0.01969728
Pb       9.78632781       9.71648564       9.36517151       36      -0.56471464      -0.27848944       0.43510351
I        9.47309178       9.56228556       6.44522801       37       0.05066607       0.03888594      -0.33628868
I        9.62471899       6.39579096       9.45871036       38       0.01460515       0.11368531       0.05286555
I        6.41802418       9.66740076       9.53515580       39      -0.10205804       0.00079976       0.02228495
40
Lattice="12.76803111426316 0.0 0.0 0.0 12.76803111426295 0.0 0.0 -8.143528388689882e-14 12.768031114262937" Properties=species:S:1:pos:R:3:spacegroup_kinds:I:1:forces:R:3 spacegroup="P 1" unit_cell=conventional occupancy="_JSON {\"0\": {\"Cs\": 1.0}, \"1\": {\"Pb\": 1.0}, \"2\": {\"I\": 1.0}, \"3\": {\"I\": 1.0}, \"4\": {\"I\": 1.0}, \"5\": {\"Cs\": 1.0}, \"6\": {\"Pb\": 1.0}, \"7\": {\"I\": 1.0}, \"8\": {\"I\": 1.0}, \"9\": {\"I\": 1.0}, \"10\": {\"Cs\": 1.0}, \"11\": {\"Pb\": 1.0}, \"12\": {\"I\": 1.0}, \"13\": {\"I\": 1.0}, \"14\": {\"I\": 1.0}, \"15\": {\"Cs\": 1.0}, \"16\": {\"Pb\": 1.0}, \"17\": {\"I\": 1.0}, \"18\": {\"I\": 1.0}, \"19\": {\"I\": 1.0}, \"20\": {\"Cs\": 1.0}, \"21\": {\"Pb\": 1.0}, \"22\": {\"I\": 1.0}, \"23\": {\"I\": 1.0}, \"24\": {\"I\": 1.0}, \"25\": {\"Cs\": 1.0}, \"26\": {\"Pb\": 1.0}, \"27\": {\"I\": 1.0}, \"28\": {\"I\": 1.0}, \"29\": {\"I\": 1.0}, \"30\": {\"Cs\": 1.0}, \"31\": {\"Sn\": 1.0}, \"32\": {\"I\": 1.0}, \"33\": {\"I\": 1.0}, \"34\": {\"I\": 1.0}, \"35\": {\"Cs\": 1.0}, \"36\": {\"Pb\": 1.0}, \"37\": {\"I\": 1.0}, \"38\": {\"I\": 1.0}, \"39\": {\"I\": 1.0}}" candidate_id=b8b092a6e4ff5945 formula=CsPb0.88Sn0.12I3 config_index=2 rattle_stdev=0.08 method=PBE fidelity=phase2_force energy=-112.58497462820773 stress="-0.0008793044805880348 2.108662082607572e-05 5.818164643441624e-06 2.108662082607572e-05 -0.0009909185293732344 -5.7861110327408566e-05 5.818164643441624e-06 -5.7861110327408566e-05 -0.0003406239864192677" pbc="T T T"
Cs      12.75780312      12.68069505       0.14401310        0       0.01315273      -0.01736977      -0.04416639
Pb       3.07544911       3.16590212       3.09121606        1       0.64523166       0.25012070       0.12910965
I        3.22207710       3.12175599      -0.02592574        2      -0.03238577       0.03331184      -0.05301538
I        3.21574059      12.85485071       3.06648816        3      -0.00868196      -0.52552180       0.02932557
I       12.90710005       3.23152472       3.18155086        4      -0.87081594       0.01937307      -0.02030818
Cs      12.73457050      12.68892718       6.34540727        5      -0.02412277      -0.02019989       0.04275774
Pb       3.13457406       3.28971924       9.51384733        6       0.34939106      -0.10931576      -0.00435867
I        3.14492573       3.18739827       6.38830962        7       0.01884124      -0.07914675      -0.08179016
I        3.09735169      12.64205939       9.64900383        8       0.00133189       0.51610431       0.00101041
I       12.79897245       3.13634626       9.39292159        9      -0.15555657       0.00959508       0.02728537
Cs      12.70384084       6.30294517       0.00867560       10       0.01661075       0.02978950      -0.01784101
Pb       3.14967225       9.63844292       3.17594260       11       0.18497511      -0.19426234       0.06145094
I        3.15355909       9.49320237      -0.03096539       12       0.01002286      -0.04381240       0.33345127
I        3.25519899       6.31926911       3.36881060       13      -0.01997727       0.42275488      -0.05041685
I       12.57318838       9.55689555       3.20939503       14       0.77864112      -0.01015868       0.02879964
Cs      12.73862934       6.39209655       6.39133677       15      -0.00926184       0.02081074       0.01337917
Pb       3.17624528       9.68377804       9.60363725       16      -0.02426539      -0.39261740      -0.10298455
I        3.23661933       9.52840052       6.43338877       17      -0.01571016       0.05345820      -0.29817823
I        3.29850799       6.32768525       9.53716287       18      -0.01450661       0.05776938       0.03109733
I       12.84493089       9.36839474       9.58937759       19      -0.10686357      -0.01007429      -0.00452386
Cs       6.46834328      12.62213426       0.06190222       20      -0.01486503       0.02423396      -0.01236790
Pb       9.53601431       3.00446433       3.18337436       21      -0.16571010       0.18047340       0.12707219
I        9.45580032       3.23111007      -0.03500092       22       0.06189279       0.03275318       0.13059781
I        9.66062394      12.61566185       3.18600049       23       0.01543343       0.43415146      -0.01063356
I        6.38469652       3.35991354       3.16476474       24       0.27039820      -0.09756497      -0.01138585
Cs       6.34299410      12.66325082       6.39993253       25       0.02899795      -0.00836676       0.01129612
Pb       9.66612490       3.22413065       9.63727016       26      -0.32208885      -0.05764521      -0.22234826
I        9.46777314       3.23791646       6.35715123       27       0.04526930      -0.05464738      -0.03729648
I        9.62763845      12.67840021       9.72800242       28       0.03143126       0.46152828       0.01532992
I        6.40343675       3.23200541       9.52589605       29       0.05570729      -0.05232323       0.00444670
Cs       6.30499577       6.32272169       0.01755317       30      -0.01330322      -0.03700936       0.01086137
Sn       9.61891070       9.49002354       3.01457940       31      -0.40674055      -0.18575056       0.54827150
I        9.62777775       9.55023647       0.06901871       32       0.00924213      -0.02570383      -0.29020148
I        9.39294959       6.45787589       3.26843288       33       0.07707668      -0.25704932      -0.05479111
I        6.50321845       9.74097753       3.19700462       34      -0.54484910       0.03054053      -0.04402247
Cs       6.38545390       6.34894220       6.41268321       35       0.01520868      -0.00870445      -0.01287553
Pb       9.51097406       9.56789873       9.61168039       36       0.26054116       0.08983585      -0.37966812
I        9.47401304       9.58464988       6.36937067       37       0.05657937       0.05723884       0.10633821
I        9.56347517       6.48837446       9.45824226       38       0.04935331      -0.56605626       0.04102163
I        6.46255219       9.50455217       9.53210569       39      -0.24741600       0.03059099       0.06193319
40
Lattice="12.76803111426316 0.0 0.0 0.0 12.76803111426295 0.0 0.0 -8.143528388689882e-14 12.768031114262937" Properties=species:S:1:pos:R:3:spacegroup_kinds:I:1:forces:R:3 spacegroup="P 1" unit_cell=conventional occupancy="_JSON {\"0\": {\"Cs\": 1.0}, \"1\": {\"Pb\": 1.0}, \"2\": {\"I\": 1.0}, \"3\": {\"I\": 1.0}, \"4\": {\"I\": 1.0}, \"5\": {\"Cs\": 1.0}, \"6\": {\"Pb\": 1.0}, \"7\": {\"I\": 1.0}, \"8\": {\"I\": 1.0}, \"9\": {\"I\": 1.0}, \"10\": {\"Cs\": 1.0}, \"11\": {\"Pb\": 1.0}, \"12\": {\"I\": 1.0}, \"13\": {\"I\": 1.0}, \"14\": {\"I\": 1.0}, \"15\": {\"Cs\": 1.0}, \"16\": {\"Pb\": 1.0}, \"17\": {\"I\": 1.0}, \"18\": {\"I\": 1.0}, \"19\": {\"I\": 1.0}, \"20\": {\"Cs\": 1.0}, \"21\": {\"Pb\": 1.0}, \"22\": {\"I\": 1.0}, \"23\": {\"I\": 1.0}, \"24\": {\"I\": 1.0}, \"25\": {\"Cs\": 1.0}, \"26\": {\"Pb\": 1.0}, \"27\": {\"I\": 1.0}, \"28\": {\"I\": 1.0}, \"29\": {\"I\": 1.0}, \"30\": {\"Cs\": 1.0}, \"31\": {\"Sn\": 1.0}, \"32\": {\"I\": 1.0}, \"33\": {\"I\": 1.0}, \"34\": {\"I\": 1.0}, \"35\": {\"Cs\": 1.0}, \"36\": {\"Pb\": 1.0}, \"37\": {\"I\": 1.0}, \"38\": {\"I\": 1.0}, \"39\": {\"I\": 1.0}}" candidate_id=b8b092a6e4ff5945 formula=CsPb0.88Sn0.12I3 config_index=3 rattle_stdev=0.08 method=PBE fidelity=phase2_force energy=-112.39513619173796 stress="-0.0012575835069280458 8.728082288097054e-05 2.0529359124676207e-05 8.728082288097054e-05 -0.000810074568449884 4.533834893426503e-05 2.0529359124676207e-05 4.533834893426503e-05 -0.0003178773698760181" pbc="T T T"
Cs      12.66113668      12.92816040       0.00501611        0       0.00791636       0.04358986       0.03015244
Pb       3.17299409       3.19873759       3.26877116        1      -0.25362694      -0.24273493      -0.61288059
I        3.13747990       3.23433341      -0.05992113        2       0.02595430      -0.00434859      -0.07902820
I        3.30440427      12.74080331       3.08753692        3       0.02305323      -0.14373014       0.00279436
I       12.70449494       3.06233312       3.08960990        4       0.14712621       0.04410604       0.03019723
Cs      12.74887643      12.69877528       6.32234540        5      -0.03897179       0.01203208      -0.02511768
Pb       3.21306144       2.98759234       9.44240066        6      -0.01661615       0.42879095       0.41527604
I        3.13506896       2.99626573       6.27980845        7      -0.03316143      -0.02364879       0.37157568
I        3.24509758      12.66365207       9.51279056        8      -0.02371605       0.44382073       0.01315658
I       12.64576912       3.09684458       9.75735855        9       0.43814253       0.02230700      -0.01755515
Cs      12.72867794       6.45695963      -0.14318411       10       0.00441539      -0.05325526      -0.00866606
Pb       3.15271061       9.48006361       3.12759015       11      -0.04861499       0.26992589       0.02013514
I        3.30447327       9.55759808      -0.04784236       12      -0.02889726      -0.04498894       0.41615570
I        3.17900078       6.33895853       3.31313719       13      -0.01766378       0.17079972       0.01732650
I       12.54540145       9.62870570       3.16447848       14       1.26381439      -0.08008555       0.01403567
Cs      12.70612431       6.39898861       6.33022133       15      -0.03997781       0.00042012      -0.00217066
Pb       3.23622342       9.60663200       9.54632011       16      -0.15508687      -0.53822993       0.05465219
I        3.31825930       9.59336714       6.47168953       17      -0.00527496       0.01191636      -0.51602574
I        3.25052622       6.44000757       9.52959885       18      -0.02012140      -0.30333356      -0.03475329
I       12.75083058       9.44923414       9.57004602       19      -0.08976344       0.00709055       0.01196861
Cs       6.48113122      12.74558635      -0.05093302       20      -0.01381532       0.01403019       0.01166867
Pb       9.42430041       3.06878386       3.16058192       21       0.35545211       0.18817587       0.02595836
I        9.54286487       3.24889320       0.06065539       22      -0.05281663      -0.02186557      -0.18619014
I        9.76781024      12.67162469       3.11093708       23      -0.10105155       0.08443109       0.01316156
I        6.35778442       3.25968595       3.23155650       24      -0.16515179      -0.01672414       0.02274815
Cs       6.40751757      12.80858744       6.40821394       25       0.02164274      -0.02351856      -0.00268208
Pb       9.59419425       3.16078054       9.51858193       26      -0.13463209      -0.02182036       0.02179535
I        9.69955223       3.12297217       6.34605599       27      -0.00111493       0.00373365       0.12049779
I        9.58272748      12.89311552       9.48167636       28      -0.02934618      -0.83189456       0.05878572
I        6.35418971       3.15813663       9.62077028       29      -0.19263445      -0.03547338      -0.04637480
Cs       6.33904693       6.39092630       0.07058736       30       0.00477526      -0.02446702      -0.02475721
Sn       9.60921605       9.55792455       3.25245523       31      -0.12359308      -0.21193849       0.17667749
I        9.59403373       9.54084309       0.13515018       32       0.02380183      -0.01708975      -0.29274439
I        9.50433347       6.35288350       3.33140651       33       0.06331835      -0.01891277      -0.00123223
I        6.70038545       9.52212531       3.13032584       34      -1.13851395       0.02959767      -0.00068767
Cs       6.46966589       6.47688355       6.39245445       35       0.02660207       0.02038105       0.01086285
Pb       9.57702281       9.52006162       9.72612727       36       0.04397993       0.00333783      -0.16225785
I        9.53997066       9.55152459       6.41421107       37       0.00803429       0.00972539       0.13198402
I        9.52373605       6.21194359       9.62445149       38      -0.00901129       0.82071416       0.00484587
I        6.35132348       9.59262252       9.66373550       39       0.25206691       0.01259363       0.01429512
