K  Sn I  K  Sn I  K  Ge I  K  Ge I  K  Ge I  K  Sn I  K  Ge I  K  Ge I 
 1.0000000000000000
    12.4578072709445919    0.0000000000000000    0.0000000000000000
     0.0000000000000000   12.4578072709445919    0.0000000000000000
     0.0000000000000000    0.0000000000000000   12.4578072709445919
 K   Sn  I   K   Sn  I   K   Ge  I   K   Ge  I   K   Ge  I   K   Sn  I   K   Ge  I   K   Ge  I  
   1   1   3   1   1   3   1   1   3   1   1   3   1   1   3   1   1   3   1   1   3   1   1   3
Cartesian
  0.0000000000000000  0.0000000000000000  0.0000000000000000
  3.1144518177361471  3.1144518177361471  3.1144518177361471
  3.1144518177361471  3.1144518177361471  0.0000000000000000
  3.1144518177361471  0.0000000000000000  3.1144518177361471
  0.0000000000000000  3.1144518177361471  3.1144518177361471
  0.0000000000000000  0.0000000000000000  6.2289036354722951
  3.1144518177361471  3.1144518177361471  9.3433554532084422
  3.1144518177361471  3.1144518177361471  6.2289036354722951
  3.1144518177361471  0.0000000000000000  9.3433554532084422
  0.0000000000000000  3.1144518177361471  9.3433554532084422
  0.0000000000000000  6.2289036354722951  0.0000000000000000
  3.1144518177361471  9.3433554532084422  3.1144518177361471
  3.1144518177361471  9.3433554532084422  0.0000000000000000
  3.1144518177361471  6.2289036354722951  3.1144518177361471
  0.0000000000000000  9.3433554532084422  3.1144518177361471
  0.0000000000000000  6.2289036354722951  6.2289036354722951
  3.1144518177361471  9.3433554532084422  9.3433554532084422
  3.1144518177361471  9.3433554532084422  6.2289036354722951
  3.1144518177361471  6.2289036354722951  9.3433554532084422
  0.0000000000000000  9.3433554532084422  9.3433554532084422
  6.2289036354722951  0.0000000000000000  0.0000000000000000
  9.3433554532084422  3.1144518177361471  3.1144518177361471
  9.3433554532084422  3.1144518177361471  0.0000000000000000
  9.3433554532084422  0.0000000000000000  3.1144518177361471
  6.2289036354722951  3.1144518177361471  3.1144518177361471
  6.2289036354722951  0.0000000000000000  6.2289036354722951
  9.3433554532084422  3.1144518177361471  9.3433554532084422
  9.3433554532084422  3.1144518177361471  6.2289036354722951
  9.3433554532084422  0.0000000000000000  9.3433554532084422
  6.2289036354722951  3.1144518177361471  9.3433554532084422
  6.2289036354722951  6.2289036354722951  0.0000000000000000
  9.3433554532084422  9.3433554532084422  3.1144518177361471
  9.3433554532084422  9.3433554532084422  0.0000000000000000
  9.3433554532084422  6.2289036354722951  3.1144518177361471
  6.2289036354722951  9.3433554532084422  3.1144518177361471
  6.2289036354722951  6.2289036354722951  6.2289036354722951
  9.3433554532084422  9.3433554532084422  9.3433554532084422
  9.3433554532084422  9.3433554532084422  6.2289036354722951
  9.3433554532084422  6.2289036354722951  9.3433554532084422
  6.2289036354722951  9.3433554532084422  9.3433554532084422
