Cs Pb I  Br Cs Pb Cl Br Cs Pb Cl I  Cs Pb I  Cl I  Cs Pb Br Cl Cs Pb Cl I  Cl Cs Pb I  Cl Cs Pb Br Cl
 1.0000000000000000
    12.5399730789184716    0.0000000000000000    0.0000000000000000
     0.0000000000000000   12.5399730789184716    0.0000000000000000
     0.0000000000000000    0.0000000000000000   12.5399730789184716
 Cs  Pb  I   Br  Cs  Pb  Cl  Br  Cs  Pb  Cl  I   Cs  Pb  I   Cl  I   Cs  Pb  Br  Cl  Cs  Pb  Cl  I   Cl  Cs  Pb  I   Cl  Cs  Pb  Br  Cl 
   1   1   1   2   1   1   2   1   1   1   2   1   1   1   1   1   1   1   1   2   1   1   1   1   1   1   1   1   1   2   1   1   1   2
Cartesian
  0.0000000000000000  0.0000000000000000  0.0000000000000000
  3.1349932697296179  3.1349932697296179  3.1349932697296179
  3.1349932697296179  3.1349932697296179  0.0000000000000000
  3.1349932697296179  0.0000000000000000  3.1349932697296179
  0.0000000000000000  3.1349932697296179  3.1349932697296179
  0.0000000000000000  0.0000000000000000  6.2699865394592349
  3.1349932697296179  3.1349932697296179  9.4049798091888537
  3.1349932697296179  3.1349932697296179  6.2699865394592349
  3.1349932697296179  0.0000000000000000  9.4049798091888537
  0.0000000000000000  3.1349932697296179  9.4049798091888537
  0.0000000000000000  6.2699865394592349  0.0000000000000000
  3.1349932697296179  9.4049798091888537  3.1349932697296179
  3.1349932697296179  9.4049798091888537  0.0000000000000000
  3.1349932697296179  6.2699865394592349  3.1349932697296179
  0.0000000000000000  9.4049798091888537  3.1349932697296179
  0.0000000000000000  6.2699865394592349  6.2699865394592349
  3.1349932697296179  9.4049798091888537  9.4049798091888537
  3.1349932697296179  9.4049798091888537  6.2699865394592349
  3.1349932697296179  6.2699865394592349  9.4049798091888537
  0.0000000000000000  9.4049798091888537  9.4049798091888537
  6.2699865394592349  0.0000000000000000  0.0000000000000000
  9.4049798091888537  3.1349932697296179  3.1349932697296179
  9.4049798091888537  3.1349932697296179  0.0000000000000000
  9.4049798091888537  0.0000000000000000  3.1349932697296179
  6.2699865394592349  3.1349932697296179  3.1349932697296179
  6.2699865394592349  0.0000000000000000  6.2699865394592349
  9.4049798091888537  3.1349932697296179  9.4049798091888537
  9.4049798091888537  3.1349932697296179  6.2699865394592349
  9.4049798091888537  0.0000000000000000  9.4049798091888537
  6.2699865394592349  3.1349932697296179  9.4049798091888537
  6.2699865394592349  6.2699865394592349  0.0000000000000000
  9.4049798091888537  9.4049798091888537  3.1349932697296179
  9.4049798091888537  9.4049798091888537  0.0000000000000000
  9.4049798091888537  6.2699865394592349  3.1349932697296179
  6.2699865394592349  9.4049798091888537  3.1349932697296179
  6.2699865394592349  6.2699865394592349  6.2699865394592349
  9.4049798091888537  9.4049798091888537  9.4049798091888537
  9.4049798091888537  9.4049798091888537  6.2699865394592349
  9.4049798091888537  6.2699865394592349  9.4049798091888537
  6.2699865394592349  9.4049798091888537  9.4049798091888537
