40
Lattice="11.547244120071166 0.0 0.0 0.0 11.553552022087464 0.0 0.0 5.198712994981271e-14 11.547244120071152" Properties=species:S:1:pos:R:3:spacegroup_kinds:I:1:forces:R:3 spacegroup="P 1" unit_cell=conventional occupancy="_JSON {\"0\": {\"Rb\": 1.0}, \"1\": {\"Sn\": 1.0}, \"2\": {\"Br\": 1.0}, \"3\": {\"Br\": 1.0}, \"4\": {\"Br\": 1.0}, \"5\": {\"Rb\": 1.0}, \"6\": {\"Sn\": 1.0}, \"7\": {\"Br\": 1.0}, \"8\": {\"Br\": 1.0}, \"9\": {\"Br\": 1.0}, \"10\": {\"Rb\": 1.0}, \"11\": {\"Sn\": 1.0}, \"12\": {\"Br\": 1.0}, \"13\": {\"Br\": 1.0}, \"14\": {\"Br\": 1.0}, \"15\": {\"Rb\": 1.0}, \"16\": {\"Ge\": 1.0}, \"17\": {\"Br\": 1.0}, \"18\": {\"Br\": 1.0}, \"19\": {\"Br\": 1.0}, \"20\": {\"Rb\": 1.0}, \"21\": {\"Sn\": 1.0}, \"22\": {\"Br\": 1.0}, \"23\": {\"Br\": 1.0}, \"24\": {\"Br\": 1.0}, \"25\": {\"Rb\": 1.0}, \"26\": {\"Sn\": 1.0}, \"27\": {\"Br\": 1.0}, \"28\": {\"Br\": 1.0}, \"29\": {\"Br\": 1.0}, \"30\": {\"Rb\": 1.0}, \"31\": {\"Ge\": 1.0}, \"32\": {\"Br\": 1.0}, \"33\": {\"Br\": 1.0}, \"34\": {\"Br\": 1.0}, \"35\": {\"Rb\": 1.0}, \"36\": {\"Sn\": 1.0}, \"37\": {\"Br\": 1.0}, \"38\": {\"Br\": 1.0}, \"39\": {\"Br\": 1.0}}" candidate_id=582ecbad6c7853b3 formula=RbGe0.31Sn0.69Br3 config_index=0 rattle_stdev=0.0 method=PBE fidelity=phase2_force energy=-124.88666881139453 stress="-0.0005826782657482297 -7.073229451638841e-32 -2.789386960758603e-09 -7.073229451638841e-32 -0.0006848631078939832 3.083338935047595e-18 -2.789386960758603e-09 3.083338935047595e-18 -0.0005826782657482308" pbc="T T T"
Rb       0.00000000      11.33919247      11.54724412        0       0.00000000       0.07080381       0.00000000
Sn       2.88681103       2.88838801       2.88681103        1      -0.00000000      -0.00000000      -0.00000000
Br       2.88681103       2.88838801       0.01975398        2      -0.00000000      -0.00000000      -0.15537080
Br       2.88681103       0.01627080       2.88681103        3       0.00000000      -0.21850587       0.00000000
Br       0.01975398       2.88838801       2.88681103        4      -0.15537080      -0.00000000      -0.00000000
Rb       0.00000000      11.33919247       5.77362206        5       0.00000000       0.07080398       0.00000000
Sn       2.88681103       2.88838801       8.66043309        6      -0.00000000      -0.00000000       0.00000000
Br       2.88681103       2.88838801       5.75386808        7       0.00000000      -0.00000000       0.15537080
Br       2.88681103      11.49725995       8.66043309        8       0.00000000      -0.20238816      -0.00000000
Br      11.52749014       2.88838801       8.66043309        9       0.15537080      -0.00000000       0.00000000
Rb      11.54724412       5.99113556      11.54724412       10       0.00000000      -0.07080381       0.00000000
Sn       2.88681103       8.66516402       2.88681103       11       0.00000000      -0.00000000       0.00000000
Br       2.88681103       8.66516402      11.49563741       12      -0.00000000      -0.00000000      -0.13073350
Br       2.88681103       5.76050521       2.88681103       13       0.00000000       0.21850587       0.00000000
Br      11.49563741       8.66516402       2.88681103       14      -0.13073350      -0.00000000      -0.00000000
Rb      11.54724412       5.99113556       5.77362206       15       0.00000000      -0.07080398       0.00000000
Ge       2.88681103       8.66516402       8.66043309       16       0.00000000       0.00000000      -0.00000000
Br       2.88681103       8.66516402       5.82522877       17       0.00000000      -0.00000000       0.13073350
Br       2.88681103       5.83306808       8.66043309       18       0.00000000       0.20238816      -0.00000000
Br       0.05160671       8.66516402       8.66043309       19       0.13073350      -0.00000000       0.00000000
Rb       5.77362206      11.33919247      11.54724412       20       0.00000000       0.07080398       0.00000000
Sn       8.66043309       2.88838801       2.88681103       21       0.00000000      -0.00000000      -0.00000000
Br       8.66043309       2.88838801      11.52749014       22       0.00000000      -0.00000000       0.15537080
Br       8.66043309      11.49725995       2.88681103       23      -0.00000000      -0.20238816       0.00000000
Br       5.75386808       2.88838801       2.88681103       24       0.15537080      -0.00000000       0.00000000
Rb       5.77362206      11.33919247       5.77362206       25       0.00000000       0.07080381       0.00000000
Sn       8.66043309       2.88838801       8.66043309       26       0.00000000      -0.00000000       0.00000000
Br       8.66043309       2.88838801       5.79337604       27      -0.00000000      -0.00000000      -0.15537080
Br       8.66043309       0.01627080       8.66043309       28      -0.00000000      -0.21850587      -0.00000000
Br       5.79337604       2.88838801       8.66043309       29      -0.15537080      -0.00000000      -0.00000000
Rb       5.77362206       5.99113556       0.00000000       30       0.00000000      -0.07080398       0.00000000
Ge       8.66043309       8.66516402       2.88681103       31      -0.00000000       0.00000000       0.00000000
Br       8.66043309       8.66516402       0.05160671       32       0.00000000      -0.00000000       0.13073350
Br       8.66043309       5.83306808       2.88681103       33      -0.00000000       0.20238816       0.00000000
Br       5.82522877       8.66516402       2.88681103       34       0.13073350      -0.00000000       0.00000000
Rb       5.77362206       5.99113556       5.77362206       35      -0.00000000      -0.07080381       0.00000000
Sn       8.66043309       8.66516402       8.66043309       36      -0.00000000      -0.00000000      -0.00000000
Br       8.66043309       8.66516402       5.72201535       37      -0.00000000      -0.00000000      -0.13073350
Br       8.66043309       5.76050521       8.66043309       38      -0.00000000       0.21850587      -0.00000000
Br       5.72201535       8.66516402       8.66043309       39      -0.13073350      -0.00000000      -0.00000000
40
Lattice="11.547244120071166 0.0 0.0 0.0 11.553552022087464 0.0 0.0 5.198712994981271e-14 11.547244120071152" Properties=species:S:1:pos:R:3:spacegroup_kinds:I:1:forces:R:3 spacegroup="P 1" unit_cell=conventional occupancy="_JSON {\"0\": {\"Rb\": 1.0}, \"1\": {\"Sn\": 1.0}, \"2\": {\"Br\": 1.0}, \"3\": {\"Br\": 1.0}, \"4\": {\"Br\": 1.0}, \"5\": {\"Rb\": 1.0}, \"6\": {\"Sn\": 1.0}, \"7\": {\"Br\": 1.0}, \"8\": {\"Br\": 1.0}, \"9\": {\"Br\": 1.0}, \"10\": {\"Rb\": 1.0}, \"11\": {\"Sn\": 1.0}, \"12\": {\"Br\": 1.0}, \"13\": {\"Br\": 1.0}, \"14\": {\"Br\": 1.0}, \"15\": {\"Rb\": 1.0}, \"16\": {\"Ge\": 1.0}, \"17\": {\"Br\": 1.0}, \"18\": {\"Br\": 1.0}, \"19\": {\"Br\": 1.0}, \"20\": {\"Rb\": 1.0}, \"21\": {\"Sn\": 1.0}, \"22\": {\"Br\": 1.0}, \"23\": {\"Br\": 1.0}, \"24\": {\"Br\": 1.0}, \"25\": {\"Rb\": 1.0}, \"26\": {\"Sn\": 1.0}, \"27\": {\"Br\": 1.0}, \"28\": {\"Br\": 1.0}, \"29\": {\"Br\": 1.0}, \"30\": {\"Rb\": 1.0}, \"31\": {\"Ge\": 1.0}, \"32\": {\"Br\": 1.0}, \"33\": {\"Br\": 1.0}, \"34\": {\"Br\": 1.0}, \"35\": {\"Rb\": 1.0}, \"36\": {\"Sn\": 1.0}, \"37\": {\"Br\": 1.0}, \"38\": {\"Br\": 1.0}, \"39\": {\"Br\": 1.0}}" candidate_id=582ecbad6c7853b3 formula=RbGe0.31Sn0.69Br3 config_index=1 rattle_stdev=0.08 method=PBE fidelity=phase2_force energy=-124.29028773809462 stress="-0.0030570161984455387 0.0001202910470155597 -4.149382080607371e-05 0.0001202910470155597 -0.002301822601960834 -0.00010112493367271618 -4.149382080607371e-05 -0.00010112493367271618 -0.0032124184696429104" pbc="T T T"
Rb      -0.08691571      11.26750726      11.52274017        0      -0.02574128       0.12330215       0.03181164
Sn       2.77961634       2.79186116       2.83547288        1       0.40606131       0.41607716       0.29937536
Br       2.99144668       3.03602484       0.08608317        2      -0.07721188      -0.05218691      -0.19316674
Br       2.88494712      -0.00041432       2.81348145        3      -0.01851151      -0.24773824      -0.04239705
Br      -0.06622543       2.88149653       2.98087811        4       0.37746201      -0.01771583       0.00924962
Rb      -0.13080734      11.43744799       5.85973296        5       0.06338196       0.13541320      -0.05546705
Sn       2.91839286       2.85737194       8.70750523        6       0.11970478      -0.01965593      -0.19627170
Br       2.77214712       2.86250203       5.85410686        7       0.05401421       0.01725098      -0.03757698
Br       2.82835162      11.61153876       8.73600540        8      -0.00801778      -0.52343112      -0.02151954
Br      11.50636992       2.87533094       8.58330451        9       0.27486043      -0.00407243       0.01013657
Rb      11.51983233       5.99504789      11.50727356       10      -0.00219985      -0.11301529       0.02062462
Sn       2.70985867       8.68995097       2.75963893       11       0.80638313      -0.32192188      -0.09047953
Br       2.94516740       8.65653192      11.44362369       12      -0.09096925       0.03072916      -0.01917438
Br       2.75136651       5.73102729       2.75958129       13      -0.03314733       0.24195060       0.06558398
Br      11.61407788       8.70311923       2.95992014       14      -0.84831914       0.00584139       0.02381420
Rb      11.62408174       5.99789897       5.91100053       15       0.03467044      -0.13886022      -0.02126421
Ge       2.95496245       8.60477319       8.47742274       16       0.31836199      -0.03006593       0.20289341
Br       2.89555013       8.62915137       5.79219097       17      -0.01032786      -0.01440774       0.20311097
Br       2.91232973       5.78977945       8.73632641       18      -0.01691101       0.63304608      -0.12298403
Br       0.06372151       8.67131621       8.65568106       19       0.40342992       0.02196346      -0.07841373
Rb       5.76801096      11.29390054      11.57212455       20       0.01706676       0.09481835       0.02206775
Sn       8.71836979       2.92970401       2.96889348       21      -0.52308302      -0.25405813      -0.64233085
Br       8.70204530       2.81880092      11.64753536       22       0.07944976       0.03266749      -0.30856592
Br       8.75375086      11.53661311       2.82823005       23      -0.00678694      -0.24773589       0.14051791
Br       5.80829257       2.92910775       2.81980813       24      -0.24970065      -0.01029002       0.07598334
Rb       5.82543365      11.34019563       5.89838919       25      -0.04258598       0.08820879      -0.03147803
Sn       8.74320072       2.91540342       8.55622426       26      -0.28151201       0.32370441       0.47712820
Br       8.57094955       2.99314922       5.75191868       27      -0.01445271      -0.04875255       0.33393164
Br       8.62898315       0.09970828       8.66641031       28       0.06382919      -0.44424537      -0.11288699
Br       5.80053100       2.89270059       8.69390885       29      -0.18638912      -0.01212245      -0.03158783
Rb       5.67540366       5.90397224       0.02536995       30      -0.00459246      -0.10279742       0.02832665
Ge       8.59800065       8.59667353       2.78122132       31      -0.31977620       0.12896464      -0.19022662
Br       8.69673562       8.74530600       0.16470548       32      -0.01036167      -0.06573658       0.13487249
Br       8.64521846       5.83547693       2.73693769       33       0.04064131       0.42036557       0.01757123
Br       5.81588661       8.65496479       2.95898577       34       0.48878254      -0.01118417      -0.04493899
Rb       5.66847229       5.98317151       5.78486605       35      -0.00120424      -0.09625355      -0.01026781
Sn       8.87073757       8.80562632       8.44958127       36      -0.62213054      -0.37237032       0.95073370
Br       8.55750153       8.65142624       5.86605165       37       0.08318830       0.04841383      -0.85972993
Br       8.70912874       5.76302726       8.54312012       38       0.05430546       0.41041165       0.02780018
Br       5.74677061       8.75654144       8.61956556       39      -0.28342693      -0.03500016      -0.03313921
40
Lattice="11.547244120071166 0.0 0.0 0.0 11.553552022087464 0.0 0.0 5.198712994981271e-14 11.547244120071152" Properties=species:S:1:pos:R:3:spacegroup_kinds:I:1:forces:R:3 spacegroup="P 1" unit_cell=conventional occupancy="_JSON {\"0\": {\"Rb\": 1.0}, \"1\": {\"Sn\": 1.0}, \"2\": {\"Br\": 1.0}, \"3\": {\"Br\": 1.0}, \"4\": {\"Br\": 1.0}, \"5\": {\"Rb\": 1.0}, \"6\": {\"Sn\": 1.0}, \"7\": {\"Br\": 1.0}, \"8\": {\"Br\": 1.0}, \"9\": {\"Br\": 1.0}, \"10\": {\"Rb\": 1.0}, \"11\": {\"Sn\": 1.0}, \"12\": {\"Br\": 1.0}, \"13\": {\"Br\": 1.0}, \"14\": {\"Br\": 1.0}, \"15\": {\"Rb\": 1.0}, \"16\": {\"Ge\": 1.0}, \"17\": {\"Br\": 1.0}, \"18\": {\"Br\": 1.0}, \"19\": {\"Br\": 1.0}, \"20\": {\"Rb\": 1.0}, \"21\": {\"Sn\": 1.0}, \"22\": {\"Br\": 1.0}, \"23\": {\"Br\": 1.0}, \"24\": {\"Br\": 1.0}, \"25\": {\"Rb\": 1.0}, \"26\": {\"Sn\": 1.0}, \"27\": {\"Br\": 1.0}, \"28\": {\"Br\": 1.0}, \"29\": {\"Br\": 1.0}, \"30\": {\"Rb\": 1.0}, \"31\": {\"Ge\": 1.0}, \"32\": {\"Br\": 1.0}, \"33\": {\"Br\": 1.0}, \"34\": {\"Br\": 1.0}, \"35\": {\"Rb\": 1.0}, \"36\": {\"Sn\": 1.0}, \"37\": {\"Br\": 1.0}, \"38\": {\"Br\": 1.0}, \"39\": {\"Br\": 1.0}}" candidate_id=582ecbad6c7853b3 formula=RbGe0.31Sn0.69Br3 config_index=2 rattle_stdev=0.08 method=PBE fidelity=phase2_force energy=-124.37085832767534 stress="-0.0024118403916096797 0.0001230687132583176 3.466287354452398e-05 0.0001230687132583176 -0.0024160457872798914 -4.4313497169265406e-05 3.466287354452398e-05 -4.4313497169265406e-05 -0.0018360920842843363" pbc="T T T"
Rb      -0.00901704      11.25306735      11.69004627        0       0.02399317       0.05907397      -0.07645356
Sn       2.77025237       2.86228234       2.78601931        1       0.98566423       0.37292073       0.21290375
Br       2.91688035       2.81813622      -0.00824409        2      -0.08456785       0.07695158      -0.17117129
Br       2.91054385       0.11234375       2.76129141        3      -0.03127803      -0.91406738       0.04204315
Br       0.16807628       2.92790495       2.87635412        4      -1.28911624       0.02757943      -0.04527083
Rb      -0.03224966      11.26129949       5.73622472        5      -0.02531489       0.05188084       0.07403583
Sn       2.82937731       2.98609947       8.59825709        6       0.46673461      -0.00678107      -0.08352735
Br       2.83972898       2.88377850       5.76023448        7       0.00739489      -0.09783009       0.05724092
Br       2.79215495      11.37336055       8.73341358        8       0.01316920      -0.03873470      -0.02243938
Br      11.56050380       2.83272649       8.47733134        9       0.03658064       0.04428981       0.03949095
Rb      11.48426480       5.90885423      11.55470877       10       0.02544651      -0.04118580      -0.02372288
Sn       2.84447550       8.72758361       2.87074585       11       0.27626397      -0.26707731       0.08978292
Br       2.84836234       8.58234305      11.45541866       12       0.02331491      -0.01232180       0.23773189
Br       2.95000225       5.68650540       3.06361386       13      -0.05444241       0.75323173      -0.08239504
Br      11.38361852       8.64603623       2.90419828       14       0.30826790      -0.03583561      -0.01589442
Rb      11.51905330       5.99800561       5.78215422       15      -0.00530928      -0.06730462       0.02040070
Ge       2.87104853       8.77291873       8.68804701       16      -0.21604135      -0.08942062      -0.11107705
Br       2.93142258       8.61754120       5.88385534       17      -0.04710962       0.12761133      -0.20308275
Br       2.99331124       5.77466545       8.62157263       18      -0.04395993      -0.02451081       0.04376946
Br       0.13775985       8.45753542       8.67378734       19       0.10917840       0.07377140      -0.00974339
Rb       5.85673883      11.19450656      11.60793540       20      -0.03312972       0.11897606      -0.03311576
Sn       8.62042407       2.70084455       2.87817761       21      -0.32474432       0.43159418       0.21504350
Br       8.54021008       2.92749030      11.48323586       22       0.08349050       0.04884169       0.37691554
Br       8.74503369      11.42771452       2.88080374       23       0.02075583      -0.03601263      -0.04434091
Br       5.74529569       3.05629377       2.85956800       24       0.55059357      -0.16083871      -0.01757718
Rb       5.73138965      11.23562312       5.79074998       25       0.02733543       0.07564153       0.02546759
Sn       8.75053466       2.92051087       8.72167992       26      -0.51340667      -0.09474284      -0.37526396
Br       8.55218289       2.93429669       5.77576507       27       0.04967114      -0.09686723      -0.24092372
Br       8.71204821      -0.06410675       8.81241217       28       0.01768768       0.33366917       0.01373615
Br       5.81072490       2.92838564       8.61030580       29      -0.05342064      -0.04617804       0.00176736
Rb       5.69339132       5.92863075       0.01634222       30      -0.01943822      -0.13951068       0.01742111
Ge       8.70332045       8.57916422       2.70938265       31      -0.33606818      -0.27984254       0.40860083
Br       8.71218751       8.63937715       0.03780157       32       0.00138951      -0.06772317       0.35441141
Br       8.47735935       5.82410458       2.96323614       33       0.14595801       0.23086916      -0.12800723
Br       5.86160782       8.83011821       2.89180787       34      -0.28423313      -0.00544936      -0.09520085
Rb       5.77384946       5.95485126       5.80350066       35       0.01551802      -0.11488115      -0.02230019
Sn       8.59538381       8.65703942       8.69609015       36       0.20188259       0.06467344      -0.52540162
Br       8.55842280       8.67379056       5.79019430       37       0.07999366       0.07761340      -0.09885495
Br       8.64788492       5.85561075       8.54265202       38       0.05375706      -0.39948616       0.06984858
Br       5.79129862       8.59369285       8.61651544       39      -0.20090286       0.08394894       0.11206107
40
Lattice="11.547244120071166 0.0 0.0 0.0 11.553552022087464 0.0 0.0 5.198712994981271e-14 11.547244120071152" Properties=species:S:1:pos:R:3:spacegroup_kinds:I:1:forces:R:3 spacegroup="P 1" unit_cell=conventional occupancy="_JSON {\"0\": {\"Rb\": 1.0}, \"1\": {\"Sn\": 1.0}, \"2\": {\"Br\": 1.0}, \"3\": {\"Br\": 1.0}, \"4\": {\"Br\": 1.0}, \"5\": {\"Rb\": 1.0}, \"6\": {\"Sn\": 1.0}, \"7\": {\"Br\": 1.0}, \"8\": {\"Br\": 1.0}, \"9\": {\"Br\": 1.0}, \"10\": {\"Rb\": 1.0}, \"11\": {\"Sn\": 1.0}, \"12\": {\"Br\": 1.0}, \"13\": {\"Br\": 1.0}, \"14\": {\"Br\": 1.0}, \"15\": {\"Rb\": 1.0}, \"16\": {\"Ge\": 1.0}, \"17\": {\"Br\": 1.0}, \"18\": {\"Br\": 1.0}, \"19\": {\"Br\": 1.0}, \"20\": {\"Rb\": 1.0}, \"21\": {\"Sn\": 1.0}, \"22\": {\"Br\": 1.0}, \"23\": {\"Br\": 1.0}, \"24\": {\"Br\": 1.0}, \"25\": {\"Rb\": 1.0}, \"26\": {\"Sn\": 1.0}, \"27\": {\"Br\": 1.0}, \"28\": {\"Br\": 1.0}, \"29\": {\"Br\": 1.0}, \"30\": {\"Rb\": 1.0}, \"31\": {\"Ge\": 1.0}, \"32\": {\"Br\": 1.0}, \"33\": {\"Br\": 1.0}, \"34\": {\"Br\": 1.0}, \"35\": {\"Rb\": 1.0}, \"36\": {\"Sn\": 1.0}, \"37\": {\"Br\": 1.0}, \"38\": {\"Br\": 1.0}, \"39\": {\"Br\": 1.0}}" candidate_id=582ecbad6c7853b3 formula=RbGe0.31Sn0.69Br3 config_index=3 rattle_stdev=0.08 method=PBE fidelity=phase2_force energy=-124.10953393905237 stress="-0.0019986618528821864 0.0003217935083328569 6.557972584569192e-05 0.0003217935083328569 -0.002822376469268069 -9.663043035288099e-06 6.557972584569192e-05 -9.663043035288099e-06 -0.001634071193081189" pbc="T T T"
Rb      -0.10568348      11.50053270      11.55104928        0       0.03274061       0.15227435       0.04285274
Sn       2.86779734       2.89511782       2.96357441        1      -0.35468585      -0.37844087      -0.89979879
Br       2.83228315       2.93071364      -0.04223948        2       0.04607910      -0.01821481      -0.23637110
Br       2.99920753      -0.00170364       2.78234017        3       0.03377598      -0.39047294       0.00370900
Br      -0.03452884       2.75871334       2.78441315        4       0.00337651       0.03598052       0.04280109
Rb      -0.01794374      11.27114759       5.71316285        5      -0.03612453       0.09094934      -0.02195038
Sn       2.90786469       2.68397256       8.52681042        6       0.03592776       0.50157146       0.63189226
Br       2.82987221       2.69264596       5.65173330        7      -0.03465217      -0.06638551       0.60979505
Br       2.93990083      11.39495323       8.59720031        8      -0.03311062       0.23828749       0.01740712
Br      11.40730048       2.79322481       8.84176830        9       0.59872110      -0.00059891      -0.02213019
Rb      11.50910189       6.06286869      11.40284906       10       0.03653464      -0.16788804      -0.01558039
Sn       2.84751386       8.56920429       2.82239340       11       0.06444681       0.37327249      -0.00054836
Br       2.99927652       8.64673876      11.43854169       12      -0.08108394      -0.04165245       0.39057824
Br       2.87380403       5.70619482       3.00794045       13      -0.03145003       0.48642183       0.03318699
Br      11.35583158       8.71784638       2.85928173       14       0.88538933      -0.11021916       0.02691661
Rb      11.48654827       6.00489767       5.72103878       15      -0.03662247      -0.06805626       0.00725141
Ge       2.93102667       8.69577268       8.63072986       16      -0.00172559      -0.60619267      -0.03919981
Br       3.01306255       8.68250782       5.92215610       17      -0.03610083       0.01865721      -0.34393827
Br       2.94532948       5.88698777       8.61400860       18      -0.01936125      -0.06506557      -0.05034209
Br       0.04365954       8.53837482       8.65445578       19      -0.07775487       0.05894095       0.01014190
Rb       5.86952677      11.31795865      11.49510015       20      -0.05070688       0.08509263       0.01915349
Sn       8.50871016       2.76516409       2.85538517       21       0.49230035       0.34914287       0.00051670
Br       8.62727462       2.94527343      11.57889218       22      -0.08290990      -0.05699426      -0.05037154
Br       8.85221999      11.48367736       2.80574034       23      -0.14849555      -0.44399891       0.02260943
Br       5.71838359       2.95606618       2.92635975       24       0.00579967      -0.03479525       0.03397417
Rb       5.79591312      11.38095974       5.79903140       25       0.00640082       0.02433811       0.00257320
Sn       8.67860400       2.85716077       8.60299168       26      -0.16290496      -0.02980418       0.07549058
Br       8.78396198       2.81935240       5.76466983       27      -0.00462634      -0.00743347      -0.00096090
Br       8.66713724       0.15060856       8.56608611       28      -0.02745736      -1.27780700       0.08118092
Br       5.76147786       2.85451686       8.70518004       29      -0.40218094      -0.08212776      -0.08303956
Rb       5.72744248       5.99683535       0.06937641       30      -0.00835878      -0.12401547      -0.04141408
Ge       8.69362581       8.64706524       2.94725848       31      -0.19833080      -0.16765021       0.09524978
Br       8.67844348       8.62998377       0.10393305       32       0.04176322      -0.00618811       0.15117305
Br       8.58874323       5.71911219       3.02620976       33       0.08574609       0.35585896      -0.00167589
Br       6.05877482       8.61126600       2.82512909       34      -0.75539173       0.05687526       0.02634328
Rb       5.85806144       6.08279261       5.78327191       35       0.01451489      -0.04784792       0.01289040
Sn       8.66143256       8.60920230       8.81053702       36       0.07009787      -0.00091425      -0.33615526
Br       8.62438042       8.64066527       5.83503470       37       0.02576134       0.02627534      -0.19010832
Br       8.60814581       5.57917989       8.70886125       38       0.00509540       1.30055733       0.00235327
Br       5.68006991       8.68176320       8.74814526       39       0.10387447       0.02146432      -0.01162221
