Rb Sn Br Rb Sn Br Rb Sn Br Rb Ge Br Rb Ge Br Rb Sn Br Rb Ge Br Rb Sn Br
 1.0000000000000000
    11.8863235703896244    0.0000000000000000    0.0000000000000000
     0.0000000000000000   11.8863235703896244    0.0000000000000000
     0.0000000000000000    0.0000000000000000   11.8863235703896244
 Rb  Sn  Br  Rb  Sn  Br  Rb  Sn  Br  Rb  Ge  Br  Rb  Ge  Br  Rb  Sn  Br  Rb  Ge  Br  Rb  Sn  Br 
   1   1   3   1   1   3   1   1   3   1   1   3   1   1   3   1   1   3   1   1   3   1   1   3
Cartesian
  0.0000000000000000  0.0000000000000000  0.0000000000000000
  2.9715808925974057  2.9715808925974057  2.9715808925974057
  2.9715808925974057  2.9715808925974057  0.0000000000000000
  2.9715808925974057  0.0000000000000000  2.9715808925974057
  0.0000000000000000  2.9715808925974057  2.9715808925974057
  0.0000000000000000  0.0000000000000000  5.9431617851948113
  2.9715808925974057  2.9715808925974057  8.9147426777922192
  2.9715808925974057  2.9715808925974057  5.9431617851948113
  2.9715808925974057  0.0000000000000000  8.9147426777922192
  0.0000000000000000  2.9715808925974057  8.9147426777922192
  0.0000000000000000  5.9431617851948113  0.0000000000000000
  2.9715808925974057  8.9147426777922192  2.9715808925974057
  2.9715808925974057  8.9147426777922192  0.0000000000000000
  2.9715808925974057  5.9431617851948113  2.9715808925974057
  0.0000000000000000  8.9147426777922192  2.9715808925974057
  0.0000000000000000  5.9431617851948113  5.9431617851948113
  2.9715808925974057  8.9147426777922192  8.9147426777922192
  2.9715808925974057  8.9147426777922192  5.9431617851948113
  2.9715808925974057  5.9431617851948113  8.9147426777922192
  0.0000000000000000  8.9147426777922192  8.9147426777922192
  5.9431617851948113  0.0000000000000000  0.0000000000000000
  8.9147426777922192  2.9715808925974057  2.9715808925974057
  8.9147426777922192  2.9715808925974057  0.0000000000000000
  8.9147426777922192  0.0000000000000000  2.9715808925974057
  5.9431617851948113  2.9715808925974057  2.9715808925974057
  5.9431617851948113  0.0000000000000000  5.9431617851948113
  8.9147426777922192  2.9715808925974057  8.9147426777922192
  8.9147426777922192  2.9715808925974057  5.9431617851948113
  8.9147426777922192  0.0000000000000000  8.9147426777922192
  5.9431617851948113  2.9715808925974057  8.9147426777922192
  5.9431617851948113  5.9431617851948113  0.0000000000000000
  8.9147426777922192  8.9147426777922192  2.9715808925974057
  8.9147426777922192  8.9147426777922192  0.0000000000000000
  8.9147426777922192  5.9431617851948113  2.9715808925974057
  5.9431617851948113  8.9147426777922192  2.9715808925974057
  5.9431617851948113  5.9431617851948113  5.9431617851948113
  8.9147426777922192  8.9147426777922192  8.9147426777922192
  8.9147426777922192  8.9147426777922192  5.9431617851948113
  8.9147426777922192  5.9431617851948113  8.9147426777922192
  5.9431617851948113  8.9147426777922192  8.9147426777922192
