40
Lattice="12.413851879264802 0.0 0.0 0.0 12.417372062194882 0.0 0.0 -5.4368447524132736e-14 12.41385187926482" Properties=species:S:1:pos:R:3:spacegroup_kinds:I:1:forces:R:3 spacegroup="P 1" unit_cell=conventional occupancy="_JSON {\"0\": {\"Cs\": 1.0}, \"1\": {\"Sn\": 1.0}, \"2\": {\"I\": 1.0}, \"3\": {\"I\": 1.0}, \"4\": {\"I\": 1.0}, \"5\": {\"Cs\": 1.0}, \"6\": {\"Sn\": 1.0}, \"7\": {\"I\": 1.0}, \"8\": {\"I\": 1.0}, \"9\": {\"I\": 1.0}, \"10\": {\"Cs\": 1.0}, \"11\": {\"Sn\": 1.0}, \"12\": {\"I\": 1.0}, \"13\": {\"I\": 1.0}, \"14\": {\"I\": 1.0}, \"15\": {\"Cs\": 1.0}, \"16\": {\"Ge\": 1.0}, \"17\": {\"I\": 1.0}, \"18\": {\"I\": 1.0}, \"19\": {\"I\": 1.0}, \"20\": {\"Cs\": 1.0}, \"21\": {\"Sn\": 1.0}, \"22\": {\"I\": 1.0}, \"23\": {\"I\": 1.0}, \"24\": {\"I\": 1.0}, \"25\": {\"Cs\": 1.0}, \"26\": {\"Sn\": 1.0}, \"27\": {\"I\": 1.0}, \"28\": {\"I\": 1.0}, \"29\": {\"I\": 1.0}, \"30\": {\"Cs\": 1.0}, \"31\": {\"Ge\": 1.0}, \"32\": {\"I\": 1.0}, \"33\": {\"I\": 1.0}, \"34\": {\"I\": 1.0}, \"35\": {\"Cs\": 1.0}, \"36\": {\"Sn\": 1.0}, \"37\": {\"I\": 1.0}, \"38\": {\"I\": 1.0}, \"39\": {\"I\": 1.0}}" candidate_id=87143b5ff88c67eb formula=CsGe0.2Sn0.8I3 config_index=0 rattle_stdev=0.0 method=PBE fidelity=phase2_force energy=-112.13241949665932 stress="-2.2428007819559852e-05 0.0 1.3742335321270985e-11 0.0 -8.245540941498008e-05 -3.6112663848875963e-19 1.3742335321270985e-11 -3.6112663848875963e-19 -2.2428007819560472e-05" pbc="T T T"
Cs      12.41385188      12.32275847       0.00000000        0       0.00000000       0.00854409       0.00000000
Sn       3.10346297       3.10434302       3.10346297        1       0.00022048       0.00022449       0.00022048
I        3.10346297       3.10434302      12.40807764        2      -0.00000019      -0.00000235       0.02474012
I        3.10346297      12.40926193       3.10346297        3      -0.00000198       0.00143506      -0.00000198
I       12.40807764       3.10434302       3.10346297        4       0.02474012      -0.00000235      -0.00000019
Cs       0.00000000      12.32275847       6.20692594        5       0.00000000       0.00854869       0.00000000
Sn       3.10346297       3.10434302       9.31038891        6       0.00022497       0.00016021      -0.00022497
I        3.10346297       3.10434302       6.21270018        7       0.00000291      -0.00000178      -0.02474009
I        3.10346297      12.31473008       9.31038891        8      -0.00000126       0.10218141       0.00000126
I        0.00577424       3.10434302       9.31038891        9      -0.02474012      -0.00000235       0.00000019
Cs      12.41385188       6.30329962       0.00000000       10       0.00000000      -0.00853620       0.00000000
Sn       3.10346297       9.31302905       3.10346297       11       0.00016189      -0.00022135       0.00016189
I        3.10346297       9.31302905      12.31719716       12      -0.00000328       0.00000177       0.11766027
I        3.10346297       6.21679617       3.10346297       13      -0.00000138      -0.00143439      -0.00000138
I       12.31719716       9.31302905       3.10346297       14       0.11766027       0.00000177      -0.00000328
Cs       0.00000000       6.30329962       6.20692594       15       0.00000000      -0.00854277       0.00000000
Ge       3.10346297       9.31302905       9.31038891       16      -0.00000431       0.00000487       0.00000431
I        3.10346297       9.31302905       6.30358066       17      -0.00000358       0.00000062      -0.11762236
I        3.10346297       6.31132801       9.31038891       18       0.00000021      -0.10214436      -0.00000021
I        0.09665472       9.31302905       9.31038891       19      -0.11766027       0.00000177       0.00000328
Cs       6.20692594      12.32275847       0.00000000       20       0.00000000       0.00854869       0.00000000
Sn       9.31038891       3.10434302       3.10346297       21      -0.00022497       0.00016021       0.00022497
I        9.31038891       3.10434302       0.00577424       22       0.00000019      -0.00000235      -0.02474012
I        9.31038891      12.31473008       3.10346297       23       0.00000126       0.10218141      -0.00000126
I        6.21270018       3.10434302       3.10346297       24      -0.02474009      -0.00000178       0.00000291
Cs       6.20692594      12.32275847       6.20692594       25       0.00000000       0.00856197       0.00000000
Sn       9.31038891       3.10434302       9.31038891       26      -0.00022048       0.00022449      -0.00022048
I        9.31038891       3.10434302       6.20115170       27      -0.00000291      -0.00000178       0.02474009
I        9.31038891      12.40926193       9.31038891       28       0.00000198       0.00143506       0.00000198
I        6.20115170       3.10434302       9.31038891       29       0.02474009      -0.00000178      -0.00000291
Cs       6.20692594       6.30329962       0.00000000       30       0.00000000      -0.00854277       0.00000000
Ge       9.31038891       9.31302905       3.10346297       31       0.00000431       0.00000487      -0.00000431
I        9.31038891       9.31302905       0.09665472       32       0.00000328       0.00000177      -0.11766027
I        9.31038891       6.31132801       3.10346297       33      -0.00000021      -0.10214436       0.00000021
I        6.30358066       9.31302905       3.10346297       34      -0.11762236       0.00000062      -0.00000358
Cs       6.20692594       6.30329962       6.20692594       35       0.00000000      -0.00855479       0.00000000
Sn       9.31038891       9.31302905       9.31038891       36      -0.00016189      -0.00022135      -0.00016189
I        9.31038891       9.31302905       6.11027122       37       0.00000358       0.00000062       0.11762236
I        9.31038891       6.21679617       9.31038891       38       0.00000138      -0.00143439       0.00000138
I        6.11027122       9.31302905       9.31038891       39       0.11762236       0.00000062       0.00000358
40
Lattice="12.413851879264802 0.0 0.0 0.0 12.417372062194882 0.0 0.0 -5.4368447524132736e-14 12.41385187926482" Properties=species:S:1:pos:R:3:spacegroup_kinds:I:1:forces:R:3 spacegroup="P 1" unit_cell=conventional occupancy="_JSON {\"0\": {\"Cs\": 1.0}, \"1\": {\"Sn\": 1.0}, \"2\": {\"I\": 1.0}, \"3\": {\"I\": 1.0}, \"4\": {\"I\": 1.0}, \"5\": {\"Cs\": 1.0}, \"6\": {\"Sn\": 1.0}, \"7\": {\"I\": 1.0}, \"8\": {\"I\": 1.0}, \"9\": {\"I\": 1.0}, \"10\": {\"Cs\": 1.0}, \"11\": {\"Sn\": 1.0}, \"12\": {\"I\": 1.0}, \"13\": {\"I\": 1.0}, \"14\": {\"I\": 1.0}, \"15\": {\"Cs\": 1.0}, \"16\": {\"Ge\": 1.0}, \"17\": {\"I\": 1.0}, \"18\": {\"I\": 1.0}, \"19\": {\"I\": 1.0}, \"20\": {\"Cs\": 1.0}, \"21\": {\"Sn\": 1.0}, \"22\": {\"I\": 1.0}, \"23\": {\"I\": 1.0}, \"24\": {\"I\": 1.0}, \"25\": {\"Cs\": 1.0}, \"26\": {\"Sn\": 1.0}, \"27\": {\"I\": 1.0}, \"28\": {\"I\": 1.0}, \"29\": {\"I\": 1.0}, \"30\": {\"Cs\": 1.0}, \"31\": {\"Ge\": 1.0}, \"32\": {\"I\": 1.0}, \"33\": {\"I\": 1.0}, \"34\": {\"I\": 1.0}, \"35\": {\"Cs\": 1.0}, \"36\": {\"Sn\": 1.0}, \"37\": {\"I\": 1.0}, \"38\": {\"I\": 1.0}, \"39\": {\"I\": 1.0}}" candidate_id=87143b5ff88c67eb formula=CsGe0.2Sn0.8I3 config_index=1 rattle_stdev=0.08 method=PBE fidelity=phase2_force energy=-111.80987533415328 stress="-0.0016050018405125708 4.479135557993697e-05 3.8429627904522624e-06 4.479135557993697e-05 -0.0010411911878710242 -8.216104859446766e-05 3.8429627904522624e-06 -8.216104859446766e-05 -0.0020522980196131715" pbc="T T T"
Cs      12.32693617      12.25107326      -0.02450395        0       0.00156213       0.05120880       0.02799322
Sn       2.99626828       3.00781617       3.05212482        1       0.27692068       0.28071646       0.20119526
I        3.20809862       3.25197985      12.47440684        2      -0.08173539      -0.05787843      -0.00523286
I        3.10159906      12.39257681       3.03013339        3       0.01410813       0.02169928       0.00280096
I       12.32209824       3.09745154       3.19753005        4       0.52515129      -0.00587951       0.00635337
Cs      -0.13080734      12.42101399       6.29303684        5       0.05035288       0.03018918      -0.04470664
Sn       3.13504480       3.07332695       9.35746105        6       0.08845326      -0.10032474      -0.16671895
I        2.98879906       3.07845704       6.31293895        7       0.05855350       0.02089752      -0.19520739
I        3.04500356      12.42900889       9.38596122        8      -0.00171111      -0.15765757      -0.00948044
I       -0.01534599       3.09128595       9.23326033        9       0.04830546       0.01160543       0.04489881
Cs      12.38644009       6.30721195      -0.03997056       10      -0.00630706      -0.03301216       0.01441837
Sn       2.92651061       9.33781600       2.97629087       11       0.38584693      -0.28761759      -0.17625230
I        3.16181934       9.30439695      12.26518344       12      -0.06519917       0.02843278       0.26458212
I        2.96801845       6.18731824       2.97623323       13       0.01126764       0.04832966       0.08208295
I       12.43563763       9.35098426       3.17657207       14      -0.34339902       0.00210006       0.02799525
Cs       0.07683762       6.31006303       6.34430441       15       0.01700426      -0.04475739      -0.03167234
Ge       3.17161439       9.25263822       9.12737856       16       0.28787724      -0.02559038       0.12879626
I        3.11220207       9.27701640       6.27054286       17       0.00262695       0.00681779      -0.03743868
I        3.12898167       6.26803937       9.38628223       18      -0.01609936       0.27926078      -0.08147967
I        0.10876952       9.31918124       9.30563688       19      -0.00431829       0.02896039      -0.01999826
Cs       6.20131484      12.27746655       0.02488043       20       0.01306158       0.03424369       0.02222800
Sn       9.36832561       3.14565902       3.18554542       21      -0.44328512      -0.21192717      -0.52454104
I        9.35200112       3.03475593       0.12581945       22       0.04337730       0.02774584      -0.40758170
I        9.40370668      12.35408324       3.04488199       23      -0.02199572       0.04836346       0.13654770
I        6.26712466       3.14506276       3.03646007       24      -0.34043438      -0.01528704       0.06715578
Cs       6.25873753      12.32376163       6.33169307       25      -0.04266813       0.02977079      -0.04170728
Sn       9.39315654       3.13135843       9.20618008       26      -0.14543772       0.27568833       0.31740291
I        9.22090537       3.20910423       6.15969434       27      -0.02204345      -0.03438478       0.46387194
I        9.27893897      12.49269940       9.31636613       28       0.02103600      -0.18902018      -0.02782736
I        6.20830667       3.10865560       9.34386467       29      -0.02065396      -0.00160051      -0.01125307
Cs       6.10870754       6.21613630       0.02536995       30       0.02845110      -0.00364560       0.01748117
Ge       9.24795647       9.24453856       2.99787326       31      -0.28148909       0.13883243      -0.11656372
I        9.34669144       9.39317103       0.20975349       32      -0.01646716      -0.04949116      -0.12466829
I        9.29517428       6.31373685       2.95358963       33       0.04084428       0.04562342       0.05615923
I        6.29423850       9.30282982       3.17563771       34       0.24920741       0.00052650      -0.01614759
Cs       6.10177616       6.29533556       6.21816993       35      -0.00287553      -0.02924007      -0.01021160
Sn       9.52069338       9.45349135       9.09953708       36      -0.28709745      -0.32447087       0.42925257
I        9.20745735       9.29929127       6.25430752       37       0.08436603       0.04854566      -0.34208789
I        9.35908456       6.21931821       9.19307594       38       0.00222129       0.14487421       0.07123031
I        6.13502648       9.40440647       9.26952138       39      -0.10654179      -0.03370219       0.00764362
40
Lattice="12.413851879264802 0.0 0.0 0.0 12.417372062194882 0.0 0.0 -5.4368447524132736e-14 12.41385187926482" Properties=species:S:1:pos:R:3:spacegroup_kinds:I:1:forces:R:3 spacegroup="P 1" unit_cell=conventional occupancy="_JSON {\"0\": {\"Cs\": 1.0}, \"1\": {\"Sn\": 1.0}, \"2\": {\"I\": 1.0}, \"3\": {\"I\": 1.0}, \"4\": {\"I\": 1.0}, \"5\": {\"Cs\": 1.0}, \"6\": {\"Sn\": 1.0}, \"7\": {\"I\": 1.0}, \"8\": {\"I\": 1.0}, \"9\": {\"I\": 1.0}, \"10\": {\"Cs\": 1.0}, \"11\": {\"Sn\": 1.0}, \"12\": {\"I\": 1.0}, \"13\": {\"I\": 1.0}, \"14\": {\"I\": 1.0}, \"15\": {\"Cs\": 1.0}, \"16\": {\"Ge\": 1.0}, \"17\": {\"I\": 1.0}, \"18\": {\"I\": 1.0}, \"19\": {\"I\": 1.0}, \"20\": {\"Cs\": 1.0}, \"21\": {\"Sn\": 1.0}, \"22\": {\"I\": 1.0}, \"23\": {\"I\": 1.0}, \"24\": {\"I\": 1.0}, \"25\": {\"Cs\": 1.0}, \"26\": {\"Sn\": 1.0}, \"27\": {\"I\": 1.0}, \"28\": {\"I\": 1.0}, \"29\": {\"I\": 1.0}, \"30\": {\"Cs\": 1.0}, \"31\": {\"Ge\": 1.0}, \"32\": {\"I\": 1.0}, \"33\": {\"I\": 1.0}, \"34\": {\"I\": 1.0}, \"35\": {\"Cs\": 1.0}, \"36\": {\"Sn\": 1.0}, \"37\": {\"I\": 1.0}, \"38\": {\"I\": 1.0}, \"39\": {\"I\": 1.0}}" candidate_id=87143b5ff88c67eb formula=CsGe0.2Sn0.8I3 config_index=2 rattle_stdev=0.08 method=PBE fidelity=phase2_force energy=-111.71555006098662 stress="-0.0013591554169414806 9.928449091672565e-05 -7.534543082745057e-06 9.928449091672565e-05 -0.001504013201112043 -1.5649796084192533e-05 -7.534543082745057e-06 -1.5649796084192533e-05 -0.001028691446911939" pbc="T T T"
Cs      12.40483484      12.23663335       0.14280215        0       0.01854207       0.00666853      -0.06802756
Sn       2.98690431       3.07823735       3.00267125        1       0.65056345       0.26903879       0.09833203
I        3.13353229       3.03409123      12.38007958        2      -0.04731290       0.04310084       0.01625782
I        3.12719579      12.50533488       2.97794335        3      -0.00517935      -0.57458884       0.05434978
I       12.55639994       3.14385996       3.09300606        4      -0.87506621       0.02346302      -0.02543290
Cs      -0.03224966      12.24486549       6.16952860        5      -0.01411632      -0.00839102       0.05421014
Sn       3.04602925       3.20205448       9.24821291        6       0.39725237       0.17658077      -0.03101388
I        3.05638092       3.09973351       6.21906657        7       0.03311778      -0.09124034      -0.08880493
I        3.00880689      12.19083069       9.38336940        8       0.02633102       0.29574692      -0.01602471
I        0.03878789       3.04868150       9.12728716        9      -0.17665769       0.01348338       0.05208292
Cs      12.35087256       6.22101829       0.00746465       10       0.02806775       0.01116662      -0.01384904
Sn       3.06112744       9.37544864       3.08739779       11       0.20713609      -0.21685643       0.02807268
I        3.06501428       9.23020808      12.27697841       12       0.03164499      -0.03234990       0.44372894
I        3.16665419       6.14279636       3.28026580       13      -0.03135527       0.47386000      -0.07150223
I       12.20517827       9.29390126       3.12085022       14       0.52400433      -0.04384410       0.01882555
Cs      -0.02819082       6.31016967       6.21545810       15      -0.00154662       0.00054679       0.00664282
Ge       3.08770047       9.42078376       9.33800283       16      -0.18173765      -0.12244607      -0.08725334
I        3.14807452       9.26540623       6.36220723       17      -0.02958889       0.07556684      -0.39402630
I        3.20996318       6.25292538       9.27152845       18      -0.03841443      -0.34229057       0.03525802
I        0.18280785       9.10540045       9.32374316       19      -0.12089631       0.04699361      -0.01082340
Cs       6.29004271      12.17807256       0.06069128       20      -0.03052398       0.05511437      -0.03733507
Sn       9.27037988       2.91679956       3.09482955       21      -0.22590263       0.14838382       0.15668269
I        9.19016590       3.14344531      -0.03848005       22       0.07853194       0.03784372       0.12489595
I        9.39498951      12.24518465       3.09745568       23      -0.00439541       0.34238321      -0.00722823
I        6.20412778       3.27224878       3.07621994       24       0.33775226      -0.13248592      -0.00340793
Cs       6.16469353      12.21918912       6.22405386       25       0.02149899       0.03108319       0.02520984
Sn       9.40049048       3.13646588       9.37163573       26      -0.36037643      -0.07182290      -0.22420006
I        9.20213871       3.15025170       6.18354073       27       0.05027296      -0.07017173      -0.07356206
I        9.36200403      12.32888438       9.46236799       28       0.02909371       0.45409303      -0.00850935
I        6.21850057       3.14434065       9.26026162       29       0.07294897      -0.06355581       0.00448968
Cs       6.12669520       6.24079481       0.01634222       30      -0.01187819      -0.03394385       0.00371255
Ge       9.35327627       9.22702925       2.92603459       31      -0.27727989      -0.24866470       0.29535690
I        9.36214333       9.28724218       0.08284958       32      -0.00171988      -0.05526455       0.01622184
I        9.12731517       6.30236450       3.17988807       33       0.11359797      -0.00667289      -0.08338560
I        6.33995971       9.47798324       3.10845981       34      -0.45562442      -0.02048730      -0.04703351
Cs       6.20715333       6.26701532       6.23680454       35       0.00389651      -0.02420822      -0.01035335
Sn       9.24533963       9.30490445       9.34604597       36       0.03875325       0.08827760      -0.43153506
I        9.20837862       9.32165559       6.17845017       37       0.07169223       0.05894478       0.14854843
I        9.29784074       6.31190171       9.19260784       38       0.05465037      -0.55174225       0.05832807
I        6.17955449       9.24155788       9.26647126       39       0.09568537       0.05814199       0.09093812
40
Lattice="12.413851879264802 0.0 0.0 0.0 12.417372062194882 0.0 0.0 -5.4368447524132736e-14 12.41385187926482" Properties=species:S:1:pos:R:3:spacegroup_kinds:I:1:forces:R:3 spacegroup="P 1" unit_cell=conventional occupancy="_JSON {\"0\": {\"Cs\": 1.0}, \"1\": {\"Sn\": 1.0}, \"2\": {\"I\": 1.0}, \"3\": {\"I\": 1.0}, \"4\": {\"I\": 1.0}, \"5\": {\"Cs\": 1.0}, \"6\": {\"Sn\": 1.0}, \"7\": {\"I\": 1.0}, \"8\": {\"I\": 1.0}, \"9\": {\"I\": 1.0}, \"10\": {\"Cs\": 1.0}, \"11\": {\"Sn\": 1.0}, \"12\": {\"I\": 1.0}, \"13\": {\"I\": 1.0}, \"14\": {\"I\": 1.0}, \"15\": {\"Cs\": 1.0}, \"16\": {\"Ge\": 1.0}, \"17\": {\"I\": 1.0}, \"18\": {\"I\": 1.0}, \"19\": {\"I\": 1.0}, \"20\": {\"Cs\": 1.0}, \"21\": {\"Sn\": 1.0}, \"22\": {\"I\": 1.0}, \"23\": {\"I\": 1.0}, \"24\": {\"I\": 1.0}, \"25\": {\"Cs\": 1.0}, \"26\": {\"Sn\": 1.0}, \"27\": {\"I\": 1.0}, \"28\": {\"I\": 1.0}, \"29\": {\"I\": 1.0}, \"30\": {\"Cs\": 1.0}, \"31\": {\"Ge\": 1.0}, \"32\": {\"I\": 1.0}, \"33\": {\"I\": 1.0}, \"34\": {\"I\": 1.0}, \"35\": {\"Cs\": 1.0}, \"36\": {\"Sn\": 1.0}, \"37\": {\"I\": 1.0}, \"38\": {\"I\": 1.0}, \"39\": {\"I\": 1.0}}" candidate_id=87143b5ff88c67eb formula=CsGe0.2Sn0.8I3 config_index=3 rattle_stdev=0.08 method=PBE fidelity=phase2_force energy=-111.42353118354173 stress="-0.0015402137209292648 0.0001842905495781192 5.818205103877111e-05 0.0001842905495781192 -0.001585713207806662 -3.962001002901689e-06 5.818205103877111e-05 -3.962001002901689e-06 -0.0009617853289391537" pbc="T T T"
Cs      12.30816840      12.48409870       0.00380516        0       0.04781845       0.02367898       0.01348104
Sn       3.08444928       3.11107283       3.18022635        1      -0.28612310      -0.30079635      -0.63495290
I        3.04893509       3.14666865      12.34608419        2       0.03339169      -0.00500866      -0.07663821
I        3.21585947      12.39128749       2.99899211        3       0.01856402      -0.16476430       0.00326380
I       12.35379483       2.97466835       3.00106509        4       0.16704973       0.05579461       0.04015291
Cs      -0.01794374      12.25471359       6.14646673        5      -0.01653387       0.01302334      -0.00758943
Sn       3.12451663       2.89992757       9.17676624        6       0.02185071       0.24603012       0.49985374
I        3.04652415       2.90860097       6.11056539        7      -0.03547675      -0.00891721       0.32075506
I        3.15655277      12.21242336       9.24715613        8      -0.05684077       0.58075807       0.03610281
I       -0.11441543       3.00917982       9.49172412        9       0.36212855       0.03925760      -0.04253260
Cs      12.37570965       6.37503274      -0.14439506       10       0.03511305      -0.07948231       0.01088833
Sn       3.06416580       9.21706932       3.03904534       11      -0.02841462       0.32059855      -0.06873208
I        3.21592846       9.29460379      12.26010144       12      -0.08086571      -0.02977217       0.59789807
I        3.09045597       6.16248578       3.22459239       13      -0.01745631       0.20065872       0.01243795
I       12.17739133       9.36571141       3.07593367       14       1.06629115      -0.10510667       0.02917254
Cs      -0.06069585       6.31706173       6.15434266       15      -0.02087205      -0.00664597       0.01469106
Ge       3.14767861       9.34363771       9.28068568       16      -0.03576262      -0.52961519      -0.03864460
I        3.22971449       9.33037285       6.40050799       17      -0.03655563       0.00726566      -0.51882176
I        3.16198142       6.36524770       9.26396442       18      -0.02239483      -0.29454747      -0.02700442
I        0.08870755       9.18623985       9.30441160       19      -0.27672585       0.05899990       0.00502776
Cs       6.30283065      12.30152465      -0.05214397       20      -0.03853789       0.02458516       0.01570924
Sn       9.15866598       2.98111910       3.07203711       21       0.39501082       0.19432262       0.01651322
I        9.27723044       3.16122844       0.05717627       22      -0.06486112      -0.03009625      -0.17851077
I        9.50217581      12.30114750       3.02239227       23      -0.15377365      -0.05061576       0.04245806
I        6.17721568       3.17202119       3.14301169       24      -0.14871988      -0.03081436       0.02226084
Cs       6.22921700      12.36452574       6.23233528       25       0.01278781      -0.03297306      -0.00732425
Sn       9.32855982       3.07311578       9.25294750       26      -0.09230668      -0.05653924       0.00851931
I        9.43391780       3.03530741       6.17244550       27      -0.01136925       0.00776657       0.16287109
I        9.31709306      12.54359969       9.21604193       28      -0.03196721      -0.89539014       0.06839467
I        6.16925353       3.07047187       9.35513586       29      -0.19358432      -0.03141239      -0.06083379
Cs       6.16074636       6.30899941       0.06937641       30      -0.00583329      -0.04199633      -0.03848372
Ge       9.34358163       9.29493027       3.16391042       31      -0.17694767      -0.16027365       0.13887634
I        9.32839930       9.27784880       0.14898106       32       0.02716257      -0.01632098      -0.19132682
I        9.23869905       6.19737212       3.24286170       33       0.08988126       0.08048393      -0.02157500
I        6.53712671       9.25913103       3.04178103       34      -0.90497260       0.06107385       0.03645721
Cs       6.29136532       6.39495666       6.21657578       35       0.00061329       0.00234460       0.02330782
Sn       9.31138838       9.25706733       9.46049284       36       0.09110137       0.00856686      -0.19062535
I        9.27433624       9.28853030       6.22329057       37       0.02244424       0.02852319       0.00560621
I        9.25810163       6.03547084       9.35881707       38      -0.00874735       0.90791605      -0.00557865
I        6.06832578       9.32962823       9.39810108       39       0.34944605       0.00564253      -0.01637411
