Cs Sn I  Cs Sn I  Cs Sn I  Cs Ge I  Cs Ge I  Cs Sn I  Cs Ge I  Cs Sn I 
 1.0000000000000000
    12.9037088071608306    0.0000000000000000    0.0000000000000000
     0.0000000000000000   12.9037088071608306    0.0000000000000000
     0.0000000000000000    0.0000000000000000   12.9037088071608306
 Cs  Sn  I   Cs  Sn  I   Cs  Sn  I   Cs  Ge  I   Cs  Ge  I   Cs  Sn  I   Cs  Ge  I   Cs  Sn  I  
   1   1   3   1   1   3   1   1   3   1   1   3   1   1   3   1   1   3   1   1   3   1   1   3
Cartesian
  0.0000000000000000  0.0000000000000000  0.0000000000000000
  3.2259272017902076  3.2259272017902076  3.2259272017902076
  3.2259272017902076  3.2259272017902076  0.0000000000000000
  3.2259272017902076  0.0000000000000000  3.2259272017902076
  0.0000000000000000  3.2259272017902076  3.2259272017902076
  0.0000000000000000  0.0000000000000000  6.4518544035804144
  3.2259272017902076  3.2259272017902076  9.6777816053706225
  3.2259272017902076  3.2259272017902076  6.4518544035804144
  3.2259272017902076  0.0000000000000000  9.6777816053706225
  0.0000000000000000  3.2259272017902076  9.6777816053706225
  0.0000000000000000  6.4518544035804144  0.0000000000000000
  3.2259272017902076  9.6777816053706225  3.2259272017902076
  3.2259272017902076  9.6777816053706225  0.0000000000000000
  3.2259272017902076  6.4518544035804144  3.2259272017902076
  0.0000000000000000  9.6777816053706225  3.2259272017902076
  0.0000000000000000  6.4518544035804144  6.4518544035804144
  3.2259272017902076  9.6777816053706225  9.6777816053706225
  3.2259272017902076  9.6777816053706225  6.4518544035804144
  3.2259272017902076  6.4518544035804144  9.6777816053706225
  0.0000000000000000  9.6777816053706225  9.6777816053706225
  6.4518544035804144  0.0000000000000000  0.0000000000000000
  9.6777816053706225  3.2259272017902076  3.2259272017902076
  9.6777816053706225  3.2259272017902076  0.0000000000000000
  9.6777816053706225  0.0000000000000000  3.2259272017902076
  6.4518544035804144  3.2259272017902076  3.2259272017902076
  6.4518544035804144  0.0000000000000000  6.4518544035804144
  9.6777816053706225  3.2259272017902076  9.6777816053706225
  9.6777816053706225  3.2259272017902076  6.4518544035804144
  9.6777816053706225  0.0000000000000000  9.6777816053706225
  6.4518544035804144  3.2259272017902076  9.6777816053706225
  6.4518544035804144  6.4518544035804144  0.0000000000000000
  9.6777816053706225  9.6777816053706225  3.2259272017902076
  9.6777816053706225  9.6777816053706225  0.0000000000000000
  9.6777816053706225  6.4518544035804144  3.2259272017902076
  6.4518544035804144  9.6777816053706225  3.2259272017902076
  6.4518544035804144  6.4518544035804144  6.4518544035804144
  9.6777816053706225  9.6777816053706225  9.6777816053706225
  9.6777816053706225  9.6777816053706225  6.4518544035804144
  9.6777816053706225  6.4518544035804144  9.6777816053706225
  6.4518544035804144  9.6777816053706225  9.6777816053706225
