Cs Pb I  Cs Pb I  Cs Ge I  Cs Ge I  Cs Ge I  Cs Pb I  Cs Ge I  Cs Ge I 
 1.0000000000000000
    12.5043348971466699    0.0000000000000000    0.0000000000000000
     0.0000000000000000   12.5043348971466699    0.0000000000000000
     0.0000000000000000    0.0000000000000000   12.5043348971466699
 Cs  Pb  I   Cs  Pb  I   Cs  Ge  I   Cs  Ge  I   Cs  Ge  I   Cs  Pb  I   Cs  Ge  I   Cs  Ge  I  
   1   1   3   1   1   3   1   1   3   1   1   3   1   1   3   1   1   3   1   1   3   1   1   3
Cartesian
  0.0000000000000000  0.0000000000000000  0.0000000000000000
  3.1260837242866675  3.1260837242866675  3.1260837242866675
  3.1260837242866675  3.1260837242866675  0.0000000000000000
  3.1260837242866675  0.0000000000000000  3.1260837242866675
  0.0000000000000000  3.1260837242866675  3.1260837242866675
  0.0000000000000000  0.0000000000000000  6.2521674485733341
  3.1260837242866675  3.1260837242866675  9.3782511728600024
  3.1260837242866675  3.1260837242866675  6.2521674485733341
  3.1260837242866675  0.0000000000000000  9.3782511728600024
  0.0000000000000000  3.1260837242866675  9.3782511728600024
  0.0000000000000000  6.2521674485733341  0.0000000000000000
  3.1260837242866675  9.3782511728600024  3.1260837242866675
  3.1260837242866675  9.3782511728600024  0.0000000000000000
  3.1260837242866675  6.2521674485733341  3.1260837242866675
  0.0000000000000000  9.3782511728600024  3.1260837242866675
  0.0000000000000000  6.2521674485733341  6.2521674485733341
  3.1260837242866675  9.3782511728600024  9.3782511728600024
  3.1260837242866675  9.3782511728600024  6.2521674485733341
  3.1260837242866675  6.2521674485733341  9.3782511728600024
  0.0000000000000000  9.3782511728600024  9.3782511728600024
  6.2521674485733341  0.0000000000000000  0.0000000000000000
  9.3782511728600024  3.1260837242866675  3.1260837242866675
  9.3782511728600024  3.1260837242866675  0.0000000000000000
  9.3782511728600024  0.0000000000000000  3.1260837242866675
  6.2521674485733341  3.1260837242866675  3.1260837242866675
  6.2521674485733341  0.0000000000000000  6.2521674485733341
  9.3782511728600024  3.1260837242866675  9.3782511728600024
  9.3782511728600024  3.1260837242866675  6.2521674485733341
  9.3782511728600024  0.0000000000000000  9.3782511728600024
  6.2521674485733341  3.1260837242866675  9.3782511728600024
  6.2521674485733341  6.2521674485733341  0.0000000000000000
  9.3782511728600024  9.3782511728600024  3.1260837242866675
  9.3782511728600024  9.3782511728600024  0.0000000000000000
  9.3782511728600024  6.2521674485733341  3.1260837242866675
  6.2521674485733341  9.3782511728600024  3.1260837242866675
  6.2521674485733341  6.2521674485733341  6.2521674485733341
  9.3782511728600024  9.3782511728600024  9.3782511728600024
  9.3782511728600024  9.3782511728600024  6.2521674485733341
  9.3782511728600024  6.2521674485733341  9.3782511728600024
  6.2521674485733341  9.3782511728600024  9.3782511728600024
