Cs Pb I  Cs Pb I  Cs Pb I  Cs Pb I  Cs Pb I  Cs Pb I  Cs Ge I  Cs Pb I 
 1.0000000000000000
    13.3016685036126177    0.0000000000000000    0.0000000000000000
     0.0000000000000000   13.3016685036126177    0.0000000000000000
     0.0000000000000000    0.0000000000000000   13.3016685036126177
 Cs  Pb  I   Cs  Pb  I   Cs  Pb  I   Cs  Pb  I   Cs  Pb  I   Cs  Pb  I   Cs  Ge  I   Cs  Pb  I  
   1   1   3   1   1   3   1   1   3   1   1   3   1   1   3   1   1   3   1   1   3   1   1   3
Cartesian
  0.0000000000000000  0.0000000000000000  0.0000000000000000
  3.3254171259031535  3.3254171259031535  3.3254171259031535
  3.3254171259031535  3.3254171259031535  0.0000000000000000
  3.3254171259031535  0.0000000000000000  3.3254171259031535
  0.0000000000000000  3.3254171259031535  3.3254171259031535
  0.0000000000000000  0.0000000000000000  6.6508342518063079
  3.3254171259031535  3.3254171259031535  9.9762513777094615
  3.3254171259031535  3.3254171259031535  6.6508342518063079
  3.3254171259031535  0.0000000000000000  9.9762513777094615
  0.0000000000000000  3.3254171259031535  9.9762513777094615
  0.0000000000000000  6.6508342518063079  0.0000000000000000
  3.3254171259031535  9.9762513777094615  3.3254171259031535
  3.3254171259031535  9.9762513777094615  0.0000000000000000
  3.3254171259031535  6.6508342518063079  3.3254171259031535
  0.0000000000000000  9.9762513777094615  3.3254171259031535
  0.0000000000000000  6.6508342518063079  6.6508342518063079
  3.3254171259031535  9.9762513777094615  9.9762513777094615
  3.3254171259031535  9.9762513777094615  6.6508342518063079
  3.3254171259031535  6.6508342518063079  9.9762513777094615
  0.0000000000000000  9.9762513777094615  9.9762513777094615
  6.6508342518063079  0.0000000000000000  0.0000000000000000
  9.9762513777094615  3.3254171259031535  3.3254171259031535
  9.9762513777094615  3.3254171259031535  0.0000000000000000
  9.9762513777094615  0.0000000000000000  3.3254171259031535
  6.6508342518063079  3.3254171259031535  3.3254171259031535
  6.6508342518063079  0.0000000000000000  6.6508342518063079
  9.9762513777094615  3.3254171259031535  9.9762513777094615
  9.9762513777094615  3.3254171259031535  6.6508342518063079
  9.9762513777094615  0.0000000000000000  9.9762513777094615
  6.6508342518063079  3.3254171259031535  9.9762513777094615
  6.6508342518063079  6.6508342518063079  0.0000000000000000
  9.9762513777094615  9.9762513777094615  3.3254171259031535
  9.9762513777094615  9.9762513777094615  0.0000000000000000
  9.9762513777094615  6.6508342518063079  3.3254171259031535
  6.6508342518063079  9.9762513777094615  3.3254171259031535
  6.6508342518063079  6.6508342518063079  6.6508342518063079
  9.9762513777094615  9.9762513777094615  9.9762513777094615
  9.9762513777094615  9.9762513777094615  6.6508342518063079
  9.9762513777094615  6.6508342518063079  9.9762513777094615
  6.6508342518063079  9.9762513777094615  9.9762513777094615
