Cs Pb I  Cs Pb I  Cs Pb I  Cs Ge I  Cs Pb I  Cs Pb I  Cs Ge I  Cs Pb I 
 1.0000000000000000
    13.1868343623479252    0.0000000000000000    0.0000000000000000
     0.0000000000000000   13.1868343623479252    0.0000000000000000
     0.0000000000000000    0.0000000000000000   13.1868343623479252
 Cs  Pb  I   Cs  Pb  I   Cs  Pb  I   Cs  Ge  I   Cs  Pb  I   Cs  Pb  I   Cs  Ge  I   Cs  Pb  I  
   1   1   3   1   1   3   1   1   3   1   1   3   1   1   3   1   1   3   1   1   3   1   1   3
Cartesian
  0.0000000000000000  0.0000000000000000  0.0000000000000000
  3.2967085905869813  3.2967085905869813  3.2967085905869813
  3.2967085905869813  3.2967085905869813  0.0000000000000000
  3.2967085905869813  0.0000000000000000  3.2967085905869813
  0.0000000000000000  3.2967085905869813  3.2967085905869813
  0.0000000000000000  0.0000000000000000  6.5934171811739617
  3.2967085905869813  3.2967085905869813  9.8901257717609443
  3.2967085905869813  3.2967085905869813  6.5934171811739617
  3.2967085905869813  0.0000000000000000  9.8901257717609443
  0.0000000000000000  3.2967085905869813  9.8901257717609443
  0.0000000000000000  6.5934171811739617  0.0000000000000000
  3.2967085905869813  9.8901257717609443  3.2967085905869813
  3.2967085905869813  9.8901257717609443  0.0000000000000000
  3.2967085905869813  6.5934171811739617  3.2967085905869813
  0.0000000000000000  9.8901257717609443  3.2967085905869813
  0.0000000000000000  6.5934171811739617  6.5934171811739617
  3.2967085905869813  9.8901257717609443  9.8901257717609443
  3.2967085905869813  9.8901257717609443  6.5934171811739617
  3.2967085905869813  6.5934171811739617  9.8901257717609443
  0.0000000000000000  9.8901257717609443  9.8901257717609443
  6.5934171811739617  0.0000000000000000  0.0000000000000000
  9.8901257717609443  3.2967085905869813  3.2967085905869813
  9.8901257717609443  3.2967085905869813  0.0000000000000000
  9.8901257717609443  0.0000000000000000  3.2967085905869813
  6.5934171811739617  3.2967085905869813  3.2967085905869813
  6.5934171811739617  0.0000000000000000  6.5934171811739617
  9.8901257717609443  3.2967085905869813  9.8901257717609443
  9.8901257717609443  3.2967085905869813  6.5934171811739617
  9.8901257717609443  0.0000000000000000  9.8901257717609443
  6.5934171811739617  3.2967085905869813  9.8901257717609443
  6.5934171811739617  6.5934171811739617  0.0000000000000000
  9.8901257717609443  9.8901257717609443  3.2967085905869813
  9.8901257717609443  9.8901257717609443  0.0000000000000000
  9.8901257717609443  6.5934171811739617  3.2967085905869813
  6.5934171811739617  9.8901257717609443  3.2967085905869813
  6.5934171811739617  6.5934171811739617  6.5934171811739617
  9.8901257717609443  9.8901257717609443  9.8901257717609443
  9.8901257717609443  9.8901257717609443  6.5934171811739617
  9.8901257717609443  6.5934171811739617  9.8901257717609443
  6.5934171811739617  9.8901257717609443  9.8901257717609443
