40
Lattice="12.217039359114667 0.0 0.0 0.02786697952058973 12.217007576882866 0.0 -0.0005677784919689015 0.0005690750710857146 12.342537023320471" Properties=species:S:1:pos:R:3:spacegroup_kinds:I:1:forces:R:3 spacegroup="P 1" unit_cell=conventional occupancy="_JSON {\"0\": {\"Cs\": 1.0}, \"1\": {\"Sn\": 1.0}, \"2\": {\"I\": 1.0}, \"3\": {\"I\": 1.0}, \"4\": {\"I\": 1.0}, \"5\": {\"Cs\": 1.0}, \"6\": {\"Sn\": 1.0}, \"7\": {\"I\": 1.0}, \"8\": {\"I\": 1.0}, \"9\": {\"I\": 1.0}, \"10\": {\"Cs\": 1.0}, \"11\": {\"Sn\": 1.0}, \"12\": {\"Cl\": 1.0}, \"13\": {\"Cl\": 1.0}, \"14\": {\"I\": 1.0}, \"15\": {\"Cs\": 1.0}, \"16\": {\"Sn\": 1.0}, \"17\": {\"I\": 1.0}, \"18\": {\"Cl\": 1.0}, \"19\": {\"I\": 1.0}, \"20\": {\"Cs\": 1.0}, \"21\": {\"Sn\": 1.0}, \"22\": {\"I\": 1.0}, \"23\": {\"I\": 1.0}, \"24\": {\"Cl\": 1.0}, \"25\": {\"Cs\": 1.0}, \"26\": {\"Sn\": 1.0}, \"27\": {\"I\": 1.0}, \"28\": {\"I\": 1.0}, \"29\": {\"I\": 1.0}, \"30\": {\"Cs\": 1.0}, \"31\": {\"Sn\": 1.0}, \"32\": {\"I\": 1.0}, \"33\": {\"Cl\": 1.0}, \"34\": {\"Cl\": 1.0}, \"35\": {\"Cs\": 1.0}, \"36\": {\"Sn\": 1.0}, \"37\": {\"I\": 1.0}, \"38\": {\"I\": 1.0}, \"39\": {\"Cl\": 1.0}}" candidate_id=c8cbc722389f0a76 formula=FASnCl0.28I0.723 config_index=0 rattle_stdev=0.0 method=PBE fidelity=phase2_force energy=-119.84007981437051 stress="0.0005977900337362676 -9.15839225253404e-05 -1.7015893017255388e-05 -9.15839225253404e-05 0.0005982078393694835 1.705475051507589e-05 -1.7015893017255388e-05 1.705475051507589e-05 -0.0026282442802967785" pbc="T T T"
Cs      12.21428402       0.00276163       0.12662415        0      -0.00009071       0.00009092      -0.00152792
Sn       3.28374687       3.37258641       3.07667381        1      -0.17830341      -0.03446303      -0.00230283
I        3.14878627       3.20713256       0.03376349        2      -0.00354436      -0.00272274      -0.12615761
I        3.26762653      12.06373995       2.98247439        3       0.02392108       0.04861976      -0.03022167
I        0.05763321       3.25146399       3.09048019        4       0.02522630       0.03440671      -0.00204855
Cs       0.05690224      12.18790601       6.02834538        5      -0.00407268       0.00408198      -0.01028003
Sn       3.07171749       3.39994607       9.26716337        6       0.01051003      -0.14551255       0.03113321
I        3.13522437       3.22988620       6.14372585        7       0.00201837       0.00028717       0.11909327
I        3.20071679      12.03378262       9.40705830        8       0.02740095       0.06424046       0.02822212
I        0.02634209       3.11173426       9.24891981        9      -0.15755598      -0.01969404      -0.00092172
Cs      12.23030634       6.12178399       0.02340690       10       0.00818396      -0.00537247      -0.01340074
Sn       3.24528082       8.99224645       2.96096794       11      -0.11840685       0.11867724       0.12183400
Cl       3.30033168       8.93706987      12.21128077       12       0.03829411      -0.03838155      -0.04336987
Cl       3.31179882       6.00750911       3.02926601       13       0.04849489      -0.05773971      -0.01416730
I        0.17374433       8.97690685       2.98247439       14      -0.04867420      -0.02381012      -0.03022167
Cs       0.02095654       6.16994211       6.14543846       15       0.00706887      -0.00564268       0.00736578
Sn       3.20652700       9.03108877       9.58325957       16      -0.07147853       0.07164176      -0.09322206
I        3.22154370       9.01603777       5.98901409       17       0.03633210      -0.03641507       0.05236820
Cl       3.10406395       5.96389518       9.34863905       18      -0.00284116       0.08632271       0.00176918
I        0.20385421       9.04374809       9.40705830       19      -0.06430280      -0.02725435       0.02822212
Cs       6.09524104       0.00069679       0.02340690       20       0.00535379      -0.00819620      -0.01340074
Sn       8.88358069       3.34107095       3.08144031       21       0.07615638      -0.07633029      -0.00014467
I        9.04860123       3.17567358       0.04507330       22       0.01533783      -0.01537285      -0.21858730
I        8.99331935      12.16679108       3.09048019       23      -0.03446417      -0.02514775      -0.00204855
Cl       6.15183859       3.37966472       3.08161695       24       0.02335484       0.02962721       0.00790164
Cs       6.07493247      12.21012469       6.14543846       25       0.00562654      -0.00708172       0.00736578
Sn       9.14758851       3.07646024       9.25161745       26      -0.04761911       0.04772785      -0.00210943
I        9.06180802       3.16243663       6.12060659       27       0.01360460      -0.01363567       0.21860779
I        9.13312009      12.19776340       9.24891981       28       0.02005337       0.15751064      -0.00092172
I        6.07702346       3.12480159       9.25014384       29       0.17313194      -0.03115228      -0.00983881
Cs       6.04824433       6.18288209       0.18016766       30      -0.00471674       0.00472751       0.01515436
Sn       8.86483850       8.94096210       3.07667381       31       0.03486965       0.17822434      -0.00230283
I        9.03059976       9.07554495       0.03376349       32       0.00273082       0.00353814      -0.12615761
Cl       8.85121811       6.07289398       3.08161695       33      -0.02968040      -0.02328720       0.00790164
Cl       6.22985867       8.91892045       3.02926601       34       0.05762894      -0.04862647      -0.01416730
Cs       6.11089248       6.12009088       5.98719137       35       0.00593392      -0.00594747      -0.02804397
Sn       8.83796255       9.15305333       9.26716337       36       0.14548820      -0.01084191       0.03113321
I        9.00787711       9.08915871       6.14372585       37      -0.00029177      -0.00201771       0.11909327
I        9.10625123       6.14712758       9.25014384       38       0.03075729      -0.17320255      -0.00983881
Cl       6.27394632       9.12655530       9.34863905       39      -0.08631600       0.00303805       0.00176918
40
Lattice="12.217039359114667 0.0 0.0 0.02786697952058973 12.217007576882866 0.0 -0.0005677784919689015 0.0005690750710857146 12.342537023320471" Properties=species:S:1:pos:R:3:spacegroup_kinds:I:1:forces:R:3 spacegroup="P 1" unit_cell=conventional occupancy="_JSON {\"0\": {\"Cs\": 1.0}, \"1\": {\"Sn\": 1.0}, \"2\": {\"I\": 1.0}, \"3\": {\"I\": 1.0}, \"4\": {\"I\": 1.0}, \"5\": {\"Cs\": 1.0}, \"6\": {\"Sn\": 1.0}, \"7\": {\"I\": 1.0}, \"8\": {\"I\": 1.0}, \"9\": {\"I\": 1.0}, \"10\": {\"Cs\": 1.0}, \"11\": {\"Sn\": 1.0}, \"12\": {\"Cl\": 1.0}, \"13\": {\"Cl\": 1.0}, \"14\": {\"I\": 1.0}, \"15\": {\"Cs\": 1.0}, \"16\": {\"Sn\": 1.0}, \"17\": {\"I\": 1.0}, \"18\": {\"Cl\": 1.0}, \"19\": {\"I\": 1.0}, \"20\": {\"Cs\": 1.0}, \"21\": {\"Sn\": 1.0}, \"22\": {\"I\": 1.0}, \"23\": {\"I\": 1.0}, \"24\": {\"Cl\": 1.0}, \"25\": {\"Cs\": 1.0}, \"26\": {\"Sn\": 1.0}, \"27\": {\"I\": 1.0}, \"28\": {\"I\": 1.0}, \"29\": {\"I\": 1.0}, \"30\": {\"Cs\": 1.0}, \"31\": {\"Sn\": 1.0}, \"32\": {\"I\": 1.0}, \"33\": {\"Cl\": 1.0}, \"34\": {\"Cl\": 1.0}, \"35\": {\"Cs\": 1.0}, \"36\": {\"Sn\": 1.0}, \"37\": {\"I\": 1.0}, \"38\": {\"I\": 1.0}, \"39\": {\"Cl\": 1.0}}" candidate_id=c8cbc722389f0a76 formula=FASnCl0.28I0.723 config_index=1 rattle_stdev=0.08 method=PBE fidelity=phase2_force energy=-119.20533034649677 stress="-0.0002885709787745771 -0.00020879247979890218 -0.00014253258664134483 -0.00020879247979890218 0.00026430189998697827 -7.810904885533046e-05 -0.00014253258664134483 -7.810904885533046e-05 -0.004333402465081298" pbc="T T T"
Cs      12.12736831      -0.06892358       0.10212020        0      -0.00697426       0.03575044       0.01018152
Sn       3.17655218       3.27605956       3.02533567        1      -0.02489622       0.25033196       0.32870506
I        3.25342192       3.35476940       0.10009268        2      -0.11227144      -0.13902739      -0.23174011
I        3.26576263      12.04705484       2.90914481        3      -0.01381549       0.20088243      -0.00995679
I       -0.02834620       3.24457251       3.18454727        4       0.28600712       0.02419410      -0.03158697
Cs      -0.07390510      12.28616153       6.11445628        5       0.04944814       0.02670815      -0.03644257
Sn       3.10329932       3.36893000       9.31423551        6       0.05656375      -0.42248357      -0.14493470
I        3.02056046       3.20400023       6.24396462        7       0.06076104       0.02826508      -0.03029563
I        3.14225738      12.14806143       9.48263061        8       0.03083855      -0.32411945      -0.03329458
I        0.00522187       3.09867719       9.17179123        9      -0.02288004      -0.02862414       0.02555346
Cs      12.20289456       6.12569631      -0.01656366       10      -0.00330105      -0.03254813       0.00296798
Sn       3.06832846       9.01703339       2.83379584       11       0.98320086      -0.12455437       0.04496381
Cl       3.35868805       8.92843777      12.15926705       12      -0.00799013      -0.06361820      -0.23961851
Cl       3.17635430       5.97803119       2.90203627       13       0.02817653      -0.19121210       0.08066874
I        0.29218480       9.01486207       3.05558349       14      -1.11624188      -0.02109824      -0.02665725
Cs       0.09779416       6.17670552       6.28281693       15       0.03170166      -0.02077712      -0.00067184
Sn       3.27467841       8.97069795       9.40024923       16       0.08394612       0.41597537       0.25385355
I        3.23028280       8.98002512       5.95597630       17       0.01784843      -0.00722513       0.14624929
Cl       3.12958265       5.92060655       9.42453237       18      -0.02002599       0.45519802      -0.04447326
I        0.21596901       9.04990028       9.40230627       19      -0.04921753      -0.02839166      -0.01441996
Cs       6.08962994      -0.04459513       0.04828733       20       0.00762106      -0.00790118      -0.02922041
Sn       8.94151740       3.38238695       3.16352276       21      -0.16574528      -0.28363736      -0.69062962
I        9.09021344       3.10608649       0.16511852       22       0.05604178       0.00435273      -0.62658241
I        9.08663712      12.20614424       3.03189921       23      -0.04495309      -0.08222397       0.14063244
Cl       6.20626308       3.42038447       3.01461406       24      -0.15251993       0.00874779       0.08478541
Cs       6.12674406      12.21112784       6.27020558       25      -0.07089172      -0.01724575      -0.00968029
Sn       9.23035614       3.10347566       9.14740862       26      -0.23442902       0.35292037       0.30543459
I        8.97232447       3.26719784       6.07914923       27       0.01486780      -0.08529749       0.78618348
I        9.10167015      12.28120088       9.25489703       28       0.02890063      -0.00421634      -0.03235209
I        6.08417842       3.12911418       9.28361960       29       0.14679152      -0.00493277      -0.01613095
Cs       5.95002592       6.09571877       0.20553761       30       0.07797461       0.07844555       0.03514271
Sn       8.80240606       8.87247161       2.97108410       31      -0.02977225       0.27575241       0.41247864
I        9.06690229       9.15568694       0.14686226       32       0.00424711      -0.05346816      -0.52782827
Cl       8.83600348       6.07530283       2.93174362       33       0.00781590       0.14620954       0.02383417
Cl       6.22051651       8.90872123       3.10144075       34       0.22211644      -0.06140052      -0.08894802
Cs       6.00574270       6.11212682       5.99843536       35      -0.01692444      -0.01675775      -0.04968643
Sn       9.04826702       9.29351564       9.05631155       36      -0.31275727      -0.41293111       1.00842700
I        8.90494555       9.07542094       6.28776214       37       0.03319546       0.06175143      -0.84650485
I        9.15494688       6.14964962       9.13283087       38       0.02457417       0.02908436       0.09953266
Cl       6.29870158       9.21793273       9.30777152       39       0.16297886       0.03274763      -0.03312719
40
Lattice="12.217039359114667 0.0 0.0 0.02786697952058973 12.217007576882866 0.0 -0.0005677784919689015 0.0005690750710857146 12.342537023320471" Properties=species:S:1:pos:R:3:spacegroup_kinds:I:1:forces:R:3 spacegroup="P 1" unit_cell=conventional occupancy="_JSON {\"0\": {\"Cs\": 1.0}, \"1\": {\"Sn\": 1.0}, \"2\": {\"I\": 1.0}, \"3\": {\"I\": 1.0}, \"4\": {\"I\": 1.0}, \"5\": {\"Cs\": 1.0}, \"6\": {\"Sn\": 1.0}, \"7\": {\"I\": 1.0}, \"8\": {\"I\": 1.0}, \"9\": {\"I\": 1.0}, \"10\": {\"Cs\": 1.0}, \"11\": {\"Sn\": 1.0}, \"12\": {\"Cl\": 1.0}, \"13\": {\"Cl\": 1.0}, \"14\": {\"I\": 1.0}, \"15\": {\"Cs\": 1.0}, \"16\": {\"Sn\": 1.0}, \"17\": {\"I\": 1.0}, \"18\": {\"Cl\": 1.0}, \"19\": {\"I\": 1.0}, \"20\": {\"Cs\": 1.0}, \"21\": {\"Sn\": 1.0}, \"22\": {\"I\": 1.0}, \"23\": {\"I\": 1.0}, \"24\": {\"Cl\": 1.0}, \"25\": {\"Cs\": 1.0}, \"26\": {\"Sn\": 1.0}, \"27\": {\"I\": 1.0}, \"28\": {\"I\": 1.0}, \"29\": {\"I\": 1.0}, \"30\": {\"Cs\": 1.0}, \"31\": {\"Sn\": 1.0}, \"32\": {\"I\": 1.0}, \"33\": {\"Cl\": 1.0}, \"34\": {\"Cl\": 1.0}, \"35\": {\"Cs\": 1.0}, \"36\": {\"Sn\": 1.0}, \"37\": {\"I\": 1.0}, \"38\": {\"I\": 1.0}, \"39\": {\"Cl\": 1.0}}" candidate_id=c8cbc722389f0a76 formula=FASnCl0.28I0.723 config_index=2 rattle_stdev=0.08 method=PBE fidelity=phase2_force energy=-119.16380178268246 stress="-0.0016032264291583258 -0.00022367801117899243 4.265910572337779e-06 -0.00022367801117899243 -0.002270746095684869 9.136570950324235e-05 4.265910572337779e-06 9.136570950324235e-05 -0.0038492979764030368" pbc="T T T"
Cs      12.20526698      -0.08336349       0.26942630        0      -0.00472944       0.00632508      -0.04740367
Sn       3.16718820       3.34648074       2.97588209        1       0.34295972      -0.03997470       0.34905116
I        3.17885559       3.13688077       0.00576543        2      -0.04776866       0.04796707      -0.20961163
I        3.29135935      12.15981291       2.85695477        3      -0.03857815      -0.30790948       0.05642930
I        0.20595551       3.29098093       3.08002327        4      -0.55927634       0.01401602      -0.04789709
Cs       0.02465258      12.11001303       5.99094804        5      -0.02681830      -0.00607009       0.02157737
Sn       3.01428377       3.49765753       9.20498737        6       0.49383230      -0.90821968      -0.02570521
I        3.08814232       3.22527669       6.15009224        7       0.01785696      -0.07151515       0.02906689
I        3.10606070      11.90988323       9.48003879        8       0.01109398       1.04759697       0.03948826
I        0.05935575       3.05607274       9.06581806        9      -0.34359238      -0.01433918       0.03582651
Cs      12.16732702       6.03950265       0.03087155       10       0.01529586       0.01420260      -0.03181756
Sn       3.20294529       9.05466603       2.94490277       11      -0.01045831       0.02095392       0.29943650
Cl       3.26188300       8.85424890      12.17106202       12       0.05317458      -0.00721587       0.43385196
Cl       3.37499004       5.93350930       3.20606883       13      -0.05349896       0.28623043      -0.16200895
I        0.06172544       8.95777906       2.99986164       14       0.24704796      -0.00016398      -0.02059469
Cs      -0.00723428       6.17681215       6.15397061       15      -0.00616729       0.00812856       0.00352615
Sn       3.19076450       9.13884348       9.61087349       16       0.13340575      -0.93723562      -0.40494244
I        3.26615526       8.96841496       6.04764067       17      -0.03568997       0.08280382      -0.28343509
Cl       3.21056416       5.90549255       9.30977859       18      -0.03449037       0.78647508       0.02325874
I        0.29000735       8.83611949       9.42041255       19      -0.33254146       0.00600113       0.02348231
Cs       6.17835781      -0.14398911       0.08409817       20      -0.01027079       0.04108271      -0.03696790
Sn       8.84357167       3.15352750       3.07280689       21      -0.25981645       0.25044318       0.15619239
I        8.92837822       3.21477587       0.00081902       22       0.09871824       0.01949858      -0.08530061
I        9.07791995      12.09724565       3.08447290       23      -0.01741396       0.20631899      -0.02613420
Cl       6.14326619       3.54757049       3.05437392       24       0.37023969      -0.23822426      -0.02856394
Cs       6.03270007      12.10655534       6.16256638       25       0.03419193       0.00484043       0.00981001
Sn       9.23769008       3.10858311       9.31286428       26      -0.43268100      -0.04946323      -0.19145181
I        8.95355782       3.20834531       6.10299562       27       0.07467798      -0.08813459       0.13299532
I        9.18473521      12.11738586       9.40089889       28       0.05989559       0.67588113       0.00629782
I        6.09437232       3.16479922       9.20001656       29       0.15890811      -0.10880302      -0.00178739
Cs       5.96801359       6.12037727       0.19650987       30       0.00261827      -0.02807429       0.04968647
Sn       8.90772586       8.85496230       2.89924543       31      -0.13667220      -0.08461507       0.86300449
I        9.08235418       9.04975808       0.01995835       32       0.00988273      -0.04692869      -0.19621097
Cl       8.66814436       6.06393047       3.15804206       33       0.13254992       0.00662198      -0.11699720
Cl       6.26623772       9.08387465       3.03426284       34      -0.13218016      -0.03006830      -0.15202410
Cs       6.11111987       6.08380657       6.01706997       35       0.00474316      -0.02048170      -0.06605065
Sn       8.77291327       9.14492873       9.30282043       36       0.88924413       0.12960414      -0.44096116
I        8.90586682       9.09778526       6.21190480       37       0.05917697       0.09258802      -0.09596202
I        9.09370306       6.24223312       9.13236277       38       0.13894817      -0.83302824       0.04670703
Cl       6.34322959       9.05508414       9.30472140       39      -0.84737508       0.05801758       0.08394376
40
Lattice="12.217039359114667 0.0 0.0 0.02786697952058973 12.217007576882866 0.0 -0.0005677784919689015 0.0005690750710857146 12.342537023320471" Properties=species:S:1:pos:R:3:spacegroup_kinds:I:1:forces:R:3 spacegroup="P 1" unit_cell=conventional occupancy="_JSON {\"0\": {\"Cs\": 1.0}, \"1\": {\"Sn\": 1.0}, \"2\": {\"I\": 1.0}, \"3\": {\"I\": 1.0}, \"4\": {\"I\": 1.0}, \"5\": {\"Cs\": 1.0}, \"6\": {\"Sn\": 1.0}, \"7\": {\"I\": 1.0}, \"8\": {\"I\": 1.0}, \"9\": {\"I\": 1.0}, \"10\": {\"Cs\": 1.0}, \"11\": {\"Sn\": 1.0}, \"12\": {\"Cl\": 1.0}, \"13\": {\"Cl\": 1.0}, \"14\": {\"I\": 1.0}, \"15\": {\"Cs\": 1.0}, \"16\": {\"Sn\": 1.0}, \"17\": {\"I\": 1.0}, \"18\": {\"Cl\": 1.0}, \"19\": {\"I\": 1.0}, \"20\": {\"Cs\": 1.0}, \"21\": {\"Sn\": 1.0}, \"22\": {\"I\": 1.0}, \"23\": {\"I\": 1.0}, \"24\": {\"Cl\": 1.0}, \"25\": {\"Cs\": 1.0}, \"26\": {\"Sn\": 1.0}, \"27\": {\"I\": 1.0}, \"28\": {\"I\": 1.0}, \"29\": {\"I\": 1.0}, \"30\": {\"Cs\": 1.0}, \"31\": {\"Sn\": 1.0}, \"32\": {\"I\": 1.0}, \"33\": {\"Cl\": 1.0}, \"34\": {\"Cl\": 1.0}, \"35\": {\"Cs\": 1.0}, \"36\": {\"Sn\": 1.0}, \"37\": {\"I\": 1.0}, \"38\": {\"I\": 1.0}, \"39\": {\"Cl\": 1.0}}" candidate_id=c8cbc722389f0a76 formula=FASnCl0.28I0.723 config_index=3 rattle_stdev=0.08 method=PBE fidelity=phase2_force energy=-119.16479990959348 stress="-0.0007467013680125811 0.00011703525413475494 0.00019589332791819235 0.00011703525413475494 1.5863505046170548e-05 0.00036706196533508293 0.00019589332791819235 0.00036706196533508293 -0.002934864564510011" pbc="T T T"
Cs      12.10860054       0.16410186       0.13042931        0       0.03680532       0.02360899       0.01852142
Sn       3.26473318       3.37931622       3.15343719        1      -0.36863491      -0.40918517      -0.77281364
I        3.09425839       3.24945820      -0.02822997        2       0.02168155      -0.01183024      -0.16777282
I        3.38002303      12.04576552       2.87800353        3       0.00846539      -0.24556196      -0.00764051
I        0.00335039       3.12178933       2.98808230        4       0.17294626       0.09651095       0.07025722
Cs       0.03895850      12.11986113       5.96788617        5      -0.02165238       0.00529647      -0.02912015
Sn       3.09277115       3.19553063       9.13354070        6      -0.05615184       0.59040712       0.54860544
I        3.07828555       3.03414415       6.04159106        7      -0.02135472      -0.04377864       0.49621656
I        3.25380659      11.93147591       9.34382552        8      -0.02010716       0.80177807       0.00615821
I       -0.09384758       3.01657106       9.43025502        9       0.28708082       0.00421354      -0.01652109
Cs      12.19216412       6.19351711      -0.12098816       10       0.04383227      -0.09964063       0.00429848
Sn       3.20598365       8.89628672       2.89655032       11      -0.31701446       0.51158472       0.36787549
Cl       3.41279717       8.91864462      12.15418505       12       0.01524640      -0.04171308       0.36877874
Cl       3.29879182       5.95319872       3.15039542       13       0.02111954       0.30338936       0.02588999
I        0.03393851       9.02958922       2.95494509       14       0.66154113      -0.08342392       0.00078406
Cs      -0.03973931       6.18370422       6.09285517       15      -0.00041189      -0.00311041       0.02086743
Sn       3.25074263       9.06169743       9.55355634       16      -0.10863062      -0.75725667      -0.27868419
I        3.34779522       9.03338157       6.08594142       17      -0.03280548      -0.03923427      -0.42554671
Cl       3.16258240       6.01781487       9.30221456       18      -0.01847416      -0.56383720      -0.09379672
I        0.19590704       8.91695890       9.40108098       19      -0.12778843       0.07097321      -0.01093318
Cs       6.19114575      -0.02053702      -0.02873707       20      -0.04063799       0.00730500      -0.02803988
Sn       8.73185777       3.21784703       3.05001445       21       0.45300623       0.12333276       0.11723981
I        9.01544276       3.23255900       0.09647534       22      -0.03247250      -0.03000676      -0.41244128
I        9.18510625      12.15320850       3.00940949       23      -0.15794666      -0.15676009       0.04731470
Cl       6.11635410       3.44734290       3.12116568       24      -0.22194515      -0.03930818       0.03555151
Cs       6.09722354      12.25189196       6.17084779       25       0.01825866      -0.04547097       0.00880759
Sn       9.16575942       3.04523300       9.19417604       26      -0.12920291      -0.03817270      -0.03043543
I        9.18533691       3.09340102       6.09190038       27       0.01630772      -0.00904354       0.36149792
I        9.13982424      12.33210116       9.15457283       28      -0.02747182      -0.86700805       0.05502934
I        6.04512529       3.09093045       9.29489079       29      -0.00799744      -0.04794219      -0.05798728
Cs       6.00206475       6.18858188       0.24954406       30      -0.01107887      -0.04362538      -0.06458664
Sn       8.89803122       8.92286332       3.13712126       31       0.81881397       0.02151965       0.17634965
I        9.04861015       9.04036471       0.08608983       32       0.03640316      -0.00208729      -0.07886824
Cl       8.77952825       5.95893809       3.22101568       33       0.02982249       0.10626961      -0.01795781
Cl       6.46340472       8.86502243       2.96758407       34      -1.14183094      -0.00840696      -0.00817206
Cs       6.19533186       6.21174792       5.99684121       35      -0.01068610      -0.05480066       0.01799107
Sn       8.83896202       9.09709162       9.41726730       36       0.11484726       0.00808380      -0.25617005
I        8.97182444       9.06465997       6.25674520       37       0.00882203       0.03368206      -0.00744586
I        9.05396395       5.96580225       9.29857200       38      -0.01990538       0.93335915      -0.01515646
Cl       6.23200088       9.14315449       9.43635122       39       0.14034684      -0.00349654       0.03230129
