Cs Sn I  Cs Pb I  Cs Sn I  Cs Sn I  Cs Sn I  Cs Sn I  Cs Sn I  Cs Sn I 
 1.0000000000000000
    13.5249728251113304    0.0000000000000000    0.0000000000000000
     0.0000000000000000   13.5249728251113304    0.0000000000000000
     0.0000000000000000    0.0000000000000000   13.5249728251113304
 Cs  Sn  I   Cs  Pb  I   Cs  Sn  I   Cs  Sn  I   Cs  Sn  I   Cs  Sn  I   Cs  Sn  I   Cs  Sn  I  
   1   1   3   1   1   3   1   1   3   1   1   3   1   1   3   1   1   3   1   1   3   1   1   3
Cartesian
  0.0000000000000000  0.0000000000000000  0.0000000000000000
  3.3812432062778326  3.3812432062778326  3.3812432062778326
  3.3812432062778326  3.3812432062778326  0.0000000000000000
  3.3812432062778326  0.0000000000000000  3.3812432062778326
  0.0000000000000000  3.3812432062778326  3.3812432062778326
  0.0000000000000000  0.0000000000000000  6.7624864125556643
  3.3812432062778326  3.3812432062778326 10.1437296188334969
  3.3812432062778326  3.3812432062778326  6.7624864125556643
  3.3812432062778326  0.0000000000000000 10.1437296188334969
  0.0000000000000000  3.3812432062778326 10.1437296188334969
  0.0000000000000000  6.7624864125556643  0.0000000000000000
  3.3812432062778326 10.1437296188334969  3.3812432062778326
  3.3812432062778326 10.1437296188334969  0.0000000000000000
  3.3812432062778326  6.7624864125556643  3.3812432062778326
  0.0000000000000000 10.1437296188334969  3.3812432062778326
  0.0000000000000000  6.7624864125556643  6.7624864125556643
  3.3812432062778326 10.1437296188334969 10.1437296188334969
  3.3812432062778326 10.1437296188334969  6.7624864125556643
  3.3812432062778326  6.7624864125556643 10.1437296188334969
  0.0000000000000000 10.1437296188334969 10.1437296188334969
  6.7624864125556643  0.0000000000000000  0.0000000000000000
 10.1437296188334969  3.3812432062778326  3.3812432062778326
 10.1437296188334969  3.3812432062778326  0.0000000000000000
 10.1437296188334969  0.0000000000000000  3.3812432062778326
  6.7624864125556643  3.3812432062778326  3.3812432062778326
  6.7624864125556643  0.0000000000000000  6.7624864125556643
 10.1437296188334969  3.3812432062778326 10.1437296188334969
 10.1437296188334969  3.3812432062778326  6.7624864125556643
 10.1437296188334969  0.0000000000000000 10.1437296188334969
  6.7624864125556643  3.3812432062778326 10.1437296188334969
  6.7624864125556643  6.7624864125556643  0.0000000000000000
 10.1437296188334969 10.1437296188334969  3.3812432062778326
 10.1437296188334969 10.1437296188334969  0.0000000000000000
 10.1437296188334969  6.7624864125556643  3.3812432062778326
  6.7624864125556643 10.1437296188334969  3.3812432062778326
  6.7624864125556643  6.7624864125556643  6.7624864125556643
 10.1437296188334969 10.1437296188334969 10.1437296188334969
 10.1437296188334969 10.1437296188334969  6.7624864125556643
 10.1437296188334969  6.7624864125556643 10.1437296188334969
  6.7624864125556643 10.1437296188334969 10.1437296188334969
