40
Lattice="12.455736789640316 0.0 0.0 0.008366870794436833 12.288984910918971 0.0 -0.005494518433256757 0.005322022944928149 12.590697573482958" Properties=species:S:1:pos:R:3:spacegroup_kinds:I:1:forces:R:3 spacegroup="P 1" unit_cell=conventional candidate_id=d9b39dc99de7e061 formula=FAPbCl0.26I0.743 config_index=0 rattle_stdev=0.0 method=PBE fidelity=phase2_force energy=-119.53791859330055 stress="-0.0009240061686936299 -5.0180287102054665e-05 2.1036123364884934e-05 -5.0180287102054665e-05 -0.00022011722712242458 -1.5256155488786129e-05 2.1036123364884934e-05 -1.5256155488786129e-05 -0.0012543144773379809" pbc="T T T"
Cs       0.00779474       0.00812658       0.02647377        0      -0.00336913      -0.00175180      -0.01392385
Pb       3.32656009       3.29856196       3.13377900        1      -0.06119384       0.03659843      -0.00245857
I        3.21005737       3.26152419       0.00444459        2      -0.00930068      -0.00288715       0.00855524
I        3.21860416      12.28568424       3.05365030        3       0.00456380       0.01402360      -0.01309979
I        0.00226765       3.30895282       3.16445134        4       0.00143084      -0.00040233      -0.00274349
Cs       0.04557874      12.27049314       6.24378907        5      -0.00407413      -0.00534334       0.00615284
Pb       3.14078163       3.32803169       9.45271682        6       0.01261034      -0.02763932       0.00510389
I        3.19999458       3.29441145       6.28857633        7      -0.00669342       0.00047730      -0.00829693
I        3.22636715      12.27978034       9.58977605        8       0.01069845      -0.01812497       0.01134388
I        0.01694001       3.11441206       9.42128069        9      -0.00223909      -0.01070534      -0.00472869
Cs       0.04415609       6.17024179      12.56463988       10       0.02613156       0.00794793      -0.00309362
Pb       3.15083189       8.99282219       2.85930135       11      -0.00255135      -0.02529307       0.02545524
Cl       3.24465792       8.90948519       0.00113959       12       0.01295827      -0.03066434       0.04780040
Cl       3.24245613       6.15388016       3.01747925       13       0.02112667      -0.01355432      -0.03092426
I        0.02374887       8.98845258       3.07652396       14      -0.00963660      -0.00422078       0.00495722
Cs      12.45085070       6.17463074       6.31309569       15       0.00659571       0.00662299      -0.00506950
Pb       3.23959393       9.03948928       9.61577359       16      -0.12481786       0.02674139      -0.09307283
I        3.21163451       9.01949040       6.32549578       17       0.00318284      -0.00032622       0.01286320
Cl       3.24778744       6.14999867       9.58269239       18       0.00920959       0.02139116       0.02960385
I        0.02818760       9.13325200       9.57717056       19       0.03975919      -0.00574199       0.01169001
Cs       6.21970403      12.28284948       0.01837610       20      -0.00286489      -0.00418217      -0.00808446
Pb       9.11778473       3.29718737       3.14928478       21       0.06061325      -0.03200619       0.00785166
I        9.23638867       3.17021649       0.01093796       22       0.00014350      -0.01255883      -0.00255161
I        9.22837484       0.00154475       3.16672328       23      -0.00371947       0.00664907      -0.00222295
Cl       6.21647918       3.37196645       3.16809473       24       0.00171596       0.02830180       0.01327650
Cs       6.17371807      12.27573903       6.24986910       25      -0.00333899      -0.00164506      -0.00272949
Pb       9.33970368       3.07629432       9.44687750       26      -0.03209101       0.00946905      -0.00155428
I        9.24279703       3.16334204       6.28489870       27       0.00309952      -0.01373436      -0.00008904
I        9.32588821      12.26949921       9.41967542       28       0.02507052       0.03261106      -0.00672668
I        6.22837047       3.12328563       9.41779972       29       0.00609742      -0.01778042      -0.01079176
Cs       6.09295263       6.21895821      12.56611672       30      -0.03382842       0.01675842      -0.00307037
Pb       9.33847176       8.99166355       3.14873627       31      -0.01761681       0.04439292      -0.00587582
I        9.30086420       9.15763733      12.59039196       32       0.00247335       0.01183614       0.02963148
Cl       9.23046204       6.13967173       3.17384046       33      -0.01717857       0.00747192       0.02112516
I        6.23135222       9.00426217       3.08325285       34       0.01032708      -0.00070348       0.00967495
Cs       6.23598420       6.11782515       6.23130716       35      -0.00877492       0.00131264      -0.03300735
Pb       8.98452208       9.19741299       9.46460527       36       0.02578802      -0.01112044       0.02001239
I        9.29628946       9.16146497       6.30919914       37       0.00349989       0.00726576      -0.03116051
I        9.31837417       6.15786620       9.41612624       38       0.03854916      -0.03423328      -0.01523250
Cl       6.18986787       9.09837796       9.59489054       39       0.01443278      -0.00398382       0.03237139
40
Lattice="12.455736789640316 0.0 0.0 0.008366870794436833 12.288984910918971 0.0 -0.005494518433256757 0.005322022944928149 12.590697573482958" Properties=species:S:1:pos:R:3:spacegroup_kinds:I:1:forces:R:3 spacegroup="P 1" unit_cell=conventional candidate_id=d9b39dc99de7e061 formula=FAPbCl0.26I0.743 config_index=1 rattle_stdev=0.08 method=PBE fidelity=phase2_force energy=-118.86424937722556 stress="-0.0016855589378532447 -0.000171206086639286 9.557048480995425e-05 -0.000171206086639286 -0.0013726349223607132 -0.0001747360982217388 9.557048480995425e-05 -0.0001747360982217388 -0.00415800216609873" pbc="T T T"
Cs      -0.07912097      -0.06355863       0.00196982        0      -0.03572761       0.03193455       0.01533078
Pb       3.21936540       3.20203511       3.08244086        1       0.13675404       0.25773229       0.30974764
I        3.31469302       3.40916102       0.07077378        2      -0.10955099      -0.10346653      -0.11735318
I        3.21674026      12.26899912       2.98032072        3      -0.01007686       0.04593524      -0.00610019
I       -0.08371176       3.30206134       3.25851843        4       0.35511907      -0.00175155       0.00316534
Cs      -0.08522860      12.36874866       6.32989997        5       0.03148307       0.02854091      -0.04057442
Pb       3.17236346       3.29701562       9.49978896        6       0.02865429      -0.15436201      -0.08171445
I        3.08533067       3.26852548       6.38881511        7       0.03284886       0.01067283      -0.23086932
I        3.16790774      12.39405914       9.66534837        8      -0.00277595      -0.34481008      -0.00249604
I       -0.00418021       3.10135499       9.34415210        9       0.20224444      -0.01424386       0.02000296
Cs       0.01674431       6.17415411      12.52466932       10       0.00371121      -0.02418249       0.02224316
Pb       2.97387952       9.01760914       2.73212925       11       1.12540109      -0.26101709      -0.15162997
Cl       3.30301428       8.90085309      -0.05087413       12      -0.08106460       0.00267825       0.02046714
Cl       3.10701161       6.12440224       2.89024951       13      -0.00029376       0.03793691       0.03097440
I        0.14218934       9.02640780       3.14963307       14      -1.05855349       0.00618934       0.12254513
Cs      12.52768832       6.18139415       6.45047417       15       0.01645699      -0.02219848      -0.01979778
Pb       3.30774534       8.97909845       9.43276324       16       0.13391177       0.12317526       0.17805841
I        3.22037361       8.98347775       6.29245798       17      -0.00219667       0.00469163       0.02756277
Cl       3.27330614       6.10671003       9.65858571       18      -0.00354823       0.37161299      -0.03700618
I        0.04030240       9.13940420       9.57241853       19      -0.00651021       0.02549082      -0.01571979
Cs       6.21409293      12.23755755       0.04325653       20       0.01978222       0.00151509       0.00450078
Pb       9.17572143       3.33850337       3.23136723       21      -0.23944022      -0.23591634      -0.57347201
I        9.27800088       3.10062940       0.13098317       22       0.04025907      -0.00121727      -0.51837428
I        9.32169261       0.04089791       3.10814230       23      -0.00702459      -0.11833249       0.11996778
Cl       6.27090367       3.41268620       3.10109183       24      -0.25249243       0.00489454       0.06948721
Cs       6.22552966      12.27674219       6.37463623       25      -0.04058601       0.00144513      -0.02669992
Pb       9.42247131       3.10330973       9.34266867       26      -0.30439451       0.35034730       0.39985485
I        9.15331348       3.26810325       6.24344134       27      -0.01865364      -0.06886667       0.49321034
I        9.29443827      12.35293669       9.42565264       28       0.00251212      -0.10962666       0.00248322
I        6.23552543       3.12759822       9.45127548       29       0.05729993      -0.00777849      -0.00969112
Cs       5.99473423       6.13179489      12.59148667       30       0.07220738       0.08912840       0.04441904
Pb       9.27603932       8.92317307       3.04314656       31      -0.04657099       0.22961031       0.27780891
I        9.33716673       9.23777931      12.70349074       32       0.03141749      -0.01058670      -0.42365136
Cl       9.21524741       6.14208057       3.02396713       33       0.02917914       0.10769873       0.01212387
I        6.22201007       8.99406295       3.15542759       34       0.05384431       0.00859350       0.05145786
Cs       6.13083442       6.10986109       6.24255115       35      -0.00756982      -0.02714902      -0.04387105
Pb       9.19482655       9.33787530       9.25375344       36      -0.16203341      -0.47763566       1.33715066
I        9.19335790       9.14772719       6.45323543       37       0.00823431       0.02677009      -1.30578759
I        9.36706982       6.16038824       9.29881327       38       0.00687241       0.20565901       0.08805331
Cl       6.21462313       9.18975539       9.55402301       39       0.00062259       0.01272245      -0.04176031
40
Lattice="12.455736789640316 0.0 0.0 0.008366870794436833 12.288984910918971 0.0 -0.005494518433256757 0.005322022944928149 12.590697573482958" Properties=species:S:1:pos:R:3:spacegroup_kinds:I:1:forces:R:3 spacegroup="P 1" unit_cell=conventional candidate_id=d9b39dc99de7e061 formula=FAPbCl0.26I0.743 config_index=2 rattle_stdev=0.08 method=PBE fidelity=phase2_force energy=-119.0113583722797 stress="-0.0023056720217060553 -5.3686864446540636e-05 -8.911148690155293e-06 -5.3686864446540636e-05 -0.0014350089521387908 3.931338463979145e-05 -8.911148690155293e-06 3.931338463979145e-05 -0.002195478146191585" pbc="T T T"
Cs      -0.00122230      -0.07799854       0.16927592        0       0.00776303       0.00741990      -0.06808880
Pb       3.21000143       3.27245629       3.03298728        1       0.37776291       0.27864071       0.29116865
I        3.24012669       3.19127240      -0.02355347        2      -0.04170065       0.01313700      -0.10731379
I        3.24233698      12.38175719       2.92813068        3      -0.04202846      -0.51503025       0.02078411
I        0.15058995       3.34846976       3.15399443        4      -0.56191567      -0.01373585      -0.03689506
Cs       0.01332908      12.19260016       6.20639172        5      -0.01436334      -0.01039088       0.05014796
Pb       3.08334791       3.42574315       9.39054082        6       0.49697440      -0.11015405       0.02689264
I        3.15291252       3.28980194       6.29494272        7       0.01055536      -0.07077459      -0.13014202
I        3.13171106      12.15588094       9.66275655        8       0.03645644       0.36944290       0.02636701
I        0.04995367       3.05875053       9.23817894        9      -0.18526692      -0.02499191       0.00440005
Cs      -0.01882323       6.08796046      12.57210453       10       0.04384247       0.01896638      -0.03933392
Pb       3.10849635       9.05524178       2.84323617       11       0.29730042      -0.25473849       0.07127005
Cl       3.20620923       8.82666422      -0.03907916       12       0.01283118      -0.00467283       0.36300566
Cl       3.30564735       6.07988035       3.19428207       13      -0.03561918       0.44527468      -0.12404973
I       -0.08827003       8.96932479       3.09391122       14       0.70108723       0.00728344       0.04052740
Cs      12.42265988       6.18150079       6.32162785       15       0.00597879       0.01442410       0.00981508
Pb       3.22383143       9.14724398       9.64338751       16      -0.09989532      -0.37287435      -0.16551555
I        3.25624607       8.97186759       6.38412236       17      -0.04107429       0.09133809      -0.22357914
Cl       3.35428766       6.09159604       9.54383193       18      -0.02607662       0.10479771       0.04036733
I        0.11434073       8.92562341       9.59052481       19      -0.03323123       0.01946871       0.01639893
Cs       6.30282080      12.13816357       0.07906738       20      -0.02844761       0.04212342      -0.04738029
Pb       9.07777570       3.10964392       3.14065136       21      -0.22353557       0.36737172       0.13956176
I        9.11616566       3.20931878      -0.03331632       22       0.04940980       0.02818152       0.19839183
I        9.31297544      -0.06800068       3.16071599       23       0.01681550       0.12901262      -0.01963226
Cl       6.20790678       3.53987222       3.14085169       24       0.32833566      -0.15727641      -0.02594934
Cs       6.13148566      12.17216968       6.26699702       25       0.00636057      -0.00473628       0.02480848
Pb       9.42980525       3.10841718       9.50812432       26      -0.41122805      -0.06960032      -0.25422638
I        9.13454683       3.20925072       6.26728773       27       0.05582124      -0.07986797      -0.03598847
I        9.37750333      12.18912166       9.57165450       28       0.09155881       0.65124686       0.02286628
I        6.24571933       3.16328326       9.36767243       29       0.02819966      -0.09099229      -0.00124008
Cs       6.01272189       6.15645339      12.58245894       30      -0.02971820      -0.01759898       0.02112051
Pb       9.38135912       8.90566376       2.97130789       31      -0.56114516      -0.20303407       0.63483470
I        9.35261862       9.13185046      12.57658683       32       0.05166464      -0.01902827       0.00742008
Cl       9.04738829       6.13070822       3.25026557       33       0.10808548      -0.07917675      -0.06448685
I        6.26773128       9.16921637       3.08824968       34      -0.43727942       0.05567815      -0.03683986
Cs       6.23621159       6.08154085       6.26118576       35      -0.01957601       0.00033174      -0.07649129
Pb       8.91947280       9.18928839       9.50026232       36       0.21494512       0.11232704      -0.36821561
I        9.19427917       9.17009151       6.37737809       37       0.03368348       0.08889242      -0.27415945
I        9.30582600       6.25297174       9.29834517       38       0.13280016      -0.78808475       0.00612627
Cl       6.25915114       9.02690680       9.55097289       39      -0.31048625       0.04168243       0.08778082
40
Lattice="12.455736789640316 0.0 0.0 0.008366870794436833 12.288984910918971 0.0 -0.005494518433256757 0.005322022944928149 12.590697573482958" Properties=species:S:1:pos:R:3:spacegroup_kinds:I:1:forces:R:3 spacegroup="P 1" unit_cell=conventional candidate_id=d9b39dc99de7e061 formula=FAPbCl0.26I0.743 config_index=3 rattle_stdev=0.08 method=PBE fidelity=phase2_force energy=-118.75897356548073 stress="-0.002513300470262333 0.00011327769000973607 -5.352478849424396e-06 0.00011327769000973607 -0.00134968249916654 0.00013762103886943338 -5.352478849424396e-06 0.00013762103886943338 -0.0021581184865818973" pbc="T T T"
Cs      -0.09788874       0.16946681       0.03027892        0       0.01406696       0.05381212       0.03008152
Pb       3.30754640       3.30529177       3.21054238        1      -0.24720080      -0.23314419      -0.76422490
I        3.15552949       3.30384982      -0.05754887        2       0.00040813      -0.00664047      -0.04915696
I        3.33100066      12.26770980       2.94917944        3       0.00964785      -0.17022300       0.00589604
I       -0.05201517       3.17927816       3.06205346        4       0.14378522       0.04170726       0.03739462
Cs       0.02763501      12.20244826       6.18332986        5      -0.02841877       0.01612778      -0.01316811
Pb       3.16183529       3.12361624       9.31909415        6      -0.08946142       0.31153603       0.48890942
I        3.14305576       3.09866940       6.18644155        7      -0.03708212      -0.03123068       0.39259920
I        3.27945695      12.17747362       9.52654328        8      -0.02112155       0.47743821       0.00098988
I       -0.10324965       3.01924886       9.60261590        9       0.57785312       0.01572829       0.00974998
Cs       0.00601387       6.24197491      12.42024482       10       0.03616421      -0.10047699      -0.01083713
Pb       3.11153472       8.89686246       2.79488372       11       0.19181627       0.25576497       0.01248478
Cl       3.35712341       8.89105994      -0.05595613       12      -0.04511166      -0.06619599       0.45583315
Cl       3.22944913       6.09956977       3.13860866       13       0.00373697       0.23854293      -0.01077283
I       -0.11605696       9.04113495       3.04899466       14       1.23042783      -0.02758897      -0.03748912
Cs      12.39015485       6.18839285       6.26051241       15      -0.02509208      -0.01455870       0.00638331
Pb       3.28380956       9.07009794       9.58607036       16      -0.18335041      -0.54156871      -0.04997064
I        3.33788603       9.03683420       6.42242311       17      -0.02316381       0.01656559      -0.34853132
Cl       3.30630589       6.20391836       9.53626790       18      -0.00298511      -0.25216844      -0.02883109
I        0.02024043       9.00646281       9.57119325       19      -0.10565978       0.05389951      -0.02308650
Cs       6.31560874      12.26161566      -0.03376787       20      -0.04478138       0.00875835      -0.00849054
Pb       8.96606180       3.17396345       3.11785892       21       0.32101660       0.24482378       0.08644433
I        9.20323020       3.22710191       0.06233999       22      -0.03958077      -0.02883159      -0.24311548
I        9.42016174      -0.01203783       3.08565258       23      -0.06546158      -0.21328059       0.01918501
Cl       6.18099469       3.43964463       3.20764345       24      -0.12597176      -0.00776866       0.03953341
Cs       6.19600913      12.31750630       6.27527843       25       0.00391724      -0.03785748       0.00003553
Pb       9.35787459       3.04506708       9.38943609       26      -0.26290521      -0.01279650       0.05283135
I        9.36632592       3.09430643       6.25619250       27       0.01100535      -0.00663095       0.09263629
I        9.33259236      12.40383697       9.32532844       28      -0.04702848      -1.25969772       0.04028156
I        6.19647230       3.08941448       9.46254667       29      -0.10514830      -0.01869689      -0.04029466
Cs       6.04677305       6.22465800      12.63549313       30      -0.03366737      -0.04748464      -0.07773195
Pb       9.37166448       8.97356477       3.20918373       31      -0.08751143      -0.14452536       0.24383050
I        9.31887459       9.12245708      12.64271831       32       0.04988189       0.01732758       0.09733074
Cl       9.15877218       6.02571584       3.31323919       33       0.04548690       0.17510352       0.02890760
I        6.46489827       8.95036415       3.02157090       34      -1.38133495       0.03710385      -0.01874382
Cs       6.32042358       6.20948219       6.24095701       35       0.00826881      -0.02707032      -0.02025477
Pb       8.98552155       9.14145127       9.61470920       36       0.11499825       0.00923015      -0.29844268
I        9.26023679       9.13696622       6.42221849       37       0.01469766       0.01992834      -0.13940155
I        9.26608689       5.97654087       9.46455440       38      -0.03771736       1.24716805      -0.00355220
Cl       6.14792243       9.11497715       9.68260271       39       0.26774546       0.00764596       0.05240498
