Cs Sn I  Cs Sn I  Cs Sn Cl I  Cs Sn I  Cs Sn I  Cl Cs Sn I  Cs Sn I  Cl I  Cs Sn I 
 1.0000000000000000
    13.3037898239561780    0.0000000000000000    0.0000000000000000
     0.0000000000000000   13.3037898239561780    0.0000000000000000
     0.0000000000000000    0.0000000000000000   13.3037898239561780
 Cs  Sn  I   Cs  Sn  I   Cs  Sn  Cl  I   Cs  Sn  I   Cs  Sn  I   Cl  Cs  Sn  I   Cs  Sn  I   Cl  I   Cs  Sn  I  
   1   1   3   1   1   3   1   1   1   2   1   1   3   1   1   2   1   1   1   3   1   1   1   1   1   1   1   3
Cartesian
  0.0000000000000000  0.0000000000000000  0.0000000000000000
  3.3259474559890445  3.3259474559890445  3.3259474559890445
  3.3259474559890445  3.3259474559890445  0.0000000000000000
  3.3259474559890445  0.0000000000000000  3.3259474559890445
  0.0000000000000000  3.3259474559890445  3.3259474559890445
  0.0000000000000000  0.0000000000000000  6.6518949119780881
  3.3259474559890445  3.3259474559890445  9.9778423679671331
  3.3259474559890445  3.3259474559890445  6.6518949119780881
  3.3259474559890445  0.0000000000000000  9.9778423679671331
  0.0000000000000000  3.3259474559890445  9.9778423679671331
  0.0000000000000000  6.6518949119780881  0.0000000000000000
  3.3259474559890445  9.9778423679671331  3.3259474559890445
  3.3259474559890445  9.9778423679671331  0.0000000000000000
  3.3259474559890445  6.6518949119780881  3.3259474559890445
  0.0000000000000000  9.9778423679671331  3.3259474559890445
  0.0000000000000000  6.6518949119780881  6.6518949119780881
  3.3259474559890445  9.9778423679671331  9.9778423679671331
  3.3259474559890445  9.9778423679671331  6.6518949119780881
  3.3259474559890445  6.6518949119780881  9.9778423679671331
  0.0000000000000000  9.9778423679671331  9.9778423679671331
  6.6518949119780881  0.0000000000000000  0.0000000000000000
  9.9778423679671331  3.3259474559890445  3.3259474559890445
  9.9778423679671331  3.3259474559890445  0.0000000000000000
  9.9778423679671331  0.0000000000000000  3.3259474559890445
  6.6518949119780881  3.3259474559890445  3.3259474559890445
  6.6518949119780881  0.0000000000000000  6.6518949119780881
  9.9778423679671331  3.3259474559890445  9.9778423679671331
  9.9778423679671331  3.3259474559890445  6.6518949119780881
  9.9778423679671331  0.0000000000000000  9.9778423679671331
  6.6518949119780881  3.3259474559890445  9.9778423679671331
  6.6518949119780881  6.6518949119780881  0.0000000000000000
  9.9778423679671331  9.9778423679671331  3.3259474559890445
  9.9778423679671331  9.9778423679671331  0.0000000000000000
  9.9778423679671331  6.6518949119780881  3.3259474559890445
  6.6518949119780881  9.9778423679671331  3.3259474559890445
  6.6518949119780881  6.6518949119780881  6.6518949119780881
  9.9778423679671331  9.9778423679671331  9.9778423679671331
  9.9778423679671331  9.9778423679671331  6.6518949119780881
  9.9778423679671331  6.6518949119780881  9.9778423679671331
  6.6518949119780881  9.9778423679671331  9.9778423679671331
