Cs Sn I  Cs Sn I  Cs Sn Cl I  Cs Sn I  Cl I  Cs Sn I  Cl Cs Sn I  Cs Sn I  Cl I  Cs Sn I 
 1.0000000000000000
    13.2320891963438640    0.0000000000000000    0.0000000000000000
     0.0000000000000000   13.2320891963438640    0.0000000000000000
     0.0000000000000000    0.0000000000000000   13.2320891963438640
 Cs  Sn  I   Cs  Sn  I   Cs  Sn  Cl  I   Cs  Sn  I   Cl  I   Cs  Sn  I   Cl  Cs  Sn  I   Cs  Sn  I   Cl  I   Cs  Sn  I  
   1   1   3   1   1   3   1   1   1   2   1   1   1   1   1   1   1   2   1   1   1   3   1   1   1   1   1   1   1   3
Cartesian
  0.0000000000000000  0.0000000000000000  0.0000000000000000
  3.3080222990859660  3.3080222990859660  3.3080222990859660
  3.3080222990859660  3.3080222990859660  0.0000000000000000
  3.3080222990859660  0.0000000000000000  3.3080222990859660
  0.0000000000000000  3.3080222990859660  3.3080222990859660
  0.0000000000000000  0.0000000000000000  6.6160445981719311
  3.3080222990859660  3.3080222990859660  9.9240668972578980
  3.3080222990859660  3.3080222990859660  6.6160445981719311
  3.3080222990859660  0.0000000000000000  9.9240668972578980
  0.0000000000000000  3.3080222990859660  9.9240668972578980
  0.0000000000000000  6.6160445981719311  0.0000000000000000
  3.3080222990859660  9.9240668972578980  3.3080222990859660
  3.3080222990859660  9.9240668972578980  0.0000000000000000
  3.3080222990859660  6.6160445981719311  3.3080222990859660
  0.0000000000000000  9.9240668972578980  3.3080222990859660
  0.0000000000000000  6.6160445981719311  6.6160445981719311
  3.3080222990859660  9.9240668972578980  9.9240668972578980
  3.3080222990859660  9.9240668972578980  6.6160445981719311
  3.3080222990859660  6.6160445981719311  9.9240668972578980
  0.0000000000000000  9.9240668972578980  9.9240668972578980
  6.6160445981719311  0.0000000000000000  0.0000000000000000
  9.9240668972578980  3.3080222990859660  3.3080222990859660
  9.9240668972578980  3.3080222990859660  0.0000000000000000
  9.9240668972578980  0.0000000000000000  3.3080222990859660
  6.6160445981719311  3.3080222990859660  3.3080222990859660
  6.6160445981719311  0.0000000000000000  6.6160445981719311
  9.9240668972578980  3.3080222990859660  9.9240668972578980
  9.9240668972578980  3.3080222990859660  6.6160445981719311
  9.9240668972578980  0.0000000000000000  9.9240668972578980
  6.6160445981719311  3.3080222990859660  9.9240668972578980
  6.6160445981719311  6.6160445981719311  0.0000000000000000
  9.9240668972578980  9.9240668972578980  3.3080222990859660
  9.9240668972578980  9.9240668972578980  0.0000000000000000
  9.9240668972578980  6.6160445981719311  3.3080222990859660
  6.6160445981719311  9.9240668972578980  3.3080222990859660
  6.6160445981719311  6.6160445981719311  6.6160445981719311
  9.9240668972578980  9.9240668972578980  9.9240668972578980
  9.9240668972578980  9.9240668972578980  6.6160445981719311
  9.9240668972578980  6.6160445981719311  9.9240668972578980
  6.6160445981719311  9.9240668972578980  9.9240668972578980
