K  Sn I  K  Sn I  K  Ge I  K  Ge I  K  Ge I  K  Sn I  K  Ge I  K  Ge I 
 1.0000000000000000
    12.3460843995171192    0.0000000000000000    0.0000000000000000
     0.0000000000000000   12.3460843995171192    0.0000000000000000
     0.0000000000000000    0.0000000000000000   12.3460843995171192
 K   Sn  I   K   Sn  I   K   Ge  I   K   Ge  I   K   Ge  I   K   Sn  I   K   Ge  I   K   Ge  I  
   1   1   3   1   1   3   1   1   3   1   1   3   1   1   3   1   1   3   1   1   3   1   1   3
Cartesian
  0.0000000000000000  0.0000000000000000  0.0000000000000000
  3.0865210998792798  3.0865210998792798  3.0865210998792798
  3.0865210998792798  3.0865210998792798  0.0000000000000000
  3.0865210998792798  0.0000000000000000  3.0865210998792798
  0.0000000000000000  3.0865210998792798  3.0865210998792798
  0.0000000000000000  0.0000000000000000  6.1730421997585587
  3.0865210998792798  3.0865210998792798  9.2595632996378399
  3.0865210998792798  3.0865210998792798  6.1730421997585587
  3.0865210998792798  0.0000000000000000  9.2595632996378399
  0.0000000000000000  3.0865210998792798  9.2595632996378399
  0.0000000000000000  6.1730421997585587  0.0000000000000000
  3.0865210998792798  9.2595632996378399  3.0865210998792798
  3.0865210998792798  9.2595632996378399  0.0000000000000000
  3.0865210998792798  6.1730421997585587  3.0865210998792798
  0.0000000000000000  9.2595632996378399  3.0865210998792798
  0.0000000000000000  6.1730421997585587  6.1730421997585587
  3.0865210998792798  9.2595632996378399  9.2595632996378399
  3.0865210998792798  9.2595632996378399  6.1730421997585587
  3.0865210998792798  6.1730421997585587  9.2595632996378399
  0.0000000000000000  9.2595632996378399  9.2595632996378399
  6.1730421997585587  0.0000000000000000  0.0000000000000000
  9.2595632996378399  3.0865210998792798  3.0865210998792798
  9.2595632996378399  3.0865210998792798  0.0000000000000000
  9.2595632996378399  0.0000000000000000  3.0865210998792798
  6.1730421997585587  3.0865210998792798  3.0865210998792798
  6.1730421997585587  0.0000000000000000  6.1730421997585587
  9.2595632996378399  3.0865210998792798  9.2595632996378399
  9.2595632996378399  3.0865210998792798  6.1730421997585587
  9.2595632996378399  0.0000000000000000  9.2595632996378399
  6.1730421997585587  3.0865210998792798  9.2595632996378399
  6.1730421997585587  6.1730421997585587  0.0000000000000000
  9.2595632996378399  9.2595632996378399  3.0865210998792798
  9.2595632996378399  9.2595632996378399  0.0000000000000000
  9.2595632996378399  6.1730421997585587  3.0865210998792798
  6.1730421997585587  9.2595632996378399  3.0865210998792798
  6.1730421997585587  6.1730421997585587  6.1730421997585587
  9.2595632996378399  9.2595632996378399  9.2595632996378399
  9.2595632996378399  9.2595632996378399  6.1730421997585587
  9.2595632996378399  6.1730421997585587  9.2595632996378399
  6.1730421997585587  9.2595632996378399  9.2595632996378399
