40
Lattice="12.40672501729544 0.0 0.0 0.008641345441118995 12.30334480149239 0.0 -0.001058059653850974 0.0019173278101225265 12.586328325850127" Properties=species:S:1:pos:R:3:spacegroup_kinds:I:1:forces:R:3 spacegroup="P 1" unit_cell=conventional occupancy="_JSON {\"0\": {\"Cs\": 1.0}, \"1\": {\"Pb\": 1.0}, \"2\": {\"I\": 1.0}, \"3\": {\"I\": 1.0}, \"4\": {\"I\": 1.0}, \"5\": {\"Cs\": 1.0}, \"6\": {\"Pb\": 1.0}, \"7\": {\"I\": 1.0}, \"8\": {\"I\": 1.0}, \"9\": {\"I\": 1.0}, \"10\": {\"Cs\": 1.0}, \"11\": {\"Pb\": 1.0}, \"12\": {\"Cl\": 1.0}, \"13\": {\"Cl\": 1.0}, \"14\": {\"I\": 1.0}, \"15\": {\"Cs\": 1.0}, \"16\": {\"Pb\": 1.0}, \"17\": {\"I\": 1.0}, \"18\": {\"Cl\": 1.0}, \"19\": {\"I\": 1.0}, \"20\": {\"Cs\": 1.0}, \"21\": {\"Pb\": 1.0}, \"22\": {\"I\": 1.0}, \"23\": {\"I\": 1.0}, \"24\": {\"Cl\": 1.0}, \"25\": {\"Cs\": 1.0}, \"26\": {\"Pb\": 1.0}, \"27\": {\"I\": 1.0}, \"28\": {\"I\": 1.0}, \"29\": {\"I\": 1.0}, \"30\": {\"Cs\": 1.0}, \"31\": {\"Pb\": 1.0}, \"32\": {\"I\": 1.0}, \"33\": {\"Cl\": 1.0}, \"34\": {\"Br\": 1.0}, \"35\": {\"Cs\": 1.0}, \"36\": {\"Pb\": 1.0}, \"37\": {\"I\": 1.0}, \"38\": {\"I\": 1.0}, \"39\": {\"Br\": 1.0}}" candidate_id=b33464c9cc53435c formula=FAPbBr0.082Cl0.21I0.713 config_index=0 rattle_stdev=0.0 method=PBE fidelity=phase2_force energy=-119.72721138065683 stress="-0.0006704873558847633 -1.7041908282377053e-05 1.3830223017328085e-05 -1.7041908282377053e-05 -0.00021028201792209645 -2.7879418302487275e-05 1.3830223017328085e-05 -2.7879418302487275e-05 -0.0013104575903410372" pbc="T T T"
Cs       0.02769154       0.03996298       0.05903394        0       0.00088360       0.01477981       0.00037275
Pb       3.32538130       3.29790480       3.13345075        1      -0.02103985       0.02935203       0.00264555
I        3.17582756       3.25948297       0.00501968        2      -0.01302778      -0.00777366       0.00948286
I        3.28124042      12.29047896       3.03267925        3      -0.00957738      -0.00237920      -0.00136495
I        0.00550857       3.30062183       3.16114630        4       0.00429796       0.00029594      -0.00494823
Cs       0.05107918       0.01551807       6.22715288        5       0.00415220       0.00771557      -0.00274028
Pb       3.12604792       3.33452138       9.45083470        6       0.03123480      -0.01357547       0.00836747
I        3.17012572       3.28068794       6.28610153        7      -0.00928396      -0.00184597      -0.01143236
I        3.15454076      12.28979556       9.57737979        8      -0.00071803      -0.01738187       0.00765318
I        0.01523219       3.10926634       9.41688636        9       0.00042757      -0.00731826      -0.00428081
Cs       0.06549483       6.15903211      12.58212673       10       0.01714229      -0.00217081      -0.00491188
Pb       3.23268495       9.01485121       2.93906452       11       0.04773150      -0.03322662       0.03799279
Cl       3.27613244       8.92894034       0.01340864       12       0.02099677      -0.02109670      -0.00022465
Cl       3.33744021       6.14750092       3.00718294       13       0.02796306       0.02475129      -0.01670095
I        0.02287234       8.99074916       3.03955062       14      -0.00214795       0.00380031      -0.00356336
Cs       0.00814284       6.16294435       6.28835878       15       0.00012027       0.00291398      -0.00209341
Pb       3.22320624       9.04417076       9.65347610       16       0.04089079       0.01628664      -0.03905970
I        3.22385731       9.02129008       6.29233862       17      -0.01828636       0.00703188       0.00059977
Cl       3.16001604       6.16338260       9.57271265       18      -0.00417854       0.01836769       0.02404374
I        0.03271779       9.13767168       9.56676017       19       0.00997880      -0.00669499       0.01178083
Cs       6.19585461      12.24957834      12.57786074       20      -0.00216836      -0.01315907      -0.00846559
Pb       9.08205060       3.29461627       3.14850205       21       0.02300066      -0.00433967      -0.00359028
I        9.22455093       3.16601881       0.01274444       22       0.00787988      -0.00915192       0.00353654
I        9.12629086      12.30103715       3.16404045       23       0.00632345       0.00478924      -0.00577943
Cl       6.19938093       3.36737047       3.16444091       24      -0.00164379       0.02803371       0.00664592
Cs       6.16315312      12.23511713       6.29324034       25      -0.00641364      -0.01780102       0.00493535
Pb       9.30164291       3.08184901       9.44550851       26      -0.02400033       0.04110004       0.01124409
I        9.23426361       3.15617725       6.28153194       27       0.00940567      -0.00911010      -0.00484702
I        9.27046462      12.29429528       9.41312121       28       0.00750677       0.00357819      -0.00532865
I        6.20004454       3.11592426       9.41488038       29       0.00011937      -0.02422237      -0.00979861
Cs       6.08718348       6.26081664       0.09413581       30      -0.01814324       0.01025360       0.02101745
Pb       9.19370206       9.01833060       3.13734703       31      -0.02058421       0.01288278      -0.00595047
I        9.12321017       9.14117565       0.00796230       32       0.00572164       0.00997287       0.00123419
Cl       9.09400860       6.15246416       3.17247487       33      -0.02963747       0.00694363       0.01398141
Br       6.21375309       9.04578242       3.07366083       34      -0.03550160      -0.02717182      -0.00913280
Cs       6.23600448       6.16538993       6.18621838       35      -0.00114150       0.00220833      -0.03897314
Pb       9.20541642       9.20976724       9.44983103       36      -0.01300431      -0.03429249       0.01835623
I        9.15017201       9.15298217       6.28586644       37       0.01731599       0.00842805      -0.00390489
I        9.24040458       6.15103297       9.41000989       38       0.01214267      -0.00514369      -0.01455004
Br       6.22187302       9.15959772       9.51586736       39      -0.06470070       0.00410738       0.01693044
40
Lattice="12.40672501729544 0.0 0.0 0.008641345441118995 12.30334480149239 0.0 -0.001058059653850974 0.0019173278101225265 12.586328325850127" Properties=species:S:1:pos:R:3:spacegroup_kinds:I:1:forces:R:3 spacegroup="P 1" unit_cell=conventional occupancy="_JSON {\"0\": {\"Cs\": 1.0}, \"1\": {\"Pb\": 1.0}, \"2\": {\"I\": 1.0}, \"3\": {\"I\": 1.0}, \"4\": {\"I\": 1.0}, \"5\": {\"Cs\": 1.0}, \"6\": {\"Pb\": 1.0}, \"7\": {\"I\": 1.0}, \"8\": {\"I\": 1.0}, \"9\": {\"I\": 1.0}, \"10\": {\"Cs\": 1.0}, \"11\": {\"Pb\": 1.0}, \"12\": {\"Cl\": 1.0}, \"13\": {\"Cl\": 1.0}, \"14\": {\"I\": 1.0}, \"15\": {\"Cs\": 1.0}, \"16\": {\"Pb\": 1.0}, \"17\": {\"I\": 1.0}, \"18\": {\"Cl\": 1.0}, \"19\": {\"I\": 1.0}, \"20\": {\"Cs\": 1.0}, \"21\": {\"Pb\": 1.0}, \"22\": {\"I\": 1.0}, \"23\": {\"I\": 1.0}, \"24\": {\"Cl\": 1.0}, \"25\": {\"Cs\": 1.0}, \"26\": {\"Pb\": 1.0}, \"27\": {\"I\": 1.0}, \"28\": {\"I\": 1.0}, \"29\": {\"I\": 1.0}, \"30\": {\"Cs\": 1.0}, \"31\": {\"Pb\": 1.0}, \"32\": {\"I\": 1.0}, \"33\": {\"Cl\": 1.0}, \"34\": {\"Br\": 1.0}, \"35\": {\"Cs\": 1.0}, \"36\": {\"Pb\": 1.0}, \"37\": {\"I\": 1.0}, \"38\": {\"I\": 1.0}, \"39\": {\"Br\": 1.0}}" candidate_id=b33464c9cc53435c formula=FAPbBr0.082Cl0.21I0.713 config_index=1 rattle_stdev=0.08 method=PBE fidelity=phase2_force energy=-119.07517258080924 stress="-0.0019952809441816577 -1.4583610470267521e-05 -7.991548748395474e-05 -1.4583610470267521e-05 -0.0010792945600018396 -0.00014460318256468595 -7.991548748395474e-05 -0.00014460318256468595 -0.003716827806798432" pbc="T T T"
Cs      -0.05922417      -0.03172223       0.03452999        0      -0.03635471       0.04484561       0.02865268
Pb       3.21818661       3.20137796       3.08211260        1       0.18869188       0.26163033       0.31919060
I        3.28046321       3.40711980       0.07134888        2      -0.10352599      -0.08787196      -0.12394466
I        3.27937652      12.27379384       2.95934967        3      -0.02508584       0.03768590      -0.00086147
I       -0.08047083       3.29373036       3.25521338        4       0.37962123       0.00407604      -0.00136328
Cs      -0.07972815       0.11377359       6.31326378        5       0.03192958       0.04627916      -0.04739554
Pb       3.15762975       3.30350532       9.49790684        6       0.03953405      -0.15037545      -0.08187210
I        3.05546181       3.25480196       6.38634030        7       0.03307827       0.01439840      -0.23500393
I        3.09608135      12.40407437       9.65295210        8      -0.01192324      -0.33518732       0.00205264
I       -0.00588803       3.09620927       9.33975777        9       0.21761779      -0.00768832       0.01996017
Cs       0.03808304       6.16294443      12.54215617       10       0.00880287      -0.03470818       0.03047776
Pb       3.05573259       9.03963816       2.81189242       11       0.86191577      -0.27381378      -0.12117972
Cl       3.33448880       8.92030824      -0.03860508       12      -0.06476364       0.00783013       0.02367227
Cl       3.20199569       6.11802300       2.87995320       13       0.00025882       0.05431846       0.04864241
I        0.14131281       9.02870438       3.11265973       14      -0.76631938      -0.00152704       0.02846609
Cs       0.08498046       6.16970776       6.42573726       15       0.01325635      -0.03098306      -0.02374390
Pb       3.29135766       8.98377994       9.47046576       16       0.23665457       0.11435330       0.12604546
I        3.23259640       8.98527744       6.25930083       17      -0.03135453       0.00906530       0.08037733
Cl       3.18553474       6.12009397       9.64860597       18      -0.01927582       0.35714332      -0.02843950
I        0.04483259       9.14382387       9.56200814       19       0.27478510       0.01175341       0.01375903
Cs       6.19024351      12.20428642      12.60274117       20       0.01579470      -0.00261158       0.00582552
Pb       9.13998730       3.33593227       3.23058451       21      -0.29061005      -0.20400129      -0.57698567
I        9.26616313       3.09643173       0.13278965       22       0.05055638       0.00173967      -0.51560445
I        9.21960863      12.34039031       3.10545947       23       0.00688787      -0.11462780       0.11380517
Cl       6.25380542       3.40809022       3.09743801       24      -0.27604574       0.01224154       0.06316463
Cs       6.21496471      12.23612029       6.41800747       25      -0.03924667      -0.01235219      -0.02091111
Pb       9.38441054       3.10886442       9.34129968       26      -0.29631380       0.33725871       0.40288458
I        9.14478007       3.26093846       6.24007458       27      -0.01074423      -0.06666543       0.49165525
I        9.23901467      12.37773276       9.41909843       28      -0.01638583      -0.20389704       0.00202779
I        6.20719950       3.12023685       9.44835614       29       0.05265669      -0.01386312      -0.00857870
Cs       5.98896508       6.17365332       0.11950576       30       0.06157528       0.06521570       0.07296786
Pb       9.13126962       8.94984012       3.03175732       31      -0.16210729       0.19993718       0.42226608
I        9.15951271       9.22131764       0.12106108       32       0.03048306      -0.00507743      -0.57920717
Cl       9.07879397       6.15487300       3.02260153       33       0.00801268       0.11372748       0.01593813
Br       6.20441093       9.03558320       3.14583557       34       0.14429346      -0.03341969       0.01001117
Cs       6.13085470       6.15742587       6.19746237       35      -0.00103776      -0.02552023      -0.06595540
Pb       9.41572090       9.35022955       9.23897920       36      -0.37483969      -0.42553745       1.08230297
I        9.04724045       9.13924440       6.42990274       37      -0.02100329       0.02987580      -1.08857897
I        9.28910023       6.15355501       9.29269692       38       0.00393147       0.30168022       0.08620222
Br       6.24662828       9.25097515       9.47499982       39      -0.11573551       0.00651675       0.03146975
40
Lattice="12.40672501729544 0.0 0.0 0.008641345441118995 12.30334480149239 0.0 -0.001058059653850974 0.0019173278101225265 12.586328325850127" Properties=species:S:1:pos:R:3:spacegroup_kinds:I:1:forces:R:3 spacegroup="P 1" unit_cell=conventional occupancy="_JSON {\"0\": {\"Cs\": 1.0}, \"1\": {\"Pb\": 1.0}, \"2\": {\"I\": 1.0}, \"3\": {\"I\": 1.0}, \"4\": {\"I\": 1.0}, \"5\": {\"Cs\": 1.0}, \"6\": {\"Pb\": 1.0}, \"7\": {\"I\": 1.0}, \"8\": {\"I\": 1.0}, \"9\": {\"I\": 1.0}, \"10\": {\"Cs\": 1.0}, \"11\": {\"Pb\": 1.0}, \"12\": {\"Cl\": 1.0}, \"13\": {\"Cl\": 1.0}, \"14\": {\"I\": 1.0}, \"15\": {\"Cs\": 1.0}, \"16\": {\"Pb\": 1.0}, \"17\": {\"I\": 1.0}, \"18\": {\"Cl\": 1.0}, \"19\": {\"I\": 1.0}, \"20\": {\"Cs\": 1.0}, \"21\": {\"Pb\": 1.0}, \"22\": {\"I\": 1.0}, \"23\": {\"I\": 1.0}, \"24\": {\"Cl\": 1.0}, \"25\": {\"Cs\": 1.0}, \"26\": {\"Pb\": 1.0}, \"27\": {\"I\": 1.0}, \"28\": {\"I\": 1.0}, \"29\": {\"I\": 1.0}, \"30\": {\"Cs\": 1.0}, \"31\": {\"Pb\": 1.0}, \"32\": {\"I\": 1.0}, \"33\": {\"Cl\": 1.0}, \"34\": {\"Br\": 1.0}, \"35\": {\"Cs\": 1.0}, \"36\": {\"Pb\": 1.0}, \"37\": {\"I\": 1.0}, \"38\": {\"I\": 1.0}, \"39\": {\"Br\": 1.0}}" candidate_id=b33464c9cc53435c formula=FAPbBr0.082Cl0.21I0.713 config_index=2 rattle_stdev=0.08 method=PBE fidelity=phase2_force energy=-119.18399247063229 stress="-0.0015431458927803367 -5.6204550027595314e-05 9.389191394292315e-05 -5.6204550027595314e-05 -0.0014725802581477395 -1.4224636083079822e-05 9.389191394292315e-05 -1.4224636083079822e-05 -0.002266323924909003" pbc="T T T"
Cs       0.01867449      -0.04616214       0.20183610        0       0.01051477       0.01292803      -0.05987482
Pb       3.20882264       3.27179914       3.03265903        1       0.43143696       0.26220387       0.30167265
I        3.20589688       3.18923118      -0.02297838        2      -0.04638159       0.02044747      -0.10461528
I        3.30497324      12.38655191       2.90715963        3      -0.04766758      -0.51574835       0.03527401
I        0.15383087       3.34013878       3.15068939        4      -0.58034616      -0.00928177      -0.03371199
Cs       0.01882952      -0.06237491       6.18975553        5      -0.01437085       0.00461490       0.04688989
Pb       3.06861420       3.43223285       9.38865870        6       0.51749257      -0.09359579       0.02886498
I        3.12304367       3.27607843       6.29246792        7       0.00732397      -0.06838501      -0.13916222
I        3.05988468      12.16589617       9.65036029        8       0.02142334       0.33193961       0.02417019
I        0.04824585       3.05360482       9.23378460        9      -0.18488602      -0.03216799      -0.00235678
Cs       0.00251551       6.07675077      12.58959138       10       0.04580551       0.01823720      -0.03921058
Pb       3.19034942       9.07727080       2.92299935       11       0.30495256      -0.24148099       0.10367259
Cl       3.23768375       8.84611937      -0.02681011       12       0.02335295       0.00488044       0.31384956
Cl       3.40063142       6.07350111       3.18398576       13      -0.04088641       0.45842896      -0.11857335
I       -0.08914655       8.97162137       3.05693788       14       0.53967576       0.00912742       0.00487567
Cs      -0.02004799       6.16981440       6.29689094       15       0.00081830       0.00870310       0.01325423
Pb       3.20744375       9.15192547       9.68109002       16       0.04248864      -0.32144413      -0.12123584
I        3.26846886       8.97366727       6.35096520       17      -0.06539760       0.09367712      -0.25349767
Cl       3.26651626       6.10497997       9.53385219       18      -0.04007373       0.10552591       0.03795224
I        0.11887092       8.93004308       9.58011443       19      -0.13393671      -0.01182745       0.01784190
Cs       6.27897138      12.10489243      12.63855202       20      -0.03038960       0.02169648      -0.04394020
Pb       9.04204158       3.10707281       3.13986864       21      -0.25681740       0.36460830       0.14062050
I        9.10432791       3.20512110      -0.03150985       22       0.05729603       0.03031805       0.20842317
I        9.21089146      12.23149173       3.15803316       23       0.02644252       0.13082976      -0.01943740
Cl       6.19080854       3.53527623       3.13719787       24       0.32044880      -0.16430276      -0.02935809
Cs       6.12092072      12.13154778       6.31036826       25       0.01667187      -0.02017030       0.02904125
Pb       9.39174448       3.11397187       9.50675534       26      -0.40976386      -0.05257027      -0.25627592
I        9.12601342       3.20208593       6.26392097       27       0.06037619      -0.07449718      -0.04086042
I        9.32207973      12.21391774       9.56510030       28       0.06022241       0.66612220       0.02443831
I        6.21739340       3.15592189       9.36475309       29       0.02491839      -0.09103002      -0.00609724
Cs       6.00695275       6.19831182       0.11047803       30      -0.02235658      -0.02693459       0.04770421
Pb       9.23658942       8.93233081       2.95991865       31      -0.43230567      -0.21902664       0.76921403
I        9.17496459       9.11538879      -0.00584283       32       0.00760084      -0.02775052      -0.04467347
Cl       8.91093485       6.14350065       3.24889997       33       0.10287244      -0.03324920      -0.07803443
Br       6.25013214       9.21073662       3.07865766       34      -0.40309414       0.01941908      -0.08251113
Cs       6.23623187       6.12910562       6.21609698       35      -0.01365446      -0.01565627      -0.08211082
Pb       9.14036714       9.20164264       9.48548808       36       0.21327130       0.11537111      -0.39854308
I        9.04816172       9.16160872       6.35404539       37       0.08199485       0.09210250      -0.27673242
I        9.22785641       6.24613851       9.29222882       38       0.08075651      -0.81262083      -0.00221762
Br       6.29115628       9.08812656       9.47194971       39      -0.27366422       0.06129478       0.08538738
40
Lattice="12.40672501729544 0.0 0.0 0.008641345441118995 12.30334480149239 0.0 -0.001058059653850974 0.0019173278101225265 12.586328325850127" Properties=species:S:1:pos:R:3:spacegroup_kinds:I:1:forces:R:3 spacegroup="P 1" unit_cell=conventional occupancy="_JSON {\"0\": {\"Cs\": 1.0}, \"1\": {\"Pb\": 1.0}, \"2\": {\"I\": 1.0}, \"3\": {\"I\": 1.0}, \"4\": {\"I\": 1.0}, \"5\": {\"Cs\": 1.0}, \"6\": {\"Pb\": 1.0}, \"7\": {\"I\": 1.0}, \"8\": {\"I\": 1.0}, \"9\": {\"I\": 1.0}, \"10\": {\"Cs\": 1.0}, \"11\": {\"Pb\": 1.0}, \"12\": {\"Cl\": 1.0}, \"13\": {\"Cl\": 1.0}, \"14\": {\"I\": 1.0}, \"15\": {\"Cs\": 1.0}, \"16\": {\"Pb\": 1.0}, \"17\": {\"I\": 1.0}, \"18\": {\"Cl\": 1.0}, \"19\": {\"I\": 1.0}, \"20\": {\"Cs\": 1.0}, \"21\": {\"Pb\": 1.0}, \"22\": {\"I\": 1.0}, \"23\": {\"I\": 1.0}, \"24\": {\"Cl\": 1.0}, \"25\": {\"Cs\": 1.0}, \"26\": {\"Pb\": 1.0}, \"27\": {\"I\": 1.0}, \"28\": {\"I\": 1.0}, \"29\": {\"I\": 1.0}, \"30\": {\"Cs\": 1.0}, \"31\": {\"Pb\": 1.0}, \"32\": {\"I\": 1.0}, \"33\": {\"Cl\": 1.0}, \"34\": {\"Br\": 1.0}, \"35\": {\"Cs\": 1.0}, \"36\": {\"Pb\": 1.0}, \"37\": {\"I\": 1.0}, \"38\": {\"I\": 1.0}, \"39\": {\"Br\": 1.0}}" candidate_id=b33464c9cc53435c formula=FAPbBr0.082Cl0.21I0.713 config_index=3 rattle_stdev=0.08 method=PBE fidelity=phase2_force energy=-118.9951653395475 stress="-0.002310770645497368 0.00015097141237398174 6.523591161672762e-05 0.00015097141237398174 -0.0013938562728269793 0.00013224320239777949 6.523591161672762e-05 0.00013224320239777949 -0.002020779120941938" pbc="T T T"
Cs      -0.07799195       0.20130321       0.06283910        0       0.01645194       0.06413222       0.03649101
Pb       3.30636761       3.30463462       3.21021413        1      -0.22055310      -0.24592928      -0.75171986
I        3.12129968       3.30180860      -0.05697378        2      -0.00050949      -0.00000655      -0.04151618
I        3.39363692      12.27250452       2.92820839        3      -0.00489116      -0.19198084       0.01677746
I       -0.04877425       3.17094717       3.05874842        4       0.14425564       0.04827115       0.04198439
Cs       0.03313545      -0.05252681       6.16669367        5      -0.03237401       0.02810508      -0.02035138
Pb       3.14710159       3.13010594       9.31721203        6      -0.10364542       0.30565608       0.48100732
I        3.11318690       3.08494589       6.18396674        7      -0.04767231      -0.03460076       0.38121216
I        3.20763057      12.18748885       9.51414702        8      -0.04775971       0.46507978      -0.00689202
I       -0.10495747       3.01410314       9.59822157        9       0.60791487       0.01828681       0.01582193
Cs       0.02735260       6.23076523      12.43773167       10       0.03500762      -0.10575458      -0.00488641
Pb       3.19338779       8.91889148       2.87464690       11       0.09891566       0.26527515       0.02638083
Cl       3.38859792       8.91051508      -0.04368708       12      -0.03479028      -0.05599254       0.42821687
Cl       3.32443320       6.09319053       3.12831235       13       0.01212234       0.29013387      -0.00860936
I       -0.11693349       9.04343153       3.01202132       14       0.99944430      -0.04251799      -0.02017645
Cs      -0.05255301       6.17670646       6.23577550       15      -0.02976699      -0.02029064       0.00125150
Pb       3.26742188       9.07477942       9.62377287       16      -0.09331358      -0.51903268      -0.05541687
I        3.35010883       9.03863388       6.38926595       17      -0.05870094       0.01746334      -0.35186743
Cl       3.21853449       6.21730229       9.52628816       18      -0.01945655      -0.24496360      -0.02483905
I        0.02477062       9.01088249       9.56078286       19      -0.12642435       0.03714954      -0.01899357
Cs       6.29175932      12.22834452      12.52571677       20      -0.03837442      -0.00077685      -0.01214081
Pb       8.93032767       3.17139235       3.11707619       21       0.31387631       0.25607821       0.09328182
I        9.19139246       3.22290423       0.06414647       22      -0.03393130      -0.02505199      -0.24178376
I        9.31807777      12.28745457       3.08296976       23      -0.05460694      -0.21631745       0.01864846
Cl       6.16389644       3.43504865       3.20398963       24      -0.15502939      -0.00837526       0.03677020
Cs       6.18544419      12.27688440       6.31864968       25       0.00958828      -0.04458074       0.01054987
Pb       9.31981382       3.05062177       9.38806710       26      -0.24072579      -0.01085928       0.04705405
I        9.35779251       3.08714164       6.25282574       27       0.02024093      -0.00348517       0.08508285
I        9.27716876      12.42863305       9.31877423       28      -0.03337760      -1.31120671       0.03365283
I        6.16814637       3.08205311       9.45962733       29      -0.11315357      -0.02720433      -0.03679905
Cs       6.04100391       6.26651643       0.16351222       30      -0.00798755      -0.04367166      -0.03854347
Pb       9.22689478       9.00023182       3.19779448       31      -0.06227595      -0.16563892       0.21621982
I        9.14122056       9.10599541       0.06028864       32       0.02996813       0.00601866       0.07895224
Cl       9.02231874       6.03850827       3.31187360       33       0.03089385       0.18823455       0.01977847
Br       6.44729914       8.99188440       3.01197889       34      -1.05955942      -0.00822701      -0.01186836
Cs       6.32044386       6.25704697       6.19586822       35       0.00837957      -0.03804354      -0.03358274
Pb       9.20641590       9.15380553       9.59993496       36       0.05298875       0.01214981      -0.29585347
I        9.11411934       9.12848343       6.39888579       37       0.04225747       0.03735984      -0.11620821
I        9.18811730       5.96970764       9.45843805       38      -0.03042647       1.30575255      -0.00553141
Br       6.17992758       9.17619690       9.60357952       39       0.22631211       0.02028359       0.03333394
