Cs Pb I  Cs Pb I  Cs Sn I  Cs Sn I  Cs Sn I  Cs Pb I  Cs Sn I  Cs Pb I 
 1.0000000000000000
    13.5378421685289254    0.0000000000000000    0.0000000000000000
     0.0000000000000000   13.5378421685289254    0.0000000000000000
     0.0000000000000000    0.0000000000000000   13.5378421685289254
 Cs  Pb  I   Cs  Pb  I   Cs  Sn  I   Cs  Sn  I   Cs  Sn  I   Cs  Pb  I   Cs  Sn  I   Cs  Pb  I  
   1   1   3   1   1   3   1   1   3   1   1   3   1   1   3   1   1   3   1   1   3   1   1   3
Cartesian
  0.0000000000000000  0.0000000000000000  0.0000000000000000
  3.3844605421322314  3.3844605421322314  3.3844605421322314
  3.3844605421322314  3.3844605421322314  0.0000000000000000
  3.3844605421322314  0.0000000000000000  3.3844605421322314
  0.0000000000000000  3.3844605421322314  3.3844605421322314
  0.0000000000000000  0.0000000000000000  6.7689210842644618
  3.3844605421322314  3.3844605421322314 10.1533816263966958
  3.3844605421322314  3.3844605421322314  6.7689210842644618
  3.3844605421322314  0.0000000000000000 10.1533816263966958
  0.0000000000000000  3.3844605421322314 10.1533816263966958
  0.0000000000000000  6.7689210842644618  0.0000000000000000
  3.3844605421322314 10.1533816263966958  3.3844605421322314
  3.3844605421322314 10.1533816263966958  0.0000000000000000
  3.3844605421322314  6.7689210842644618  3.3844605421322314
  0.0000000000000000 10.1533816263966958  3.3844605421322314
  0.0000000000000000  6.7689210842644618  6.7689210842644618
  3.3844605421322314 10.1533816263966958 10.1533816263966958
  3.3844605421322314 10.1533816263966958  6.7689210842644618
  3.3844605421322314  6.7689210842644618 10.1533816263966958
  0.0000000000000000 10.1533816263966958 10.1533816263966958
  6.7689210842644618  0.0000000000000000  0.0000000000000000
 10.1533816263966958  3.3844605421322314  3.3844605421322314
 10.1533816263966958  3.3844605421322314  0.0000000000000000
 10.1533816263966958  0.0000000000000000  3.3844605421322314
  6.7689210842644618  3.3844605421322314  3.3844605421322314
  6.7689210842644618  0.0000000000000000  6.7689210842644618
 10.1533816263966958  3.3844605421322314 10.1533816263966958
 10.1533816263966958  3.3844605421322314  6.7689210842644618
 10.1533816263966958  0.0000000000000000 10.1533816263966958
  6.7689210842644618  3.3844605421322314 10.1533816263966958
  6.7689210842644618  6.7689210842644618  0.0000000000000000
 10.1533816263966958 10.1533816263966958  3.3844605421322314
 10.1533816263966958 10.1533816263966958  0.0000000000000000
 10.1533816263966958  6.7689210842644618  3.3844605421322314
  6.7689210842644618 10.1533816263966958  3.3844605421322314
  6.7689210842644618  6.7689210842644618  6.7689210842644618
 10.1533816263966958 10.1533816263966958 10.1533816263966958
 10.1533816263966958 10.1533816263966958  6.7689210842644618
 10.1533816263966958  6.7689210842644618 10.1533816263966958
  6.7689210842644618 10.1533816263966958 10.1533816263966958
