Rb Sn I  Rb Sn I  Rb Ge I  Rb Ge I  Rb Ge I  Rb Sn I  Rb Ge I  Rb Sn I 
 1.0000000000000000
    12.5143758134395178    0.0000000000000000    0.0000000000000000
     0.0000000000000000   12.5143758134395178    0.0000000000000000
     0.0000000000000000    0.0000000000000000   12.5143758134395178
 Rb  Sn  I   Rb  Sn  I   Rb  Ge  I   Rb  Ge  I   Rb  Ge  I   Rb  Sn  I   Rb  Ge  I   Rb  Sn  I  
   1   1   3   1   1   3   1   1   3   1   1   3   1   1   3   1   1   3   1   1   3   1   1   3
Cartesian
  0.0000000000000000  0.0000000000000000  0.0000000000000000
  3.1285939533598794  3.1285939533598794  3.1285939533598794
  3.1285939533598794  3.1285939533598794  0.0000000000000000
  3.1285939533598794  0.0000000000000000  3.1285939533598794
  0.0000000000000000  3.1285939533598794  3.1285939533598794
  0.0000000000000000  0.0000000000000000  6.2571879067197580
  3.1285939533598794  3.1285939533598794  9.3857818600796392
  3.1285939533598794  3.1285939533598794  6.2571879067197580
  3.1285939533598794  0.0000000000000000  9.3857818600796392
  0.0000000000000000  3.1285939533598794  9.3857818600796392
  0.0000000000000000  6.2571879067197580  0.0000000000000000
  3.1285939533598794  9.3857818600796392  3.1285939533598794
  3.1285939533598794  9.3857818600796392  0.0000000000000000
  3.1285939533598794  6.2571879067197580  3.1285939533598794
  0.0000000000000000  9.3857818600796392  3.1285939533598794
  0.0000000000000000  6.2571879067197580  6.2571879067197580
  3.1285939533598794  9.3857818600796392  9.3857818600796392
  3.1285939533598794  9.3857818600796392  6.2571879067197580
  3.1285939533598794  6.2571879067197580  9.3857818600796392
  0.0000000000000000  9.3857818600796392  9.3857818600796392
  6.2571879067197580  0.0000000000000000  0.0000000000000000
  9.3857818600796392  3.1285939533598794  3.1285939533598794
  9.3857818600796392  3.1285939533598794  0.0000000000000000
  9.3857818600796392  0.0000000000000000  3.1285939533598794
  6.2571879067197580  3.1285939533598794  3.1285939533598794
  6.2571879067197580  0.0000000000000000  6.2571879067197580
  9.3857818600796392  3.1285939533598794  9.3857818600796392
  9.3857818600796392  3.1285939533598794  6.2571879067197580
  9.3857818600796392  0.0000000000000000  9.3857818600796392
  6.2571879067197580  3.1285939533598794  9.3857818600796392
  6.2571879067197580  6.2571879067197580  0.0000000000000000
  9.3857818600796392  9.3857818600796392  3.1285939533598794
  9.3857818600796392  9.3857818600796392  0.0000000000000000
  9.3857818600796392  6.2571879067197580  3.1285939533598794
  6.2571879067197580  9.3857818600796392  3.1285939533598794
  6.2571879067197580  6.2571879067197580  6.2571879067197580
  9.3857818600796392  9.3857818600796392  9.3857818600796392
  9.3857818600796392  9.3857818600796392  6.2571879067197580
  9.3857818600796392  6.2571879067197580  9.3857818600796392
  6.2571879067197580  9.3857818600796392  9.3857818600796392
