40
Lattice="12.41747917751774 0.0 0.0 0.0007625924175530376 12.34637306594712 0.0 -2.0847330839313576e-06 -0.0077177926019181805 12.490915492149943" Properties=species:S:1:pos:R:3:spacegroup_kinds:I:1:forces:R:3 spacegroup="P 1" unit_cell=conventional occupancy="_JSON {\"0\": {\"Cs\": 1.0}, \"1\": {\"Pb\": 1.0}, \"2\": {\"I\": 1.0}, \"3\": {\"I\": 1.0}, \"4\": {\"I\": 1.0}, \"5\": {\"Cs\": 1.0}, \"6\": {\"Pb\": 1.0}, \"7\": {\"Br\": 1.0}, \"8\": {\"Br\": 1.0}, \"9\": {\"I\": 1.0}, \"10\": {\"Cs\": 1.0}, \"11\": {\"Pb\": 1.0}, \"12\": {\"Br\": 1.0}, \"13\": {\"Br\": 1.0}, \"14\": {\"I\": 1.0}, \"15\": {\"Cs\": 1.0}, \"16\": {\"Pb\": 1.0}, \"17\": {\"I\": 1.0}, \"18\": {\"Br\": 1.0}, \"19\": {\"I\": 1.0}, \"20\": {\"Cs\": 1.0}, \"21\": {\"Pb\": 1.0}, \"22\": {\"I\": 1.0}, \"23\": {\"I\": 1.0}, \"24\": {\"Br\": 1.0}, \"25\": {\"Cs\": 1.0}, \"26\": {\"Pb\": 1.0}, \"27\": {\"Br\": 1.0}, \"28\": {\"I\": 1.0}, \"29\": {\"Br\": 1.0}, \"30\": {\"Cs\": 1.0}, \"31\": {\"Pb\": 1.0}, \"32\": {\"I\": 1.0}, \"33\": {\"Br\": 1.0}, \"34\": {\"Br\": 1.0}, \"35\": {\"Cs\": 1.0}, \"36\": {\"Pb\": 1.0}, \"37\": {\"I\": 1.0}, \"38\": {\"Br\": 1.0}, \"39\": {\"Br\": 1.0}}" candidate_id=a08d0429018bba57 formula=CsPbBr0.48I0.523 config_index=0 rattle_stdev=0.0 method=PBE fidelity=phase2_force energy=-120.3925081047173 stress="0.0006928301559144866 -9.869098054212644e-06 -4.3997169699438205e-06 -9.869098054212644e-06 0.001141428579964507 -3.1284294283440966e-05 -4.3997169699438205e-06 -3.1284294283440966e-05 -1.7707593498221317e-05" pbc="T T T"
Cs       0.07450027      12.32068940      12.45481975        0       0.02065760      -0.01356397      -0.00796011
Pb       3.22859759       3.19996437       3.23265480        1      -0.00242101      -0.00888775      -0.01208377
I        3.24438311       3.15220622      12.48234479        2      -0.02005144      -0.01033576      -0.01104551
I        3.24016888      -0.00004812       3.11427576        3      -0.01299410       0.00118634      -0.00149695
I        0.00516696       3.22177974       3.27174975        4       0.00015158      -0.01222687      -0.00341491
Cs       0.04467846       0.05146938       6.27836924        5       0.00508934       0.01486298       0.00377438
Pb       3.23112943       3.10245611       9.25978008        6      -0.01532264      -0.00086422       0.02135055
Br       3.20218955       3.11535223       6.24246747        7       0.03241842       0.00614098       0.02258429
Br       3.16284314      -0.00347983       9.37532250        8       0.02819053       0.00198722       0.00259359
I        0.00814815       3.13757040       9.21614928        9       0.01249242      -0.00833663       0.00557310
Cs       0.04026640       6.17209291      12.47756737       10      -0.00190716       0.00338668       0.00177619
Pb       3.23387213       9.14484214       3.01986209       11       0.00715096       0.00855259       0.01617897
Br       3.18886084       9.23571854       0.00325259       12       0.02892116      -0.00984886      -0.02380116
Br       3.20604307       6.16927374       3.12263276       13       0.02668258       0.00182071      -0.00597165
I        0.00918373       9.12843637       3.03639995       14       0.00359650       0.00907047      -0.00159515
Cs       0.03908923       6.13683808       6.25903657       15      -0.01021249       0.00189540      -0.00105106
Pb       3.23710904       9.23639976       9.46827451       16      -0.00795509       0.00352529      -0.02315753
I        3.27735657       9.17287122       6.25396278       17      -0.02496770       0.01163654       0.01072469
Br       3.20688978       6.16485896       9.36831557       18       0.02180927      -0.00142504       0.00488952
I        0.01205846       9.20938843       9.46147425       19       0.01450886       0.00720945       0.00049077
Cs       6.15614544      -0.00097007      12.45731205       20      -0.00449619      -0.01727476      -0.00698827
Pb       9.19307636       3.21074850       3.23588325       21      -0.00052775       0.00523693       0.00128045
I        9.17378885       3.24545441      12.48806035       22       0.01336210      -0.01840572       0.00240594
I        9.18126554       0.00340564       3.19996654       23       0.00750385       0.00660299       0.00003757
Br       6.20400415       3.18941990       3.22058802       24       0.00623366       0.03307086       0.04751616
Cs       6.16576219       0.03184190       6.27812749       25      -0.00175330       0.01540015       0.00375505
Pb       9.19723800       3.20178970       9.25320341       26       0.00997410       0.00096386       0.00143807
Br       9.22537179       3.17157009       6.24941576       27      -0.03502404       0.02928132      -0.00522386
I        9.18364993      -0.00038507       9.29304755       28       0.00185333       0.00535488       0.00218831
Br       6.20705452       3.13780600       9.26145029       29      -0.01828720       0.00925984      -0.04574384
Cs       6.16073173       6.16816902      12.46509935       30      -0.00679917       0.01792705       0.00512621
Pb       9.19717954       9.14545534       3.12487302       31       0.00058871       0.00319154      -0.00264767
I        9.13743397       9.09763453      12.48887472       32      -0.00779131      -0.00100095       0.00605816
Br       9.22652075       6.17112374       3.16914150       33      -0.02692486      -0.01470303       0.01763380
Br       6.20635089       9.16472239       3.07713997       34      -0.01124521      -0.03268179      -0.03155631
Cs       6.17125963       6.12207995       6.27164743       35       0.00818181      -0.02565577      -0.00610658
Pb       9.20139654       9.14605121       9.36673590       36       0.01273778       0.00831761       0.00212294
I        9.15432323       9.06104015       6.24847873       37       0.00223542      -0.01075186      -0.00457465
Br       9.24850395       6.16681960       9.32150818       38      -0.02312236      -0.01267153      -0.01689724
Br       6.20899112       9.20837592       9.42179094       39      -0.03429109      -0.00703535       0.03167210
40
Lattice="12.41747917751774 0.0 0.0 0.0007625924175530376 12.34637306594712 0.0 -2.0847330839313576e-06 -0.0077177926019181805 12.490915492149943" Properties=species:S:1:pos:R:3:spacegroup_kinds:I:1:forces:R:3 spacegroup="P 1" unit_cell=conventional occupancy="_JSON {\"0\": {\"Cs\": 1.0}, \"1\": {\"Pb\": 1.0}, \"2\": {\"I\": 1.0}, \"3\": {\"I\": 1.0}, \"4\": {\"I\": 1.0}, \"5\": {\"Cs\": 1.0}, \"6\": {\"Pb\": 1.0}, \"7\": {\"Br\": 1.0}, \"8\": {\"Br\": 1.0}, \"9\": {\"I\": 1.0}, \"10\": {\"Cs\": 1.0}, \"11\": {\"Pb\": 1.0}, \"12\": {\"Br\": 1.0}, \"13\": {\"Br\": 1.0}, \"14\": {\"I\": 1.0}, \"15\": {\"Cs\": 1.0}, \"16\": {\"Pb\": 1.0}, \"17\": {\"I\": 1.0}, \"18\": {\"Br\": 1.0}, \"19\": {\"I\": 1.0}, \"20\": {\"Cs\": 1.0}, \"21\": {\"Pb\": 1.0}, \"22\": {\"I\": 1.0}, \"23\": {\"I\": 1.0}, \"24\": {\"Br\": 1.0}, \"25\": {\"Cs\": 1.0}, \"26\": {\"Pb\": 1.0}, \"27\": {\"Br\": 1.0}, \"28\": {\"I\": 1.0}, \"29\": {\"Br\": 1.0}, \"30\": {\"Cs\": 1.0}, \"31\": {\"Pb\": 1.0}, \"32\": {\"I\": 1.0}, \"33\": {\"Br\": 1.0}, \"34\": {\"Br\": 1.0}, \"35\": {\"Cs\": 1.0}, \"36\": {\"Pb\": 1.0}, \"37\": {\"I\": 1.0}, \"38\": {\"Br\": 1.0}, \"39\": {\"Br\": 1.0}}" candidate_id=a08d0429018bba57 formula=CsPbBr0.48I0.523 config_index=1 rattle_stdev=0.08 method=PBE fidelity=phase2_force energy=-119.74668976455662 stress="-0.0007982083814998962 -2.3488390183218196e-05 -0.00012092919739651006 -2.3488390183218196e-05 0.00018805328631129738 -0.00016963386475105191 -0.00012092919739651006 -0.00016963386475105191 -0.002682767475460287" pbc="T T T"
Cs      -0.01241544      12.24900419      12.43031580        0      -0.01590869       0.01900081       0.02514566
Pb       3.12140290       3.10343753       3.18131665        1       0.28288844       0.29214786       0.16331368
I        3.34901876       3.29984306      12.54867399        2      -0.12826958      -0.11078541      -0.04324099
I        3.23830497      -0.01673324       3.04094618        3      -0.00481856       0.01702311       0.00373998
I       -0.08081244       3.21488826       3.36581683        4       0.46389358      -0.01049087       0.01463522
Cs      -0.08612887       0.14972490       6.36448014        5       0.04157981       0.03407339      -0.05393383
Pb       3.26271126       3.07144005       9.30685222        6       0.04118275      -0.06269834      -0.08607193
Br       3.08752565       3.08946626       6.34270625        7       0.06717002       0.01445334      -0.13368340
Br       3.10438373       0.11079897       9.45089481        8       0.02559730      -0.24861944      -0.01386266
I       -0.01297207       3.12451333       9.13902070        9       0.09439711       0.00068845       0.05323999
Cs       0.01285461       6.17600523      12.43759681       10      -0.01113526      -0.03155700       0.03491927
Pb       3.05691977       9.16962909       2.89268999       11       0.72725928      -0.26133633      -0.06946381
Br       3.24721721       9.22708644      -0.04876113       12      -0.03222634       0.00410736      -0.03813160
Br       3.07059855       6.13979582       2.99540302       13       0.01473395       0.02598055       0.04171441
I        0.12762420       9.16639159       3.10950905       14      -0.74480449       0.01546675       0.03224028
Cs       0.11592685       6.14360148       6.39641505       15       0.01848815      -0.02653141      -0.03114751
Pb       3.30526046       9.17600893       9.28526416       16       0.18603520       0.02425054       0.30307242
I        3.28609567       9.13685857       6.22092499       17      -0.03308340       0.01119982      -0.08766688
Br       3.23240848       6.12157032       9.44420889       18      -0.00753818       0.30767178      -0.05462164
I        0.02417327       9.21554063       9.45672222       19       0.29684979       0.01980027      -0.00578722
Cs       6.15053435      -0.04626200      12.48219248       20       0.01807609       0.00175620       0.01611133
Pb       9.25101307       3.25206451       3.31796571       21      -0.40787588      -0.22362724      -0.47373387
I        9.21540106       3.17586732      12.60810556       22       0.06188174      -0.00242848      -0.37840540
I        9.27458331       0.04275880       3.14138556       23       0.01455932      -0.14230327       0.08400314
Br       6.25842864       3.23013965       3.15358512       24      -0.33843066       0.01873676       0.09853499
Cs       6.21757378       0.03284506       6.40289462       25      -0.03555427       0.01747408      -0.04275470
Pb       9.28000563       3.22880511       9.14899458       26      -0.17565588       0.26436555       0.34268315
Br       9.13588825       3.27633130       6.20795840       27      -0.03928858      -0.00898502       0.40479354
I        9.15219999       0.08305241       9.29902476       28       0.03588172      -0.16235096      -0.01954601
Br       6.21420948       3.14211859       9.29492605       29      -0.02419110      -0.00550616      -0.06009330
Cs       6.06251333       6.08100570      12.49046930       30       0.07509633       0.05358554       0.04391785
Pb       9.13474710       9.07696486       3.01928331       31      -0.15498851       0.24661885       0.47794226
I        9.17373650       9.17777652      12.60197350       32       0.01682794       0.01715347      -0.63611252
Br       9.21130612       6.17353258       3.01926816       33       0.01517008       0.09848151       0.02784271
Br       6.19700874       9.15452316       3.14931471       34       0.17200023      -0.03320260      -0.01016147
Cs       6.06610986       6.11411589       6.28289142       35       0.01366084      -0.05687168      -0.02754112
Pb       9.41170101       9.28651352       9.15588407       36      -0.39580258      -0.21856292       1.30519025
I        9.05139167       9.04730237       6.39251503       37      -0.06188329      -0.03476639      -1.28434086
Br       9.29719960       6.16934164       9.20419521       38       0.02399021       0.12362182       0.03923175
Br       6.23374638       9.29975335       9.38092340       39      -0.09846278       0.01309982       0.03671941
40
Lattice="12.41747917751774 0.0 0.0 0.0007625924175530376 12.34637306594712 0.0 -2.0847330839313576e-06 -0.0077177926019181805 12.490915492149943" Properties=species:S:1:pos:R:3:spacegroup_kinds:I:1:forces:R:3 spacegroup="P 1" unit_cell=conventional occupancy="_JSON {\"0\": {\"Cs\": 1.0}, \"1\": {\"Pb\": 1.0}, \"2\": {\"I\": 1.0}, \"3\": {\"I\": 1.0}, \"4\": {\"I\": 1.0}, \"5\": {\"Cs\": 1.0}, \"6\": {\"Pb\": 1.0}, \"7\": {\"Br\": 1.0}, \"8\": {\"Br\": 1.0}, \"9\": {\"I\": 1.0}, \"10\": {\"Cs\": 1.0}, \"11\": {\"Pb\": 1.0}, \"12\": {\"Br\": 1.0}, \"13\": {\"Br\": 1.0}, \"14\": {\"I\": 1.0}, \"15\": {\"Cs\": 1.0}, \"16\": {\"Pb\": 1.0}, \"17\": {\"I\": 1.0}, \"18\": {\"Br\": 1.0}, \"19\": {\"I\": 1.0}, \"20\": {\"Cs\": 1.0}, \"21\": {\"Pb\": 1.0}, \"22\": {\"I\": 1.0}, \"23\": {\"I\": 1.0}, \"24\": {\"Br\": 1.0}, \"25\": {\"Cs\": 1.0}, \"26\": {\"Pb\": 1.0}, \"27\": {\"Br\": 1.0}, \"28\": {\"I\": 1.0}, \"29\": {\"Br\": 1.0}, \"30\": {\"Cs\": 1.0}, \"31\": {\"Pb\": 1.0}, \"32\": {\"I\": 1.0}, \"33\": {\"Br\": 1.0}, \"34\": {\"Br\": 1.0}, \"35\": {\"Cs\": 1.0}, \"36\": {\"Pb\": 1.0}, \"37\": {\"I\": 1.0}, \"38\": {\"Br\": 1.0}, \"39\": {\"Br\": 1.0}}" candidate_id=a08d0429018bba57 formula=CsPbBr0.48I0.523 config_index=2 rattle_stdev=0.08 method=PBE fidelity=phase2_force energy=-119.884306766861 stress="-0.00025858278000601874 3.006246638187232e-05 6.326651324265814e-05 3.006246638187232e-05 -2.9866792351277345e-05 -4.710385747162791e-05 6.326651324265814e-05 -4.710385747162791e-05 -0.0008882295083164114" pbc="T T T"
Cs       0.06548323      12.23456428      12.59762191        0       0.03707750      -0.02502733      -0.07095370
Pb       3.11203893       3.17385871       3.13186308        1       0.64956143       0.27695781       0.13392834
I        3.27445243       3.08195443      12.45434673        2      -0.07190183       0.02640513      -0.03395937
I        3.26390170       0.09602483       2.98875614        3      -0.02873261      -0.62083728       0.02807434
I        0.15348926       3.26129669       3.26129284        4      -0.85377383      -0.00575307      -0.02473449
Cs       0.01242880      -0.02642360       6.24097190        5      -0.00297481      -0.00873786       0.05035286
Pb       3.17369571       3.20016758       9.19760408        6       0.37303312       0.03865290       0.00884940
Br       3.15510750       3.11074272       6.24883386        7       0.03480815      -0.06038325      -0.05531029
Br       3.06818705      -0.12737923       9.44830299        8       0.02694407       0.17875007       0.00035937
I        0.04116181       3.08190888       9.03304753        9      -0.15307271       0.00486076       0.04905355
Cs      -0.02271292       6.08981157      12.48503202       10       0.02395299       0.02276632      -0.02514393
Pb       3.19153660       9.20726173       3.00379691       11       0.23842588      -0.19978104       0.11620729
Br       3.15041216       9.15289757      -0.03696616       12       0.03415203      -0.02183514       0.33634400
Br       3.26923429       6.09527393       3.29943559       13      -0.01125422       0.49094830      -0.06825626
I       -0.10283516       9.10930858       3.05378720       14       0.53986879       0.01394830       0.01130454
Cs       0.01089841       6.14370812       6.26756873       15      -0.01302218       0.02931732       0.01150290
Pb       3.22134654       9.34415446       9.49588843       16      -0.04675070      -0.15098361      -0.12833759
I        3.32196812       9.12524841       6.31258936       17      -0.06540715       0.08029964      -0.30711571
Br       3.31339000       6.10645632       9.32945511       18      -0.02486762      -0.07974329       0.01719744
I        0.09821160       9.00175984       9.47482851       19      -0.08165828       0.01387290       0.00032090
Cs       6.23926222      -0.14565598      12.51800333       20      -0.02843456       0.01924480      -0.02703515
Pb       9.15306734       3.02320505       3.22724984       21      -0.22516447       0.45096053       0.14144090
I        9.05356584       3.28455670      12.44380607       22       0.08838065      -0.00539431       0.14113003
I        9.26586614      -0.06613979       3.19395925       23       0.02881983       0.08466449      -0.00589713
Br       6.19543176       3.35732566       3.19334499       24       0.32174382      -0.10870171       0.01609566
Cs       6.12352978      -0.07172745       6.29525541       25       0.02935100       0.01061630       0.02686003
Pb       9.28733956       3.23391257       9.31445024       26      -0.35731596      -0.04398362      -0.22210955
Br       9.11712160       3.21747877       6.23180479       27       0.03320771      -0.05618518      -0.07755769
I        9.23526505      -0.08076262       9.44502663       28       0.03404512       0.47064188       0.00589740
Br       6.22440339       3.17780363       9.21132300       29       0.05931294      -0.03669244      -0.02948291
Cs       6.08050099       6.10566420      12.48144157       30      -0.02445080      -0.01497514       0.01165615
Pb       9.24006690       9.05945555       2.94744464       31      -0.37622844      -0.20271989       0.77986574
I        9.18918839       9.07184767      12.47506959       32      -0.00362078      -0.03617972      -0.02996956
Br       9.04344701       6.16216023       3.24556661       33       0.06348151      -0.12660380      -0.04609952
Br       6.24272995       9.32967658       3.08213680       34      -0.37472778       0.02563967      -0.08921834
Cs       6.17148703       6.08579564       6.30152603       35       0.02306949      -0.05174138      -0.01989973
Pb       9.13634726       9.13792661       9.40239295       36       0.25899604       0.09399413      -0.45685091
I        9.05231294       9.06966669       6.31665768       37       0.06310587       0.09225205      -0.31334221
Br       9.23595578       6.26192514       9.20372711       38       0.03820901      -0.60037566       0.04168181
Br       6.27827439       9.13690476       9.37787329       39      -0.25757383       0.02971969       0.10405744
40
Lattice="12.41747917751774 0.0 0.0 0.0007625924175530376 12.34637306594712 0.0 -2.0847330839313576e-06 -0.0077177926019181805 12.490915492149943" Properties=species:S:1:pos:R:3:spacegroup_kinds:I:1:forces:R:3 spacegroup="P 1" unit_cell=conventional occupancy="_JSON {\"0\": {\"Cs\": 1.0}, \"1\": {\"Pb\": 1.0}, \"2\": {\"I\": 1.0}, \"3\": {\"I\": 1.0}, \"4\": {\"I\": 1.0}, \"5\": {\"Cs\": 1.0}, \"6\": {\"Pb\": 1.0}, \"7\": {\"Br\": 1.0}, \"8\": {\"Br\": 1.0}, \"9\": {\"I\": 1.0}, \"10\": {\"Cs\": 1.0}, \"11\": {\"Pb\": 1.0}, \"12\": {\"Br\": 1.0}, \"13\": {\"Br\": 1.0}, \"14\": {\"I\": 1.0}, \"15\": {\"Cs\": 1.0}, \"16\": {\"Pb\": 1.0}, \"17\": {\"I\": 1.0}, \"18\": {\"Br\": 1.0}, \"19\": {\"I\": 1.0}, \"20\": {\"Cs\": 1.0}, \"21\": {\"Pb\": 1.0}, \"22\": {\"I\": 1.0}, \"23\": {\"I\": 1.0}, \"24\": {\"Br\": 1.0}, \"25\": {\"Cs\": 1.0}, \"26\": {\"Pb\": 1.0}, \"27\": {\"Br\": 1.0}, \"28\": {\"I\": 1.0}, \"29\": {\"Br\": 1.0}, \"30\": {\"Cs\": 1.0}, \"31\": {\"Pb\": 1.0}, \"32\": {\"I\": 1.0}, \"33\": {\"Br\": 1.0}, \"34\": {\"Br\": 1.0}, \"35\": {\"Cs\": 1.0}, \"36\": {\"Pb\": 1.0}, \"37\": {\"I\": 1.0}, \"38\": {\"Br\": 1.0}, \"39\": {\"Br\": 1.0}}" candidate_id=a08d0429018bba57 formula=CsPbBr0.48I0.523 config_index=3 rattle_stdev=0.08 method=PBE fidelity=phase2_force energy=-119.71957093794926 stress="-0.0007846921112228105 9.144392046557077e-05 6.836394440791288e-05 9.144392046557077e-05 -0.0001346189025128822 6.920642584585528e-05 6.836394440791288e-05 6.920642584585528e-05 -0.0008357995275156373" pbc="T T T"
Cs      -0.03118321      12.48202963      12.45862491        0       0.01968560       0.05140280       0.02885533
Pb       3.20958390       3.20669419       3.30941818        1      -0.27472569      -0.31246851      -0.61720281
I        3.18985523       3.19453185      12.42035134        2       0.00331836      -0.03420754      -0.09637042
I        3.35256538      -0.01802256       3.00980490        3       0.00620801      -0.20007100       0.00568960
I       -0.04911585       3.09210508       3.16935187        4       0.13230779       0.03466850       0.02754811
Cs       0.02673473      -0.01657551       6.21791003        5      -0.03406970       0.04319076      -0.01526342
Pb       3.25218309       2.89804067       9.12615740        6      -0.01967567       0.32376800       0.48453088
Br       3.14525074       2.91961018       6.14033269        7       0.00515419      -0.03747391       0.37847604
Br       3.21593294      -0.10578655       9.31208972        8       0.01338296       0.39438343      -0.02172495
I       -0.11204152       3.04240720       9.39748449        9       0.43837254       0.01250074      -0.03346512
Cs       0.00212417       6.24382603      12.33317231       10       0.01376151      -0.09162667      -0.00301678
Pb       3.19457496       9.04888242       2.95544446       11       0.04736697       0.33978281       0.04390860
Br       3.30132633       9.21729328      -0.05384313       12      -0.00725530      -0.06591445       0.43414687
Br       3.19303607       6.11496335       3.24376218       13       0.00472289       0.25458942       0.01946910
I       -0.13062209       9.18111874       3.00887065       14       1.00814953      -0.04669497      -0.00876374
Cs      -0.02160662       6.15060018       6.20645329       15      -0.05324695      -0.03154003      -0.00004469
Pb       3.28132468       9.26700842       9.43857128       16      -0.16578454      -0.45458048       0.03127326
I        3.40360809       9.19021502       6.35089012       17      -0.04311516       0.03155368      -0.53320495
Br       3.26540823       6.21877865       9.32189108       18      -0.00202929      -0.17726432      -0.03265396
I        0.00411129       9.08259924       9.45549694       19      -0.12049713       0.03869872      -0.01393487
Cs       6.25205015      -0.02220389      12.40516808       20      -0.03592847       0.01060196      -0.00595826
Pb       9.04135343       3.08752459       3.20445739       21       0.38555029       0.30946703       0.00419077
I        9.14063039       3.30233983      12.53946239       22      -0.02490514      -0.06033663      -0.11593667
I        9.37305244      -0.01017695       3.11889584       23      -0.05075134      -0.26025316       0.00051418
Br       6.16851966       3.25709807       3.26013674       24      -0.15588486       0.00348669       0.07688887
Cs       6.18805325       0.07360917       6.30353682       25       0.01636630      -0.01596144      -0.00671141
Pb       9.21540891       3.17056246       9.19576200       26      -0.10793288      -0.08066962       0.01826924
Br       9.34890069       3.10253448       6.22070956       27      -0.04992831       0.02040467       0.07575579
I        9.19035408       0.13395269       9.19870057       28      -0.02450921      -0.92166121       0.07339886
Br       6.17515635       3.10393486       9.30619724       29      -0.23584048      -0.05113712      -0.10879366
Cs       6.11455215       6.17386881      12.53447576       30      -0.01190647      -0.01993807      -0.03860321
Pb       9.23037226       9.12735656       3.18532047       31      -0.05953937      -0.21237698       0.23721588
I        9.15544436       9.06245429      12.54120107       32       0.01424600      -0.00762627       0.10966945
Br       9.15483089       6.05716785       3.30854023       33       0.02571318       0.22338400       0.03866356
Br       6.43989694       9.11082437       3.01545803       34      -1.02205312      -0.02077128      -0.03231171
Cs       6.25569902       6.21373699       6.28129728       35       0.01895900      -0.03303149       0.01292934
Pb       9.20239601       9.09008950       9.51683983       36       0.06574368       0.02855278      -0.36683290
I        9.11827056       9.03654141       6.36149808       37       0.02789010       0.02764233      -0.11018669
Br       9.19621667       5.98549427       9.36993634       38      -0.02184305       0.95435634       0.00264647
Br       6.16704568       9.22497510       9.50950310       39       0.26479124       0.01892162       0.05134119
