Cs Pb I  Cs Pb I  Cs Pb Br I  Cs Pb I  Br I  Cs Pb I  Br Cs Pb I  Cs Pb I  Br Cs Pb I  Br
 1.0000000000000000
    13.2656060577721053    0.0000000000000000    0.0000000000000000
     0.0000000000000000   13.2656060577721053    0.0000000000000000
     0.0000000000000000    0.0000000000000000   13.2656060577721053
 Cs  Pb  I   Cs  Pb  I   Cs  Pb  Br  I   Cs  Pb  I   Br  I   Cs  Pb  I   Br  Cs  Pb  I   Cs  Pb  I   Br  Cs  Pb  I   Br 
   1   1   3   1   1   3   1   1   2   1   1   1   1   1   1   1   1   2   1   1   1   3   1   1   1   2   1   1   2   1
Cartesian
  0.0000000000000000  0.0000000000000000  0.0000000000000000
  3.3164015144430263  3.3164015144430263  3.3164015144430263
  3.3164015144430263  3.3164015144430263  0.0000000000000000
  3.3164015144430263  0.0000000000000000  3.3164015144430263
  0.0000000000000000  3.3164015144430263  3.3164015144430263
  0.0000000000000000  0.0000000000000000  6.6328030288860518
  3.3164015144430263  3.3164015144430263  9.9492045433290794
  3.3164015144430263  3.3164015144430263  6.6328030288860518
  3.3164015144430263  0.0000000000000000  9.9492045433290794
  0.0000000000000000  3.3164015144430263  9.9492045433290794
  0.0000000000000000  6.6328030288860518  0.0000000000000000
  3.3164015144430263  9.9492045433290794  3.3164015144430263
  3.3164015144430263  9.9492045433290794  0.0000000000000000
  3.3164015144430263  6.6328030288860518  3.3164015144430263
  0.0000000000000000  9.9492045433290794  3.3164015144430263
  0.0000000000000000  6.6328030288860518  6.6328030288860518
  3.3164015144430263  9.9492045433290794  9.9492045433290794
  3.3164015144430263  9.9492045433290794  6.6328030288860518
  3.3164015144430263  6.6328030288860518  9.9492045433290794
  0.0000000000000000  9.9492045433290794  9.9492045433290794
  6.6328030288860518  0.0000000000000000  0.0000000000000000
  9.9492045433290794  3.3164015144430263  3.3164015144430263
  9.9492045433290794  3.3164015144430263  0.0000000000000000
  9.9492045433290794  0.0000000000000000  3.3164015144430263
  6.6328030288860518  3.3164015144430263  3.3164015144430263
  6.6328030288860518  0.0000000000000000  6.6328030288860518
  9.9492045433290794  3.3164015144430263  9.9492045433290794
  9.9492045433290794  3.3164015144430263  6.6328030288860518
  9.9492045433290794  0.0000000000000000  9.9492045433290794
  6.6328030288860518  3.3164015144430263  9.9492045433290794
  6.6328030288860518  6.6328030288860518  0.0000000000000000
  9.9492045433290794  9.9492045433290794  3.3164015144430263
  9.9492045433290794  9.9492045433290794  0.0000000000000000
  9.9492045433290794  6.6328030288860518  3.3164015144430263
  6.6328030288860518  9.9492045433290794  3.3164015144430263
  6.6328030288860518  6.6328030288860518  6.6328030288860518
  9.9492045433290794  9.9492045433290794  9.9492045433290794
  9.9492045433290794  9.9492045433290794  6.6328030288860518
  9.9492045433290794  6.6328030288860518  9.9492045433290794
  6.6328030288860518  9.9492045433290794  9.9492045433290794
