40
Lattice="12.22626928852548 0.0 0.0 0.0 12.227812194661 0.0 0.0 -8.341997401045352e-14 12.227812194661206" Properties=species:S:1:pos:R:3:spacegroup_kinds:I:1:forces:R:3 spacegroup="P 1" unit_cell=conventional candidate_id=90ec0d10ba32b4a9 formula=CsGe0.46Sn0.54I3 config_index=0 rattle_stdev=0.0 method=PBE fidelity=phase2_force energy=-111.7991265895323 stress="-0.0016077736493430857 -5.485310562963342e-16 -5.485310562963287e-16 -5.485310562963342e-16 -0.001698983909351244 -1.6193437529992647e-15 -5.485310562963287e-16 -1.6193437529992647e-15 -0.0016989839093511864" pbc="T T T"
Cs      12.22626929      12.13202953       0.09578267        0       0.00000000       0.02266228      -0.02266228
Sn       3.05656732       3.05695305       3.05695305        1      -0.00000000      -0.00000000      -0.00000000
I        3.05656732       3.05695305      12.21954870        2      -0.00000000      -0.00000000       0.08060534
I        3.05656732      12.14171055       3.05695305        3      -0.00000000       0.03533019       0.00000000
I       12.13495748       3.05695305       3.05695305        4       0.10671375       0.00000000       0.00000000
Cs      12.22626929      12.13202953       6.01812343        5      -0.00000000       0.02266228       0.02266228
Sn       3.05656732       3.05695305       9.17085915        6      -0.00000000      -0.00000000       0.00000000
I        3.05656732       3.05695305       6.12216959        7      -0.00000000      -0.00000000      -0.08060534
I        3.05656732      12.14137500       9.17085915        8      -0.00000000       0.05024383      -0.00000000
I       12.22626929       3.05695305       9.17085915        9       0.00000000       0.00000000      -0.00000000
Cs      12.22626929       6.20968877       0.09578267       10       0.00000000      -0.02266228      -0.02266228
Ge       3.05656732       9.17085915       3.05695305       11      -0.00000000       0.00000000      -0.00000000
I        3.05656732       9.17085915      12.22705514       12      -0.00000000      -0.00000000       0.05123007
I        3.05656732       6.20000774       3.05695305       13      -0.00000000      -0.03533019      -0.00000000
I        0.00000000       9.17085915       3.05695305       14       0.00000000      -0.00000000       0.00000000
Cs      12.22626929       6.20968877       6.01812343       15       0.00000000      -0.02266228       0.02266228
Ge       3.05656732       9.17085915       9.17085915       16       0.00000000       0.00000000       0.00000000
I        3.05656732       9.17085915       6.11466316       17      -0.00000000       0.00000000      -0.05123007
I        3.05656732       6.20034329       9.17085915       18      -0.00000000      -0.05024383      -0.00000000
I        0.09131181       9.17085915       9.17085915       19      -0.10671375      -0.00000000      -0.00000000
Cs       6.11313464      12.13202953       0.09578267       20       0.00000000       0.02266228      -0.02266228
Ge       9.16970197       3.05695305       3.05695305       21      -0.00000000      -0.00000000      -0.00000000
I        9.16970197       3.05695305       0.08643720       22       0.00000000       0.00000000      -0.05024383
I        9.16970197       0.00075706       3.05695305       23       0.00000000      -0.05123007       0.00000000
I        6.20444646       3.05695305       3.05695305       24      -0.10671375       0.00000000       0.00000000
Cs       6.11313464      12.13202953       6.01812343       25      -0.00000000       0.02266228       0.02266228
Sn       9.16970197       3.05695305       9.17085915       26       0.00000000      -0.00000000       0.00000000
I        9.16970197       3.05695305       6.02746890       27       0.00000000       0.00000000       0.05024383
I        9.16970197       0.00826350       9.17085915       28       0.00000000      -0.08060534       0.00000000
I        6.11313464       3.05695305       9.17085915       29       0.00000000      -0.00000000       0.00000000
Cs       6.11313464       6.20968877       0.09578267       30       0.00000000      -0.02266228      -0.02266228
Ge       9.16970197       9.17085915       3.05695305       31       0.00000000       0.00000000      -0.00000000
I        9.16970197       9.17085915       0.08610164       32       0.00000000      -0.00000000      -0.03533019
I        9.16970197       6.11314904       3.05695305       33       0.00000000       0.05123007      -0.00000000
I        6.11313464       9.17085915       3.05695305       34       0.00000000       0.00000000      -0.00000000
Cs       6.11313464       6.20968877       6.01812343       35       0.00000000      -0.02266228       0.02266228
Sn       9.16970197       9.17085915       9.17085915       36       0.00000000       0.00000000       0.00000000
I        9.16970197       9.17085915       6.02780445       37       0.00000000       0.00000000       0.03533019
I        9.16970197       6.10564260       9.17085915       38       0.00000000       0.08060534       0.00000000
I        6.02182283       9.17085915       9.17085915       39       0.10671375      -0.00000000      -0.00000000
40
Lattice="12.22626928852548 0.0 0.0 0.0 12.227812194661 0.0 0.0 -8.341997401045352e-14 12.227812194661206" Properties=species:S:1:pos:R:3:spacegroup_kinds:I:1:forces:R:3 spacegroup="P 1" unit_cell=conventional candidate_id=90ec0d10ba32b4a9 formula=CsGe0.46Sn0.54I3 config_index=1 rattle_stdev=0.08 method=PBE fidelity=phase2_force energy=-111.40218007461152 stress="-0.003450042341432325 1.1783399115192905e-05 -5.7762347837438554e-05 1.1783399115192905e-05 -0.0029216833820425755 -3.40574121370646e-05 -5.7762347837438554e-05 -3.40574121370646e-05 -0.004006555184269843" pbc="T T T"
Cs      12.13935358      12.06034432       0.07127872        0       0.02110643       0.07733925       0.00458826
Sn       2.94937263       2.96042620       3.00561490        1       0.22397873       0.22758002       0.27402909
I        3.16120297       3.20458988      12.28587790        2      -0.07638584      -0.05054757       0.01711620
I        3.05470342      12.12502544       2.98362347        3       0.01340013       0.05689981       0.02332605
I       12.04897807       3.05006157       3.15102013        4       0.58145954       0.01725705       0.00873065
Cs      12.09546195      12.23028505       6.10423433        5       0.05645395       0.03685780      -0.03263201
Sn       3.08814915       3.02593698       9.21793129        6       0.08794532      -0.06756069      -0.15734838
I        2.94190342       3.03106707       6.22240837        7       0.06529532       0.02638704      -0.31337593
I        2.99810792      12.25565380       9.24643146        8      -0.00546216      -0.31553928       0.00781981
I       12.20514907       3.04389598       9.09373056        9       0.13234025       0.01443638       0.06048765
Cs      12.19885750       6.21360109       0.05581211       10      -0.00919673      -0.04703282      -0.00875761
Ge       2.87961496       9.19564610       2.92978095       11       0.24588204      -0.24205453      -0.23858973
I        3.11492369       9.16222705      12.17504142       12      -0.07981979       0.03022292       0.25346341
I        2.92112280       6.17052982       2.92972331       13       0.03104796       0.00002578       0.10445655
I        0.11844047       9.20881436       3.13006215       14      -0.34368854       0.00630255       0.00095338
Cs      12.30310691       6.21645217       6.15550190       15       0.00922057      -0.05685631      -0.02818195
Ge       3.12471874       9.11046832       8.98784880       16       0.30141984      -0.02198497      -0.00063632
I        3.06530642       9.13484650       6.08162536       17       0.00662783       0.01506922       0.14274122
I        3.08208602       6.15705466       9.24675246       18      -0.01653933       0.38399437      -0.07115381
I        0.10342662       9.17701134       9.16610711       19       0.09122097       0.02467170      -0.00073850
Cs       6.10752355      12.08673760       0.12066310       20       0.01719727       0.05197370       0.00199883
Ge       9.22763867       3.09826905       3.13903550       21      -0.37228777      -0.21288893      -0.49306751
I        9.21131417       2.98736596       0.20648241       22       0.04687492       0.03889825      -0.43698070
I        9.26301974       0.04011022       2.99837207       23      -0.04701130      -0.11225678       0.16405995
I        6.25887095       3.09767280       2.98995015       24      -0.42891894      -0.02915128       0.08063438
Cs       6.16494623      12.13303268       6.14289056       25      -0.04976806       0.05011880      -0.04306684
Sn       9.25246960       3.08396846       9.06665031       26      -0.20243661       0.31332280       0.24016734
I        9.08021842       3.16171426       5.98601154       27      -0.01897004      -0.03617065       0.45494978
I        9.13825202       0.09170097       9.17683636       28       0.00590408      -0.30740956      -0.00709443
I        6.12028961       3.06126564       9.20433491       29      -0.02421877       0.00237159      -0.00364384
Cs       6.01491624       6.12252544       0.12115262       30       0.04519619       0.00262518      -0.00836761
Ge       9.10726952       9.10236866       2.95136334       31      -0.34499682       0.07386753      -0.05006506
I        9.20600450       9.25100113       0.19920042       32      -0.02638707      -0.05733897      -0.15258539
I        9.15448734       6.11555788       2.90707971       33       0.04390405       0.23182645       0.08317114
I        6.10379249       9.16065992       3.12912779       34       0.42973502      -0.00604488      -0.02807691
Cs       6.00798487       6.20172471       6.02936742       35      -0.00263073      -0.04890592      -0.00122108
Sn       9.38000644       9.31132145       8.96000732       36      -0.34679375      -0.33950967       0.68527911
I        9.06677041       9.15712137       6.17184075       37       0.06317457       0.03311794      -0.66446196
I        9.21839762       6.10816465       9.05354617       38      -0.01113547       0.26879366       0.08582754
I        6.04657809       9.26223657       9.12999161       39      -0.10945729      -0.03531560       0.02954073
40
Lattice="12.22626928852548 0.0 0.0 0.0 12.227812194661 0.0 0.0 -8.341997401045352e-14 12.227812194661206" Properties=species:S:1:pos:R:3:spacegroup_kinds:I:1:forces:R:3 spacegroup="P 1" unit_cell=conventional candidate_id=90ec0d10ba32b4a9 formula=CsGe0.46Sn0.54I3 config_index=2 rattle_stdev=0.08 method=PBE fidelity=phase2_force energy=-111.39574004027321 stress="-0.0028345808653989875 3.65574847799714e-05 -6.632083861431969e-06 3.65574847799714e-05 -0.003123355146510574 -1.2983267048874768e-05 -6.632083861431969e-06 -1.2983267048874768e-05 -0.0028064767937037213" pbc="T T T"
Cs      12.21725225      12.04590441       0.23858482        0       0.02295997       0.03559732      -0.11147273
Sn       2.94000866       3.03084739       2.95616133        1       0.48520159       0.24413469       0.15928232
I        3.08663664       2.98670126      12.19155064        2      -0.03737081       0.03614535       0.04241040
I        3.08030014      12.23778351       2.93143343        3      -0.02069640      -0.52209613       0.08281329
I       12.28327977       3.09646999       3.04649613        4      -0.65063136       0.01500305      -0.02607173
Cs      12.19401963      12.05413654       5.98072609        5      -0.00322651       0.01177497       0.07914174
Sn       2.99913360       3.15466451       9.10868315        6       0.44782179       0.10508315       0.00170663
I        3.00948527       3.05234354       6.12853598        7       0.04703734      -0.09899417      -0.20324153
I        2.96191124      12.01747560       9.24383964        8       0.03181474       0.34223024      -0.01595036
I       12.25928295       3.00129153       8.98775740        9      -0.17351103       0.00829335       0.04013484
Cs      12.16328997       6.12740743       0.10324732       10       0.02847847      -0.00278485      -0.02085829
Ge       3.01423179       9.23327873       3.04088787       11       0.21375258      -0.16591626       0.00367254
I        3.01811864       9.08803818      12.18683639       12       0.02814520      -0.03121957       0.36772723
I        3.11975854       6.12600793       3.23375587       13      -0.04086175       0.38626573      -0.10748196
I       -0.11201889       9.15173136       3.07434030       14       0.35143968      -0.04408054       0.01069645
Cs      12.19807847       6.21655881       6.02665559       15      -0.00894012      -0.01275470       0.02690184
Ge       3.04080483       9.27861385       9.19847306       16      -0.16798646      -0.16345486      -0.07172187
I        3.10117888       9.12323633       6.17328973       17      -0.04305591       0.09291085      -0.30618862
I        3.16306754       6.14194066       9.13199868       18      -0.03235262      -0.23134051       0.03669122
I        0.17746495       8.96323055       9.18421340       19      -0.15609701       0.03468340      -0.01449606
Cs       6.19625142      11.98734362       0.15647394       20      -0.03539554       0.09776716      -0.08173199
Ge       9.12969294       2.86940960       3.04831963       21      -0.31857255       0.09855536       0.17972533
I        9.04947895       3.09605534       0.04218291       22       0.10844989       0.02389082       0.07142304
I        9.25430257      -0.06878837       3.05094576       23      -0.03381165       0.27866112      -0.00082915
I        6.19587406       3.22485881       3.02971001       24       0.29175064      -0.20651776       0.00267567
Cs       6.07090224      12.02846018       6.03525135       25       0.01896017       0.06829321       0.05193801
Sn       9.25980353       3.08907592       9.23210597       26      -0.41590188      -0.08828276      -0.13718495
I        9.06145177       3.10286173       6.00985793       27       0.07677997      -0.10097390      -0.09762358
I        9.22131708      -0.07211405       9.32283823       28       0.03125544       0.44491697      -0.00917269
I        6.13048351       3.09695068       9.12073186       29       0.05511153      -0.07629587      -0.00419443
Cs       6.03290391       6.14718395       0.11212489       30      -0.00717116      -0.02658829      -0.01651815
Ge       9.21258933       9.08485935       2.87952467       31      -0.21688728      -0.30140528       0.39251732
I        9.22145638       9.14507228       0.07229651       32      -0.00118962      -0.06284853       0.09945694
I        8.98662822       6.10418553       3.13337815       33       0.16705115       0.24703447      -0.10917328
I        6.14951370       9.33581334       3.06194989       34      -0.31557625      -0.08311658      -0.04351165
Cs       6.11336204       6.17340446       6.04800203       35       0.00362306      -0.02602398       0.02488244
Sn       9.10465269       9.16273455       9.20651620       36       0.09472277       0.11423669      -0.46841183
I        9.06769168       9.17948569       6.09598341       37       0.07753122       0.06184260       0.02825672
I        9.15715380       6.20074814       9.05307808       38       0.05819142      -0.55260304       0.04948031
I        6.09110610       9.09938798       9.12694150       39       0.03254945       0.05475933       0.08966081
40
Lattice="12.22626928852548 0.0 0.0 0.0 12.227812194661 0.0 0.0 -8.341997401045352e-14 12.227812194661206" Properties=species:S:1:pos:R:3:spacegroup_kinds:I:1:forces:R:3 spacegroup="P 1" unit_cell=conventional candidate_id=90ec0d10ba32b4a9 formula=CsGe0.46Sn0.54I3 config_index=3 rattle_stdev=0.08 method=PBE fidelity=phase2_force energy=-111.05648285351302 stress="-0.0030240266008605752 7.861790444318904e-05 4.2685548828517133e-05 7.861790444318904e-05 -0.0035560189469121717 -5.1460712183787135e-05 4.2685548828517133e-05 -5.1460712183787135e-05 -0.00274165505302041" pbc="T T T"
Cs      12.12058581      12.29336976       0.09958783        0       0.07263076       0.01384761      -0.03282607
Sn       3.03755363       3.06368286       3.13371643        1      -0.27419992      -0.26698520      -0.76051640
I        3.00203944       3.09927868      12.15755524        2       0.03057200      -0.00339976      -0.01480775
I        3.16896382      12.12373611       2.95248219        3       0.00270092      -0.11649516       0.01843168
I       12.08067466       2.92727839       2.95455517        4       0.33035218       0.10017729       0.05756235
Cs      12.20832555      12.06398464       5.95766422        5      -0.00197354       0.02802204       0.02085688
Sn       3.07762099       2.85253761       9.03723647        6      -0.01773304       0.33440704       0.55039025
I        2.99962851       2.86121100       6.02003481        7      -0.04420824      -0.00832143       0.32897862
I        3.10965713      12.03906828       9.10762637        8      -0.06479772       0.53892122       0.03970595
I       12.10607962       2.96178985       9.35219436        9       0.48536837       0.04937103      -0.02850793
Cs      12.18812706       6.28142189      -0.04861239       10       0.04341744      -0.09446484       0.01125711
Ge       3.01727015       9.07489942       2.99253542       11      -0.06423493       0.26531428      -0.12565779
I        3.16903281       9.15243389      12.16995942       12      -0.09903871      -0.04050666       0.54722305
I        3.04356032       6.14569735       3.17808246       13      -0.01653923       0.21221377      -0.01313149
I       -0.13980583       9.22354151       3.02942375       14       0.85248445      -0.10365068       0.02157020
Cs      12.16557344       6.22345087       5.96554015       15      -0.01071073      -0.02269168       0.03831786
Ge       3.10078296       9.20146781       9.14115592       16      -0.06111533      -0.58725004      -0.09093351
I        3.18281884       9.18820295       6.21159049       17      -0.05003364       0.01261753      -0.36434633
I        3.11508577       6.25426298       9.12443466       18      -0.02517884      -0.30942213      -0.03038298
I        0.08336465       9.04406995       9.16488183       19      -0.26581415       0.05747646       0.00663701
Cs       6.20903935      12.11079571       0.04363870       20      -0.03824574       0.04609779       0.00447065
Ge       9.01797904       2.93372913       3.02552719       21       0.31647119       0.19224020      -0.03467141
I        9.13654350       3.11383847       0.13783923       22      -0.08643472      -0.03656033      -0.14745023
I        9.36148887      -0.01282553       2.97588235       23      -0.21576860      -0.19597600       0.05815455
I        6.16896196       3.12463122       3.09650177       24      -0.16354556      -0.07627847       0.02664324
Cs       6.13542570      12.17379680       6.04353276       25       0.02085178      -0.02430944      -0.00510176
Sn       9.18787288       3.02572581       9.11341774       26      -0.15552161      -0.05139746      -0.06776122
I        9.29323086       2.98791744       5.99876269       27      -0.03330104      -0.00667630       0.23153100
I        9.17640611       0.14260126       9.07651217       28      -0.04086607      -1.15439915       0.06760193
I        6.08123647       3.02308190       9.21560609       29      -0.18602522      -0.02426474      -0.05471967
Cs       6.06695507       6.21538856       0.16515908       30      -0.00290760      -0.06222733      -0.06310405
Ge       9.20289469       9.15276036       3.11740050       31      -0.19755238      -0.13712887       0.13878916
I        9.18771236       9.13567890       0.13842799       32       0.02666077      -0.00994657      -0.05996200
I        9.09801211       5.99919314       3.19635178       33       0.10004120       0.24474865      -0.05299367
I        6.34668069       9.11696113       2.99527111       34      -0.61959825       0.06369189       0.05873094
Cs       6.19757403       6.30134581       6.02777327       35      -0.01665817      -0.02306865       0.05366938
Sn       9.17070144       9.11489743       9.32096308       36       0.09514115       0.01782471      -0.23647035
I        9.13364929       9.14636040       6.14082380       37       0.02278914       0.03109699      -0.09115472
I        9.11741469       5.92431728       9.21928730       38      -0.01666184       1.13742426       0.00318424
I        5.97987739       9.18745833       9.25857131       39       0.36857082       0.00603693      -0.00889119
