40
Lattice="12.479353669134213 0.0 0.0 0.0 12.479353669134287 0.0 0.0 1.7389978957412564e-14 12.479353669134241" Properties=species:S:1:pos:R:3:spacegroup_kinds:I:1:forces:R:3 spacegroup="P 1" unit_cell=conventional occupancy="_JSON {\"0\": {\"Cs\": 1.0}, \"1\": {\"Sn\": 1.0}, \"2\": {\"I\": 1.0}, \"3\": {\"I\": 1.0}, \"4\": {\"I\": 1.0}, \"5\": {\"Cs\": 1.0}, \"6\": {\"Sn\": 1.0}, \"7\": {\"I\": 1.0}, \"8\": {\"I\": 1.0}, \"9\": {\"I\": 1.0}, \"10\": {\"Cs\": 1.0}, \"11\": {\"Sn\": 1.0}, \"12\": {\"I\": 1.0}, \"13\": {\"I\": 1.0}, \"14\": {\"I\": 1.0}, \"15\": {\"Cs\": 1.0}, \"16\": {\"Sn\": 1.0}, \"17\": {\"I\": 1.0}, \"18\": {\"I\": 1.0}, \"19\": {\"I\": 1.0}, \"20\": {\"Cs\": 1.0}, \"21\": {\"Sn\": 1.0}, \"22\": {\"I\": 1.0}, \"23\": {\"I\": 1.0}, \"24\": {\"I\": 1.0}, \"25\": {\"Cs\": 1.0}, \"26\": {\"Sn\": 1.0}, \"27\": {\"I\": 1.0}, \"28\": {\"I\": 1.0}, \"29\": {\"I\": 1.0}, \"30\": {\"Cs\": 1.0}, \"31\": {\"Ge\": 1.0}, \"32\": {\"I\": 1.0}, \"33\": {\"I\": 1.0}, \"34\": {\"I\": 1.0}, \"35\": {\"Cs\": 1.0}, \"36\": {\"Sn\": 1.0}, \"37\": {\"I\": 1.0}, \"38\": {\"I\": 1.0}, \"39\": {\"I\": 1.0}}" candidate_id=cf276affe717b827 formula=MAGe0.14Sn0.86I3 config_index=0 rattle_stdev=0.0 method=PBE fidelity=phase2_force energy=-112.25093394291164 stress="-3.480632379347672e-05 3.3474511315990156e-11 -3.347451131599031e-11 3.3474511315990156e-11 -3.480632379347657e-05 -3.347451126748746e-11 -3.347451131599031e-11 -3.347451126748746e-11 -3.480632379347641e-05" pbc="T T T"
Cs      12.43299713      12.43299713       0.04635654        0       0.00195655       0.00195655      -0.00195655
Sn       3.11983842       3.11983842       3.11983842        1       0.00021504       0.00021504       0.00021117
I        3.11983842       3.11983842      12.47926209        2      -0.00000416      -0.00000416       0.01544047
I        3.11983842      12.47221244       3.11983842        3      -0.00000480       0.01699373      -0.00000460
I       12.47221244       3.11983842       3.11983842        4       0.01699373      -0.00000480      -0.00000460
Cs      12.43299713      12.43299713       6.19332030        5       0.00195636       0.00195636       0.00195833
Sn       3.11983842       3.11983842       9.35951525        6       0.00021652       0.00021652      -0.00021652
I        3.11983842       3.11983842       6.23976841        7      -0.00000126      -0.00000126      -0.01543909
I        3.11983842       0.00009158       9.35951525        8      -0.00000416      -0.01544047       0.00000416
I        0.00009158       3.11983842       9.35951525        9      -0.01544047      -0.00000416       0.00000416
Cs      12.43299713       6.28603337       0.04635654       10       0.00195636      -0.00195833      -0.00195636
Sn       3.11983842       9.35951525       3.11983842       11       0.00015344      -0.00021695       0.00021695
I        3.11983842       9.35951525       0.00714122       12      -0.00000480       0.00000460      -0.01699373
I        3.11983842       6.24681806       3.11983842       13      -0.00000396      -0.01699513      -0.00000178
I       12.37585543       9.35951525       3.11983842       14       0.11049375       0.00000428      -0.00000428
Cs      12.43299713       6.28603337       6.19332030       15       0.00196261      -0.00196076       0.00196076
Sn       3.11983842       9.35951525       9.35951525       16       0.00021504      -0.00021117      -0.00021504
I        3.11983842       9.35951525       6.23253561       17      -0.00000396       0.00000178       0.01699513
I        3.11983842       6.23958526       9.35951525       18      -0.00000126       0.01543909       0.00000126
I       12.47221244       9.35951525       9.35951525       19       0.01699373       0.00000460       0.00000480
Cs       6.28603337      12.43299713       0.04635654       20      -0.00195833       0.00195636      -0.00195636
Sn       9.35951525       3.11983842       3.11983842       21      -0.00021695       0.00015344       0.00021695
I        9.35951525       3.11983842       0.00714122       22       0.00000460      -0.00000480      -0.01699373
I        9.35951525      12.37585543       3.11983842       23       0.00000428       0.11049375      -0.00000428
I        6.24681806       3.11983842       3.11983842       24      -0.01699513      -0.00000396      -0.00000178
Cs       6.28603337      12.43299713       6.19332030       25      -0.00196076       0.00196261       0.00196076
Sn       9.35951525       3.11983842       9.35951525       26      -0.00021117       0.00021504      -0.00021504
I        9.35951525       3.11983842       6.23253561       27       0.00000178      -0.00000396       0.01699513
I        9.35951525      12.47221244       9.35951525       28       0.00000460       0.01699373       0.00000480
I        6.23958526       3.11983842       9.35951525       29       0.01543909      -0.00000126       0.00000126
Cs       6.28603337       6.28603337       0.04635654       30      -0.00196076      -0.00196076      -0.00196261
Ge       9.35951525       9.35951525       3.11983842       31       0.00000986       0.00000986      -0.00000986
I        9.35951525       9.35951525       0.10349824       32       0.00000428       0.00000428      -0.11049375
I        9.35951525       6.34317507       3.11983842       33       0.00000265      -0.11045522      -0.00000265
I        6.34317507       9.35951525       3.11983842       34      -0.11045522       0.00000265      -0.00000265
Cs       6.28603337       6.28603337       6.19332030       35      -0.00196504      -0.00196504       0.00196504
Sn       9.35951525       9.35951525       9.35951525       36      -0.00021695      -0.00021695      -0.00015344
I        9.35951525       9.35951525       6.13617860       37       0.00000265       0.00000265       0.11045522
I        9.35951525       6.24681806       9.35951525       38       0.00000178      -0.01699513       0.00000396
I        6.24681806       9.35951525       9.35951525       39      -0.01699513       0.00000178       0.00000396
40
Lattice="12.479353669134213 0.0 0.0 0.0 12.479353669134287 0.0 0.0 1.7389978957412564e-14 12.479353669134241" Properties=species:S:1:pos:R:3:spacegroup_kinds:I:1:forces:R:3 spacegroup="P 1" unit_cell=conventional occupancy="_JSON {\"0\": {\"Cs\": 1.0}, \"1\": {\"Sn\": 1.0}, \"2\": {\"I\": 1.0}, \"3\": {\"I\": 1.0}, \"4\": {\"I\": 1.0}, \"5\": {\"Cs\": 1.0}, \"6\": {\"Sn\": 1.0}, \"7\": {\"I\": 1.0}, \"8\": {\"I\": 1.0}, \"9\": {\"I\": 1.0}, \"10\": {\"Cs\": 1.0}, \"11\": {\"Sn\": 1.0}, \"12\": {\"I\": 1.0}, \"13\": {\"I\": 1.0}, \"14\": {\"I\": 1.0}, \"15\": {\"Cs\": 1.0}, \"16\": {\"Sn\": 1.0}, \"17\": {\"I\": 1.0}, \"18\": {\"I\": 1.0}, \"19\": {\"I\": 1.0}, \"20\": {\"Cs\": 1.0}, \"21\": {\"Sn\": 1.0}, \"22\": {\"I\": 1.0}, \"23\": {\"I\": 1.0}, \"24\": {\"I\": 1.0}, \"25\": {\"Cs\": 1.0}, \"26\": {\"Sn\": 1.0}, \"27\": {\"I\": 1.0}, \"28\": {\"I\": 1.0}, \"29\": {\"I\": 1.0}, \"30\": {\"Cs\": 1.0}, \"31\": {\"Ge\": 1.0}, \"32\": {\"I\": 1.0}, \"33\": {\"I\": 1.0}, \"34\": {\"I\": 1.0}, \"35\": {\"Cs\": 1.0}, \"36\": {\"Sn\": 1.0}, \"37\": {\"I\": 1.0}, \"38\": {\"I\": 1.0}, \"39\": {\"I\": 1.0}}" candidate_id=cf276affe717b827 formula=MAGe0.14Sn0.86I3 config_index=1 rattle_stdev=0.08 method=PBE fidelity=phase2_force energy=-111.90065670819473 stress="-0.0016426084587263406 4.4305798481082296e-05 -7.162347064656456e-06 4.4305798481082296e-05 -0.0011045550750027153 -6.191727229924138e-05 -7.162347064656456e-06 -6.191727229924138e-05 -0.0019836541271791063" pbc="T T T"
Cs      12.34608142      12.36131192       0.02185259        0      -0.00374791       0.04280672       0.02766122
Sn       3.01264372       3.02331157       3.06850027        1       0.26270873       0.26571848       0.18358581
I        3.22447407       3.26747525      12.54559129        2      -0.07876889      -0.06317984      -0.00417242
I        3.11797451      12.45552733       3.04650884        3       0.01020039       0.04018839       0.00096438
I       12.38623304       3.11294694       3.21390550        4       0.49839796      -0.00567766       0.00313343
Cs      12.30218979      12.53125265       6.27943120        5       0.04424817       0.02538626      -0.04289068
Sn       3.15142025       3.08882235       9.40658739        6       0.09779384      -0.00322717      -0.17040903
I        3.00517451       3.09395244       6.34000719        7       0.05400736       0.02033160      -0.16813115
I        3.06137901       0.11437038       9.43508756        8      -0.00990108      -0.45816975       0.01272803
I       -0.02102864       3.10678135       9.28238667        9       0.04688178       0.01280217       0.03791888
Cs      12.40558534       6.28994570       0.00638598       10      -0.00359005      -0.03048435       0.01439334
Sn       2.94288606       9.38430220       2.99266632       11       0.31372044      -0.26953168      -0.07726873
I        3.17819478       9.35088315      -0.04487249       12      -0.04690223       0.02443563       0.02129507
I        2.98439390       6.21734014       2.99260868       13       0.00798188       0.03314507       0.07976207
I       12.49429590       9.39747047       3.19294752       14      -0.29465849       0.00109066       0.01430419
Cs      12.50983475       6.29279678       6.33069877       15       0.01831977      -0.03801182      -0.03005305
Sn       3.18798983       9.29912443       9.17650491       16       0.25894164       0.05091237       0.24683832
I        3.12857751       9.32350260       6.19949781       17       0.00951210      -0.00675470      -0.05524442
I        3.14535712       6.19629662       9.43540857       18      -0.02040985       0.40768127      -0.05842709
I       12.48432725       9.36566745       9.35476322       19       0.29693263       0.02061774       0.00295075
Cs       6.28042228      12.38770521       0.07123697       20       0.01380461       0.02744264       0.02038178
Sn       9.41745196       3.16115442       3.20192087       21      -0.42099852      -0.20150916      -0.51006969
I        9.40112746       3.05025133       0.12718644       22       0.04281379       0.02828414      -0.37788083
I        9.45283302      12.41520859       3.06125744       23      -0.02658131       0.05915443       0.13450751
I        6.30124255       3.16055817       3.05283552       24      -0.31905808      -0.01761195       0.06747819
Cs       6.33784496      12.43400029       6.31808742       25      -0.03511739       0.01759052      -0.03635868
Sn       9.44228288       3.14685383       9.25530642       26      -0.13895198       0.26249540       0.30007197
I        9.27003171       3.22459963       6.19107825       27      -0.01507575      -0.03496940       0.44625621
I        9.32806531      12.55564992       9.36549247       28       0.03459415      -0.16348014      -0.03275150
I        6.24674022       3.12415101       9.39299101       29      -0.03296992      -0.00393524      -0.01254759
Cs       6.18781497       6.19887005       0.07172649       30       0.01719700      -0.00526980       0.01243469
Ge       9.29708281       9.29102477       3.01424871       31      -0.27428264       0.13199343      -0.12916494
I        9.39581778       9.43965724       0.21659701       32      -0.01245312      -0.04579333      -0.09488689
I        9.34430062       6.34558392       2.96996508       33       0.03929027       0.03721170       0.05962321
I        6.33383292       9.34931602       3.19201316       34       0.25423776       0.00022319      -0.02150747
Cs       6.18088360       6.27806931       6.20456428       35      -0.00643239      -0.01960071      -0.01066000
Sn       9.56981973       9.49997756       9.14866343       36      -0.54897436      -0.29468660       0.33877002
I        9.25658369       9.34577748       6.28021489       37       0.10107858       0.05046018      -0.28133608
I        9.40821090       6.24934010       9.24220228       38       0.00869178       0.11827512       0.06400811
I        6.27157332       9.45089268       9.31864772       39      -0.14023321      -0.01857783       0.02394536
40
Lattice="12.479353669134213 0.0 0.0 0.0 12.479353669134287 0.0 0.0 1.7389978957412564e-14 12.479353669134241" Properties=species:S:1:pos:R:3:spacegroup_kinds:I:1:forces:R:3 spacegroup="P 1" unit_cell=conventional occupancy="_JSON {\"0\": {\"Cs\": 1.0}, \"1\": {\"Sn\": 1.0}, \"2\": {\"I\": 1.0}, \"3\": {\"I\": 1.0}, \"4\": {\"I\": 1.0}, \"5\": {\"Cs\": 1.0}, \"6\": {\"Sn\": 1.0}, \"7\": {\"I\": 1.0}, \"8\": {\"I\": 1.0}, \"9\": {\"I\": 1.0}, \"10\": {\"Cs\": 1.0}, \"11\": {\"Sn\": 1.0}, \"12\": {\"I\": 1.0}, \"13\": {\"I\": 1.0}, \"14\": {\"I\": 1.0}, \"15\": {\"Cs\": 1.0}, \"16\": {\"Sn\": 1.0}, \"17\": {\"I\": 1.0}, \"18\": {\"I\": 1.0}, \"19\": {\"I\": 1.0}, \"20\": {\"Cs\": 1.0}, \"21\": {\"Sn\": 1.0}, \"22\": {\"I\": 1.0}, \"23\": {\"I\": 1.0}, \"24\": {\"I\": 1.0}, \"25\": {\"Cs\": 1.0}, \"26\": {\"Sn\": 1.0}, \"27\": {\"I\": 1.0}, \"28\": {\"I\": 1.0}, \"29\": {\"I\": 1.0}, \"30\": {\"Cs\": 1.0}, \"31\": {\"Ge\": 1.0}, \"32\": {\"I\": 1.0}, \"33\": {\"I\": 1.0}, \"34\": {\"I\": 1.0}, \"35\": {\"Cs\": 1.0}, \"36\": {\"Sn\": 1.0}, \"37\": {\"I\": 1.0}, \"38\": {\"I\": 1.0}, \"39\": {\"I\": 1.0}}" candidate_id=cf276affe717b827 formula=MAGe0.14Sn0.86I3 config_index=2 rattle_stdev=0.08 method=PBE fidelity=phase2_force energy=-111.81854672339986 stress="-0.0013015740439340116 7.107045295591247e-05 6.630237954989373e-06 7.107045295591247e-05 -0.0014658688126606542 -3.224984166062281e-05 6.630237954989373e-06 -3.224984166062281e-05 -0.0008890487264434892" pbc="T T T"
Cs      12.42398009      12.34687201       0.18915869        0       0.02254337       0.00021391      -0.06718187
Sn       3.00327975       3.09373275       3.01904670        1       0.61189803       0.25636839       0.09464835
I        3.14990774       3.04958663      12.45126403        2      -0.04923503       0.05105833       0.01436684
I        3.14357123      12.56828540       2.99431880        3      -0.01044940      -0.53577999       0.05240459
I       12.62053474       3.15935536       3.10938150        4      -0.82346817       0.01757029      -0.02656893
Cs      12.40074747      12.35510415       6.15592295        5      -0.01241280      -0.01017045       0.05550892
Sn       3.06240470       3.21754988       9.29733925        6       0.35627989      -0.03332675      -0.04669155
I        3.07275637       3.11522891       6.24613480        7       0.02703141      -0.08722201      -0.06378416
I        3.02518233      -0.12380782       9.43249575        8       0.01086619       0.39500630      -0.00886834
I        0.03310524       3.06417690       9.17641350        9      -0.15825232       0.02369490       0.05092634
Cs      12.37001781       6.20375204       0.05382119       10       0.02204143       0.02067014      -0.01445026
Sn       3.07750288       9.42193484       3.10377324       11       0.19330176      -0.19409457       0.05506801
I        3.08138973       9.27669428      -0.03307752       12       0.01661689      -0.04415390       0.34469248
I        3.18302963       6.17281825       3.29664124       13      -0.03294930       0.43366865      -0.07717724
I       12.26383654       9.34038746       3.13722567       14       0.49623478      -0.03973159       0.01515004
Cs      12.40480631       6.29290342       6.20185245       15      -0.00514865       0.00925306       0.01185080
Sn       3.10407592       9.46726996       9.38712917       16      -0.08483709      -0.30885611      -0.10794296
I        3.16444997       9.31189244       6.29116219       17      -0.02294264       0.06813737      -0.29765448
I        3.22633863       6.18118262       9.32065479       18      -0.03255122      -0.02239185       0.03375888
I       12.55836558       9.15188666       9.37286951       19      -0.06740024       0.01984769      -0.01085889
Cs       6.36915014      12.28831122       0.10704781       20      -0.02865183       0.04851476      -0.03162939
Sn       9.31950623       2.93229496       3.11120500       21      -0.23110491       0.15086282       0.15532185
I        9.23929224       3.15894071      -0.03711306       22       0.08078822       0.03147403       0.12197120
I        9.44411585      12.30631000       3.11383113       23      -0.00930173       0.34703849      -0.00818006
I        6.23824566       3.28774418       3.09259538       24       0.34584887      -0.13846041      -0.00364938
Cs       6.24380096      12.32942778       6.21044822       25       0.01926390       0.02309962       0.02183393
Sn       9.44961682       3.15196128       9.42076208       26      -0.34866303      -0.06654550      -0.21464628
I        9.25126506       3.16574710       6.21492464       27       0.05301027      -0.07420054      -0.08397747
I        9.41113037      12.39183490       9.51149434       28       0.02590473       0.44061702      -0.00477723
I        6.25693412       3.15983605       9.30938797       29       0.07166890      -0.06313039       0.00496677
Cs       6.20580264       6.22352856       0.06269876       30      -0.01588355      -0.02908842       0.00434651
Ge       9.40240261       9.27351545       2.94241004       31      -0.26529339      -0.23317338       0.27929983
I        9.41126967       9.33372839       0.08969310       32      -0.00463882      -0.05090199       0.01734115
I        9.17644151       6.33421156       3.19626352       33       0.11880511      -0.01722058      -0.08893584
I        6.37955413       9.52446945       3.12483525       34      -0.43310359      -0.01601080      -0.05236645
Cs       6.28626077       6.24974907       6.22319890       35      -0.00233985      -0.01525214      -0.00301200
Sn       9.29446597       9.35139065       9.39517231       36       0.20552953       0.08873656      -0.40751524
I        9.25750496       9.36814180       6.20435755       37       0.07168617       0.05822892       0.15230179
I        9.34696708       6.34192360       9.24173418       38       0.04930075      -0.54531998       0.05871627
I        6.31610133       9.28804409       9.31559760       39      -0.16511059       0.04415518       0.07444323
40
Lattice="12.479353669134213 0.0 0.0 0.0 12.479353669134287 0.0 0.0 1.7389978957412564e-14 12.479353669134241" Properties=species:S:1:pos:R:3:spacegroup_kinds:I:1:forces:R:3 spacegroup="P 1" unit_cell=conventional occupancy="_JSON {\"0\": {\"Cs\": 1.0}, \"1\": {\"Sn\": 1.0}, \"2\": {\"I\": 1.0}, \"3\": {\"I\": 1.0}, \"4\": {\"I\": 1.0}, \"5\": {\"Cs\": 1.0}, \"6\": {\"Sn\": 1.0}, \"7\": {\"I\": 1.0}, \"8\": {\"I\": 1.0}, \"9\": {\"I\": 1.0}, \"10\": {\"Cs\": 1.0}, \"11\": {\"Sn\": 1.0}, \"12\": {\"I\": 1.0}, \"13\": {\"I\": 1.0}, \"14\": {\"I\": 1.0}, \"15\": {\"Cs\": 1.0}, \"16\": {\"Sn\": 1.0}, \"17\": {\"I\": 1.0}, \"18\": {\"I\": 1.0}, \"19\": {\"I\": 1.0}, \"20\": {\"Cs\": 1.0}, \"21\": {\"Sn\": 1.0}, \"22\": {\"I\": 1.0}, \"23\": {\"I\": 1.0}, \"24\": {\"I\": 1.0}, \"25\": {\"Cs\": 1.0}, \"26\": {\"Sn\": 1.0}, \"27\": {\"I\": 1.0}, \"28\": {\"I\": 1.0}, \"29\": {\"I\": 1.0}, \"30\": {\"Cs\": 1.0}, \"31\": {\"Ge\": 1.0}, \"32\": {\"I\": 1.0}, \"33\": {\"I\": 1.0}, \"34\": {\"I\": 1.0}, \"35\": {\"Cs\": 1.0}, \"36\": {\"Sn\": 1.0}, \"37\": {\"I\": 1.0}, \"38\": {\"I\": 1.0}, \"39\": {\"I\": 1.0}}" candidate_id=cf276affe717b827 formula=MAGe0.14Sn0.86I3 config_index=3 rattle_stdev=0.08 method=PBE fidelity=phase2_force energy=-111.59593370186359 stress="-0.001529315861671431 0.00014964282866707492 4.680401143688558e-05 0.00014964282866707492 -0.0014606392583998166 2.004896093798251e-05 4.680401143688558e-05 2.004896093798251e-05 -0.0008573904244067517" pbc="T T T"
Cs      12.32731365      12.59433736       0.05016170        0       0.04757459       0.02595350       0.00677925
Sn       3.10082472       3.12656823       3.19660180        1      -0.27174526      -0.29049282      -0.60933099
I        3.06531054       3.16216405      12.41726863        2       0.03218889      -0.01277457      -0.07961368
I        3.23223491      12.45423801       3.01536756        3       0.01764852      -0.14174020       0.00374864
I       12.41792963       2.99016375       3.01744053        4       0.15276579       0.05891183       0.04460298
Cs      12.41505339      12.36495225       6.13286109        5      -0.01833022       0.01035694      -0.01299552
Sn       3.14089208       2.91542297       9.22589258        6       0.03554750       0.43133556       0.47283527
I        3.06289960       2.92409637       6.13763363        7      -0.03235982      -0.01013374       0.31497334
I        3.17292822      -0.10221514       9.29628247        8      -0.03299916       0.44877356       0.02440938
I       -0.12009809       3.02467522       9.54085046        9       0.34644599       0.03372093      -0.03954695
Cs      12.39485490       6.35776649      -0.09803852       10       0.02607206      -0.07348545       0.00467543
Sn       3.08054125       9.26355553       3.05542079       11      -0.03976855       0.30284930       0.00872693
I        3.23230391       9.34109000      -0.04995449       12      -0.04200436      -0.04150776       0.45667410
I        3.10683141       6.19250767       3.24096783       13      -0.01613544       0.17726329       0.00716696
I       12.23604960       9.41219762       3.09230912       14       1.01574529      -0.10265635       0.03104059
Cs      12.37230128       6.29979548       6.14073702       15      -0.02283740      -0.00212374       0.01192639
Sn       3.16405405       9.39012391       9.32981202       16      -0.12447323      -0.59415105       0.01428678
I        3.24608993       9.37685905       6.32946294       17      -0.00818002       0.01446638      -0.48658168
I        3.17835686       6.29350494       9.31309076       18      -0.02051257      -0.24178306      -0.03665916
I       12.46426528       9.23272606       9.35353794       19      -0.11718468       0.02973573       0.00424155
Cs       6.38193808      12.41176331      -0.00578743       20      -0.03439202       0.01821261       0.01278851
Sn       9.20779232       2.99661450       3.08841256       21       0.38686850       0.18984347       0.01441962
I        9.32635679       3.17672384       0.05854326       22      -0.06388360      -0.02988222      -0.15718941
I        9.55130216      12.36227285       3.03876772       23      -0.16263718      -0.03438480       0.04660301
I        6.21133357       3.18751659       3.15938714       24      -0.13604685      -0.03337933       0.02217664
Cs       6.30832443      12.47476441       6.21872963       25       0.01334285      -0.03536513      -0.00638693
Sn       9.37768616       3.08861118       9.30207384       26      -0.08444075      -0.05764662       0.00867515
I        9.48304415       3.05080281       6.20382940       27      -0.01508019       0.00723302       0.15140911
I        9.36621940      12.60655021       9.26516827       28      -0.02956379      -0.83770244       0.06546524
I        6.20768708       3.08596727       9.40426220       29      -0.20501119      -0.03926524      -0.06036404
Cs       6.23985380       6.29173316       0.11573295       30      -0.00673687      -0.03294803      -0.03735944
Ge       9.39270797       9.34141647       3.18028587       31      -0.16986197      -0.14895941       0.12759858
I        9.37752564       9.32433501       0.15582458       32       0.02810879      -0.01651076      -0.19265956
I        9.28782539       6.22921918       3.25923715       33       0.08796725       0.06168323      -0.02860244
I        6.57672112       9.30561723       3.05815648       34      -0.85641058       0.05722844       0.03702288
Cs       6.37047276       6.37769041       6.20297014       35       0.00109639       0.01165422       0.02546629
Sn       9.36051472       9.30355353       9.50961918       36       0.07239731       0.00511365      -0.16883405
I        9.32346258       9.33501651       6.24919795       37       0.02036087       0.02646063       0.00513405
I        9.30722797       6.06549273       9.40794341       38      -0.00871648       0.85252580      -0.00613813
I        6.20487262       9.37611443       9.44722742       39       0.23357699       0.01002815      -0.00207709
