Cs Pb I  Cs Pb I  Cs Pb I  Cs Ge I  Cs Pb I  Cs Pb I  Cs Ge I  Cs Pb I 
 1.0000000000000000
    13.1213562744100489    0.0000000000000000    0.0000000000000000
     0.0000000000000000   13.1213562744100489    0.0000000000000000
     0.0000000000000000    0.0000000000000000   13.1213562744100489
 Cs  Pb  I   Cs  Pb  I   Cs  Pb  I   Cs  Ge  I   Cs  Pb  I   Cs  Pb  I   Cs  Ge  I   Cs  Pb  I  
   1   1   3   1   1   3   1   1   3   1   1   3   1   1   3   1   1   3   1   1   3   1   1   3
Cartesian
  0.0000000000000000  0.0000000000000000  0.0000000000000000
  3.2803390686025122  3.2803390686025122  3.2803390686025122
  3.2803390686025122  3.2803390686025122  0.0000000000000000
  3.2803390686025122  0.0000000000000000  3.2803390686025122
  0.0000000000000000  3.2803390686025122  3.2803390686025122
  0.0000000000000000  0.0000000000000000  6.5606781372050236
  3.2803390686025122  3.2803390686025122  9.8410172058075389
  3.2803390686025122  3.2803390686025122  6.5606781372050236
  3.2803390686025122  0.0000000000000000  9.8410172058075389
  0.0000000000000000  3.2803390686025122  9.8410172058075389
  0.0000000000000000  6.5606781372050236  0.0000000000000000
  3.2803390686025122  9.8410172058075389  3.2803390686025122
  3.2803390686025122  9.8410172058075389  0.0000000000000000
  3.2803390686025122  6.5606781372050236  3.2803390686025122
  0.0000000000000000  9.8410172058075389  3.2803390686025122
  0.0000000000000000  6.5606781372050236  6.5606781372050236
  3.2803390686025122  9.8410172058075389  9.8410172058075389
  3.2803390686025122  9.8410172058075389  6.5606781372050236
  3.2803390686025122  6.5606781372050236  9.8410172058075389
  0.0000000000000000  9.8410172058075389  9.8410172058075389
  6.5606781372050236  0.0000000000000000  0.0000000000000000
  9.8410172058075389  3.2803390686025122  3.2803390686025122
  9.8410172058075389  3.2803390686025122  0.0000000000000000
  9.8410172058075389  0.0000000000000000  3.2803390686025122
  6.5606781372050236  3.2803390686025122  3.2803390686025122
  6.5606781372050236  0.0000000000000000  6.5606781372050236
  9.8410172058075389  3.2803390686025122  9.8410172058075389
  9.8410172058075389  3.2803390686025122  6.5606781372050236
  9.8410172058075389  0.0000000000000000  9.8410172058075389
  6.5606781372050236  3.2803390686025122  9.8410172058075389
  6.5606781372050236  6.5606781372050236  0.0000000000000000
  9.8410172058075389  9.8410172058075389  3.2803390686025122
  9.8410172058075389  9.8410172058075389  0.0000000000000000
  9.8410172058075389  6.5606781372050236  3.2803390686025122
  6.5606781372050236  9.8410172058075389  3.2803390686025122
  6.5606781372050236  6.5606781372050236  6.5606781372050236
  9.8410172058075389  9.8410172058075389  9.8410172058075389
  9.8410172058075389  9.8410172058075389  6.5606781372050236
  9.8410172058075389  6.5606781372050236  9.8410172058075389
  6.5606781372050236  9.8410172058075389  9.8410172058075389
