Cs Pb I  Cs Pb I  Cs Sn I  Cs Sn I  Cs Sn I  Cs Pb I  Cs Sn I  Cs Sn I 
 1.0000000000000000
    13.5352965841166544    0.0000000000000000    0.0000000000000000
     0.0000000000000000   13.5352965841166544    0.0000000000000000
     0.0000000000000000    0.0000000000000000   13.5352965841166544
 Cs  Pb  I   Cs  Pb  I   Cs  Sn  I   Cs  Sn  I   Cs  Sn  I   Cs  Pb  I   Cs  Sn  I   Cs  Sn  I  
   1   1   3   1   1   3   1   1   3   1   1   3   1   1   3   1   1   3   1   1   3   1   1   3
Cartesian
  0.0000000000000000  0.0000000000000000  0.0000000000000000
  3.3838241460291636  3.3838241460291636  3.3838241460291636
  3.3838241460291636  3.3838241460291636  0.0000000000000000
  3.3838241460291636  0.0000000000000000  3.3838241460291636
  0.0000000000000000  3.3838241460291636  3.3838241460291636
  0.0000000000000000  0.0000000000000000  6.7676482920583263
  3.3838241460291636  3.3838241460291636 10.1514724380874917
  3.3838241460291636  3.3838241460291636  6.7676482920583263
  3.3838241460291636  0.0000000000000000 10.1514724380874917
  0.0000000000000000  3.3838241460291636 10.1514724380874917
  0.0000000000000000  6.7676482920583263  0.0000000000000000
  3.3838241460291636 10.1514724380874917  3.3838241460291636
  3.3838241460291636 10.1514724380874917  0.0000000000000000
  3.3838241460291636  6.7676482920583263  3.3838241460291636
  0.0000000000000000 10.1514724380874917  3.3838241460291636
  0.0000000000000000  6.7676482920583263  6.7676482920583263
  3.3838241460291636 10.1514724380874917 10.1514724380874917
  3.3838241460291636 10.1514724380874917  6.7676482920583263
  3.3838241460291636  6.7676482920583263 10.1514724380874917
  0.0000000000000000 10.1514724380874917 10.1514724380874917
  6.7676482920583263  0.0000000000000000  0.0000000000000000
 10.1514724380874917  3.3838241460291636  3.3838241460291636
 10.1514724380874917  3.3838241460291636  0.0000000000000000
 10.1514724380874917  0.0000000000000000  3.3838241460291636
  6.7676482920583263  3.3838241460291636  3.3838241460291636
  6.7676482920583263  0.0000000000000000  6.7676482920583263
 10.1514724380874917  3.3838241460291636 10.1514724380874917
 10.1514724380874917  3.3838241460291636  6.7676482920583263
 10.1514724380874917  0.0000000000000000 10.1514724380874917
  6.7676482920583263  3.3838241460291636 10.1514724380874917
  6.7676482920583263  6.7676482920583263  0.0000000000000000
 10.1514724380874917 10.1514724380874917  3.3838241460291636
 10.1514724380874917 10.1514724380874917  0.0000000000000000
 10.1514724380874917  6.7676482920583263  3.3838241460291636
  6.7676482920583263 10.1514724380874917  3.3838241460291636
  6.7676482920583263  6.7676482920583263  6.7676482920583263
 10.1514724380874917 10.1514724380874917 10.1514724380874917
 10.1514724380874917 10.1514724380874917  6.7676482920583263
 10.1514724380874917  6.7676482920583263 10.1514724380874917
  6.7676482920583263 10.1514724380874917 10.1514724380874917
