Cs Pb I  Cs Pb I  Cs Pb Br I  Cs Pb I  Br I  Cs Pb I  Br Cs Pb I  Cs Pb I  Br Cs Pb I  Br
 1.0000000000000000
    13.2824351991643432    0.0000000000000000    0.0000000000000000
     0.0000000000000000   13.2824351991643432    0.0000000000000000
     0.0000000000000000    0.0000000000000000   13.2824351991643432
 Cs  Pb  I   Cs  Pb  I   Cs  Pb  Br  I   Cs  Pb  I   Br  I   Cs  Pb  I   Br  Cs  Pb  I   Cs  Pb  I   Br  Cs  Pb  I   Br 
   1   1   3   1   1   3   1   1   2   1   1   1   1   1   1   1   1   2   1   1   1   3   1   1   1   2   1   1   2   1
Cartesian
  0.0000000000000000  0.0000000000000000  0.0000000000000000
  3.3206087997910858  3.3206087997910858  3.3206087997910858
  3.3206087997910858  3.3206087997910858  0.0000000000000000
  3.3206087997910858  0.0000000000000000  3.3206087997910858
  0.0000000000000000  3.3206087997910858  3.3206087997910858
  0.0000000000000000  0.0000000000000000  6.6412175995821707
  3.3206087997910858  3.3206087997910858  9.9618263993732583
  3.3206087997910858  3.3206087997910858  6.6412175995821707
  3.3206087997910858  0.0000000000000000  9.9618263993732583
  0.0000000000000000  3.3206087997910858  9.9618263993732583
  0.0000000000000000  6.6412175995821707  0.0000000000000000
  3.3206087997910858  9.9618263993732583  3.3206087997910858
  3.3206087997910858  9.9618263993732583  0.0000000000000000
  3.3206087997910858  6.6412175995821707  3.3206087997910858
  0.0000000000000000  9.9618263993732583  3.3206087997910858
  0.0000000000000000  6.6412175995821707  6.6412175995821707
  3.3206087997910858  9.9618263993732583  9.9618263993732583
  3.3206087997910858  9.9618263993732583  6.6412175995821707
  3.3206087997910858  6.6412175995821707  9.9618263993732583
  0.0000000000000000  9.9618263993732583  9.9618263993732583
  6.6412175995821707  0.0000000000000000  0.0000000000000000
  9.9618263993732583  3.3206087997910858  3.3206087997910858
  9.9618263993732583  3.3206087997910858  0.0000000000000000
  9.9618263993732583  0.0000000000000000  3.3206087997910858
  6.6412175995821707  3.3206087997910858  3.3206087997910858
  6.6412175995821707  0.0000000000000000  6.6412175995821707
  9.9618263993732583  3.3206087997910858  9.9618263993732583
  9.9618263993732583  3.3206087997910858  6.6412175995821707
  9.9618263993732583  0.0000000000000000  9.9618263993732583
  6.6412175995821707  3.3206087997910858  9.9618263993732583
  6.6412175995821707  6.6412175995821707  0.0000000000000000
  9.9618263993732583  9.9618263993732583  3.3206087997910858
  9.9618263993732583  9.9618263993732583  0.0000000000000000
  9.9618263993732583  6.6412175995821707  3.3206087997910858
  6.6412175995821707  9.9618263993732583  3.3206087997910858
  6.6412175995821707  6.6412175995821707  6.6412175995821707
  9.9618263993732583  9.9618263993732583  9.9618263993732583
  9.9618263993732583  9.9618263993732583  6.6412175995821707
  9.9618263993732583  6.6412175995821707  9.9618263993732583
  6.6412175995821707  9.9618263993732583  9.9618263993732583
