40
Lattice="10.652411900899384 0.0 0.0 0.0 10.652411900899391 0.0 0.0 7.748203882983472e-15 10.65241190089935" Properties=species:S:1:pos:R:3:spacegroup_kinds:I:1:forces:R:3 spacegroup="P 1" unit_cell=conventional candidate_id=130eb0f116f34223 formula=Cs0.88Rb0.12GeCl3 config_index=0 rattle_stdev=0.0 method=PBE fidelity=phase2_force energy=-138.98409885853363 stress="-0.00024844445273088615 0.0 0.0 0.0 -0.00024844445273088653 1.807100862474756e-19 0.0 1.807100862474756e-19 -0.000248444452712168" pbc="T T T"
Cs      10.65241190      10.65241190      10.65241190        0      -0.00000000       0.00000000       0.00000000
Ge       2.67272321       2.67272321       2.65348274        1       0.00182906       0.00182906      -0.00182906
Cl       2.69567096       2.69567096      10.65241190        2      -0.00753611      -0.00753611       0.00000000
Cl       2.68248236      10.65241190       2.64372359        3      -0.01149342       0.00000000       0.01149342
Cl      10.65241190       2.68248236       2.64372359        4       0.00000000      -0.01149342       0.01149342
Cs      10.65241190       0.00000000       5.32620595        5       0.00000000       0.00000000       0.00000000
Ge       2.67272321       2.67272321       7.99892916        6       0.00182906       0.00182906       0.00182906
Cl       2.68248236       2.68248236       5.32620595        7      -0.01149342      -0.01149342       0.00000000
Cl       2.68248236      10.65241190       8.00868831        8      -0.01149342      -0.00000000      -0.01149342
Cl       0.00000000       2.68248236       8.00868831        9       0.00000000      -0.01149342      -0.01149342
Cs      10.65241190       5.32620595      10.65241190       10       0.00000000      -0.00000000       0.00000000
Ge       2.67272321       7.97968869       2.65348274       11       0.00182906      -0.00182906      -0.00182906
Cl       2.69567096       7.95674094      10.65241190       12      -0.00753611       0.00753611       0.00000000
Cl       2.69567096       5.32620595       2.63053499       13      -0.00753611       0.00000000       0.00753611
Cl      10.65241190       7.96992954       2.64372359       14       0.00000000       0.01149342       0.01149342
Cs      10.65241190       5.32620595       5.32620595       15       0.00000000       0.00000000       0.00000000
Ge       2.67272321       7.97968869       7.99892916       16       0.00182906      -0.00182906       0.00182906
Cl       2.68248236       7.96992954       5.32620595       17      -0.01149342       0.01149342       0.00000000
Cl       2.69567096       5.32620595       8.02187691       18      -0.00753611      -0.00000000      -0.00753611
Cl      10.65241190       7.96992954       8.00868831       19      -0.00000000       0.01149342      -0.01149342
Cs       5.32620595      10.65241190      10.65241190       20      -0.00000000       0.00000000       0.00000000
Ge       7.97968869       2.67272321       2.65348274       21      -0.00182906       0.00182906      -0.00182906
Cl       7.95674094       2.69567096      10.65241190       22       0.00753611      -0.00753611       0.00000000
Cl       7.96992954      10.65241190       2.64372359       23       0.01149342       0.00000000       0.01149342
Cl       5.32620595       2.69567096       2.63053499       24       0.00000000      -0.00753611       0.00753611
Cs       5.32620595      10.65241190       5.32620595       25       0.00000000      -0.00000000       0.00000000
Ge       7.97968869       2.67272321       7.99892916       26      -0.00182906       0.00182906       0.00182906
Cl       7.96992954       2.68248236       5.32620595       27       0.01149342      -0.01149342       0.00000000
Cl       7.96992954      10.65241190       8.00868831       28       0.01149342      -0.00000000      -0.01149342
Cl       5.32620595       2.69567096       8.02187691       29       0.00000000      -0.00753611      -0.00753611
Rb       5.32620595       5.32620595      10.65241190       30       0.00000000       0.00000000       0.00000000
Ge       7.97968869       7.97968869       2.65348274       31      -0.00182906      -0.00182906      -0.00182906
Cl       7.95674094       7.95674094       0.00000000       32       0.00753611       0.00753611       0.00000000
Cl       7.95674094       5.32620595       2.63053499       33       0.00753611       0.00000000       0.00753611
Cl       5.32620595       7.95674094       2.63053499       34       0.00000000       0.00753611       0.00753611
Cs       5.32620595       5.32620595       5.32620595       35       0.00000000       0.00000000       0.00000000
Ge       7.97968869       7.97968869       7.99892916       36      -0.00182906      -0.00182906       0.00182906
Cl       7.96992954       7.96992954       5.32620595       37       0.01149342       0.01149342       0.00000000
Cl       7.95674094       5.32620595       8.02187691       38       0.00753611      -0.00000000      -0.00753611
Cl       5.32620595       7.95674094       8.02187691       39       0.00000000       0.00753611      -0.00753611
40
Lattice="10.652411900899384 0.0 0.0 0.0 10.652411900899391 0.0 0.0 7.748203882983472e-15 10.65241190089935" Properties=species:S:1:pos:R:3:spacegroup_kinds:I:1:forces:R:3 spacegroup="P 1" unit_cell=conventional candidate_id=130eb0f116f34223 formula=Cs0.88Rb0.12GeCl3 config_index=1 rattle_stdev=0.08 method=PBE fidelity=phase2_force energy=-138.5134013316541 stress="-0.0033058225265490053 5.699993794248163e-05 0.00022888216077477825 5.699993794248163e-05 -0.002454854002886271 -0.00019031119937970418 0.00022888216077477825 -0.00019031119937970418 -0.003701701839757353" pbc="T T T"
Cs      10.56549619      10.58072669      10.62790795        0       0.03201365       0.11909798       0.04798311
Ge       2.56552852       2.57619636       2.60214460        1       0.36530130       0.36133632       0.01478299
Cl       2.80030661       2.84330779      10.71874110        2      -0.21921523      -0.24116589       0.15935510
Cl       2.68061845      10.63572678       2.57039401        3      -0.10075606       0.11735693       0.01456274
Cl      10.56643249       2.67559088       2.73779068        4       0.52342312      -0.01669507      -0.02785804
Cs      10.52160456       0.09825552       5.41231685        5       0.13747897      -0.00796673      -0.13965618
Ge       2.70430504       2.64170714       8.04600130        6       0.19360278      -0.16106848      -0.30603142
Cl       2.56781845       2.65659638       5.42644473        7       0.10398386      -0.01974757      -0.01066070
Cl       2.62402295      10.76669071       8.08426062        8       0.00419227      -0.26198598      -0.06070755
Cl      -0.02112022       2.66942529       7.93155973        9      -0.11111730       0.00271850       0.06634893
Cs      10.62500011       5.33011827      10.61244134       10      -0.03035027      -0.05929245       0.02105060
Ge       2.49577085       8.00447564       2.52631064       11       0.54403951      -0.32194398      -0.20537112
Cl       2.75402732       7.94810884      10.60039818       12      -0.16985121       0.03990046       0.18009926
Cl       2.56022644       5.29672803       2.50330526       13      -0.01881592       0.04664754       0.17017171
Cl      10.77085237       8.00788476       2.71683270       14      -0.41419552       0.01401828      -0.03416094
Cs      10.72924952       5.33296936       5.46358443       15      -0.00675045      -0.05493318      -0.15111962
Ge       2.74087463       7.91929787       7.81591881       16       0.46533850      -0.00129907       0.24937033
Cl       2.69122145       7.93391689       5.29316815       17      -0.04249140       0.02796325       0.24506758
Cl       2.72118966       5.28291731       8.09777023       18      -0.02948540       0.56973692      -0.16672381
Cl      10.66452670       7.97608174       8.00393628       19       0.08717166       0.06768522      -0.15631193
Cs       5.32059485      10.60711998      10.67729233       20       0.04849149       0.06538534       0.03701444
Ge       8.03762540       2.71403921       2.73556520       21      -0.49482135      -0.32328622      -0.75162938
Cl       7.99835315       2.62608387      10.77245711       22       0.10483050       0.06364276      -0.32105307
Cl       8.06324732      10.69176506       2.58514262       23      -0.04753111      -0.08909420       0.21282571
Cl       5.38063044       2.73639070       2.56353210       24      -0.34222418      -0.06160882       0.15726920
Cs       5.37801754      10.65341506       5.45097308       25      -0.11657113       0.06568286      -0.16354111
Ge       8.06245632       2.69973862       7.89472033       26      -0.14655322       0.37543993       0.32074588
Cl       7.88044600       2.78724357       5.28474859       27       0.08322180      -0.09175430       0.57233649
Cl       7.93847960      10.73584938       8.01466552       28       0.14621796      -0.20038757      -0.15767895
Cl       5.33336091       2.69998355       8.05535267       29      -0.15441342      -0.02572613      -0.06105002
Rb       5.22798755       5.23904263      10.67778185       30       0.08218188       0.03033787       0.02943091
Ge       7.91725625       7.91119821       2.54789303       31      -0.46522639       0.17366147      -0.26993938
Cl       7.99304348       8.03688293       0.11309877       32      -0.02340949      -0.09060541       0.24152086
Cl       7.94152631       5.32861479       2.48066166       33       0.05256077       0.26880884       0.09353348
Cl       5.31686379       7.94654172       2.70270974       34       0.61441792      -0.00264679      -0.06489819
Cs       5.22105618       5.31824189       5.33744994       35       0.02137108      -0.05536538      -0.06798963
Ge       8.18999317       8.12015100       7.78807733       36      -0.58373011      -0.39534192       0.54075900
Cl       7.86699798       7.95619177       5.47024225       37       0.24524869       0.10885462      -0.30162303
Cl       8.00543659       5.32872800       7.90456393       38       0.05505014       0.03063184       0.06396624
Cl       5.35096121       8.04811837       7.98100937       39      -0.39049260      -0.06617363      -0.03972343
40
Lattice="10.652411900899384 0.0 0.0 0.0 10.652411900899391 0.0 0.0 7.748203882983472e-15 10.65241190089935" Properties=species:S:1:pos:R:3:spacegroup_kinds:I:1:forces:R:3 spacegroup="P 1" unit_cell=conventional candidate_id=130eb0f116f34223 formula=Cs0.88Rb0.12GeCl3 config_index=2 rattle_stdev=0.08 method=PBE fidelity=phase2_force energy=-138.3728309653577 stress="-0.0024215447280056886 0.00010839535056066709 3.154998294867282e-05 0.00010839535056066709 -0.0025063555500316388 0.00014616468882450357 3.154998294867282e-05 0.00014616468882450357 -0.002269597298167515" pbc="T T T"
Cs      10.64339486      10.56628678      10.79521406        0       0.05357768       0.03964266      -0.23271106
Ge       2.55616454       2.64661755       2.55269102        1       0.57019457       0.32405112       0.12081977
Cl       2.72574028       2.62541917      10.62441384        2      -0.14914622       0.09120867       0.11044168
Cl       2.70621517      10.74848485       2.51820397        3      -0.09037011      -0.65830575       0.11700229
Cl      10.80073420       2.72199930       2.63326668        4      -0.63715110      -0.05997665      -0.05397703
Cs      10.62016224      -0.07789298       5.28880861        5      -0.01387199      -0.00633663       0.12784082
Ge       2.61528949       2.77043467       7.93675316        6       0.46231325       0.19731374      -0.21741248
Cl       2.63540031       2.67787285       5.33257234        7      -0.01737084      -0.12048710       0.13742947
Cl       2.58782627      10.52851251       8.08166880        8       0.00365031       0.03553804      -0.03400943
Cl       0.03301366       2.62682084       7.82558656        9      -0.16348843       0.06806786       0.16784342
Cs      10.58943258       5.24392462      10.65987655       10       0.07557555       0.04222037      -0.04208551
Ge       2.63038768       8.04210828       2.63741757       11       0.40355383      -0.30292853       0.07179669
Cl       2.65722227       7.87391997      10.61219315       12       0.00852904       0.01195881       0.49940381
Cl       2.75886217       5.25220614       2.80733782       13      -0.15487713       0.56972438      -0.22077789
Cl      10.54039301       7.95080175       2.66111085       14       0.48650070      -0.03107170      -0.02259646
Cs      10.62422108       5.33307599       5.33473811       15      -0.00939716       0.02289719      -0.01385103
Ge       2.65696071       8.08744340       8.02654308       16      -0.30394132      -0.17061945      -0.15342234
Cl       2.72709391       7.92230673       5.38483253       17      -0.10820267       0.17370273      -0.39195912
Cl       2.80217117       5.26780332       7.98301644       18      -0.16565985      -0.39355713       0.06554413
Cl      10.73856504       7.76230095       8.02204256       19       0.15483545       0.18089794      -0.00294138
Cs       5.40932272      10.50772599      10.71310318       20      -0.11231103       0.18190765      -0.13730301
Ge       7.93967967       2.48517976       2.64484933       21      -0.59230897       0.48582490       0.31692760
Cl       7.83651793       2.73477325      10.60815762       22       0.18236862      -0.01638170       0.04839143
Cl       8.05453015      10.58286647       2.63771631       23      -0.04615043       0.35667933      -0.00315094
Cl       5.31763355       2.86357672       2.60329196       24       0.68927489      -0.39326673      -0.02267255
Cs       5.28397354      10.54884256       5.34333387       25       0.04182379       0.11193563       0.05205468
Ge       8.06979026       2.70484608       8.06017598       26      -0.57115207      -0.08127604      -0.24176590
Cl       7.86167935       2.72839104       5.30859498       27       0.15667065      -0.22627624      -0.23040164
Cl       8.02154466      10.57203436       8.16066739       28       0.03216908       0.46783497      -0.06672998
Cl       5.34355482       2.73566859       7.97174962       29       0.13918083      -0.12703995       0.04918997
Rb       5.24597521       5.26370113      10.66875412       30      -0.01931794      -0.04765363      -0.00099780
Ge       8.02257605       7.89368890       2.47605436       31      -0.41598709      -0.38812960       0.56237762
Cl       8.00849536       7.93095408      -0.01380513       32       0.00631901      -0.08604257       0.28931167
Cl       7.77366720       5.31724244       2.70696010       33       0.26740984       0.14422859      -0.19332181
Cl       5.36258501       8.12169514       2.63553183       34      -0.50742728      -0.07091472      -0.06458278
Cs       5.32643335       5.28992164       5.35608455       35      -0.00884257       0.01244263      -0.03656761
Ge       7.91463941       7.97156409       8.03458622       36       0.03281570       0.01389793      -0.75330465
Cl       7.86791925       7.97855609       5.39438490       37       0.14560565       0.10355222       0.04914433
Cl       7.94419278       5.42131149       7.90409584       38       0.09571043      -0.57717867       0.17570717
Cl       5.39548922       7.88526978       7.97795926       39       0.07314993       0.12915325       0.16891180
40
Lattice="10.652411900899384 0.0 0.0 0.0 10.652411900899391 0.0 0.0 7.748203882983472e-15 10.65241190089935" Properties=species:S:1:pos:R:3:spacegroup_kinds:I:1:forces:R:3 spacegroup="P 1" unit_cell=conventional candidate_id=130eb0f116f34223 formula=Cs0.88Rb0.12GeCl3 config_index=3 rattle_stdev=0.08 method=PBE fidelity=phase2_force energy=-138.10281570879596 stress="-0.002775293010881931 0.00019508189267681487 0.0002500054117171682 0.00019508189267681487 -0.002961296525681712 0.00012342411178597863 0.0002500054117171682 0.00012342411178597863 -0.001963466550486431" pbc="T T T"
Cs      10.54672842      10.81375213      10.65621706        0       0.15060938      -0.10156072      -0.01106612
Ge       2.65370952       2.67945302       2.73024612        1      -0.31982678      -0.40390203      -0.63501252
Cl       2.64114308       2.73799659      10.59041844        2       0.08295095      -0.07902625      -0.20326345
Cl       2.79487885      10.63443746       2.53925274        3      -0.03535548      -0.23621317       0.07231203
Cl      10.59812908       2.55280769       2.54132571        4       0.23828602       0.16273734       0.16734665
Cs      10.63446816      -0.06804488       5.26574674        5      -0.02667599       0.01334257       0.01559041
Ge       2.69377687       2.46830777       7.86530649        6       0.22386231       0.47651176       0.74365775
Cl       2.62554354       2.48674031       5.22407117        7      -0.00592889       0.05366413       0.23967554
Cl       2.73557216      10.55010518       7.94545553        8      -0.04983569       0.66693884       0.01739907
Cl      -0.12018966       2.58731916       8.19002352        9       0.22071492       0.06887516      -0.26338776
Cs      10.61426967       5.39793907      10.50801684       10       0.07936967      -0.19243434       0.12573053
Ge       2.63342604       7.88372897       2.58906512       11       0.04209819       0.38302221      -0.14436677
Cl       2.80813645       7.93831569      10.59531618       12      -0.13124949      -0.05663088       0.77443348
Cl       2.68266395       5.27189556       2.75166441       13      -0.05081784       0.35662156      -0.02513301
Cl      10.51260607       8.02261191       2.61619429       14       1.19320941      -0.13210962       0.00922042
Cs      10.59171605       5.33996805       5.27362267       15      -0.00327622      -0.05788033       0.05236738
Ge       2.71693885       8.01029735       7.96922593       16      -0.01830420      -0.78608446      -0.09164783
Cl       2.80873387       7.98727334       5.42313328       17      -0.07786139       0.02890722      -0.45066070
Cl       2.75418940       5.38012564       7.97545242       18      -0.04450672      -0.16472691      -0.09020380
Cl      10.64446473       7.84314035       8.00271099       19      -0.32181969       0.14158289      -0.01294625
Cs       5.42211066      10.63117808      10.60026793       20      -0.08673704       0.07048762       0.06384560
Ge       7.82796576       2.54949929       2.62205688       21       0.50402536       0.44039796      -0.08181016
Cl       7.92358248       2.75255638      10.70381393       22      -0.11276381      -0.09212375       0.01640637
Cl       8.16171645      10.63882931       2.56265290       23      -0.30026333      -0.28007063       0.08824558
Cl       5.29072146       2.76334913       2.67008371       24      -0.14417958      -0.12414943       0.03957705
Cs       5.34849701      10.69417918       5.35161529       25       0.06701762      -0.08400712      -0.06225535
Ge       7.99785960       2.64149597       7.94148775       26       0.09205712      -0.13030356      -0.00623852
Cl       8.09345844       2.61344675       5.29749974       27      -0.06954076      -0.00867664       0.21615210
Cl       7.97663369      10.78674966       7.91434133       28      -0.00550348      -0.82508786       0.11614802
Cl       5.29430778       2.66179981       8.06662385       29      -0.51607700      -0.11157983      -0.17528865
Rb       5.28002637       5.33190574      10.72178831       30      -0.00356305      -0.08319761      -0.07543969
Ge       8.01288141       7.96158991       2.71393019       31      -0.25433205      -0.21379237       0.14505478
Cl       7.97475133       7.92156070       0.05232634       32       0.04577491       0.00545186      -0.11663058
Cl       7.88505108       5.21225006       2.76993372       33       0.15024805       0.23705647      -0.08411696
Cl       5.55975200       7.90284292       2.56885305       34      -0.93733996       0.07950045       0.04608956
Cs       5.41064533       5.41786299       5.33585580       35      -0.04454902      -0.07441443       0.07888205
Ge       7.98068817       7.92372698       8.14903309       36       0.14713027      -0.04472721      -0.35058708
Cl       7.93387687       7.94543080       5.43922530       37       0.05428413       0.05760182      -0.06595060
Cl       7.90445366       5.14488063       8.07030506       38       0.02435453       1.01262276      -0.03572682
Cl       5.28426051       7.97334013       8.10958907       39       0.24461283       0.01605960      -0.04484848
