40
Lattice="12.729798248823364 0.0 0.0 0.0 12.729642382893827 0.0 0.0 -2.7486018347540805e-14 12.729642382893797" Properties=species:S:1:pos:R:3:spacegroup_kinds:I:1:forces:R:3 spacegroup="P 1" unit_cell=conventional occupancy="_JSON {\"0\": {\"Cs\": 1.0}, \"1\": {\"Pb\": 1.0}, \"2\": {\"I\": 1.0}, \"3\": {\"I\": 1.0}, \"4\": {\"I\": 1.0}, \"5\": {\"Cs\": 1.0}, \"6\": {\"Pb\": 1.0}, \"7\": {\"I\": 1.0}, \"8\": {\"I\": 1.0}, \"9\": {\"I\": 1.0}, \"10\": {\"Rb\": 1.0}, \"11\": {\"Pb\": 1.0}, \"12\": {\"I\": 1.0}, \"13\": {\"I\": 1.0}, \"14\": {\"I\": 1.0}, \"15\": {\"Rb\": 1.0}, \"16\": {\"Pb\": 1.0}, \"17\": {\"I\": 1.0}, \"18\": {\"I\": 1.0}, \"19\": {\"I\": 1.0}, \"20\": {\"Rb\": 1.0}, \"21\": {\"Pb\": 1.0}, \"22\": {\"I\": 1.0}, \"23\": {\"I\": 1.0}, \"24\": {\"I\": 1.0}, \"25\": {\"Cs\": 1.0}, \"26\": {\"Pb\": 1.0}, \"27\": {\"I\": 1.0}, \"28\": {\"I\": 1.0}, \"29\": {\"I\": 1.0}, \"30\": {\"Rb\": 1.0}, \"31\": {\"Pb\": 1.0}, \"32\": {\"I\": 1.0}, \"33\": {\"I\": 1.0}, \"34\": {\"I\": 1.0}, \"35\": {\"Cs\": 1.0}, \"36\": {\"Pb\": 1.0}, \"37\": {\"I\": 1.0}, \"38\": {\"I\": 1.0}, \"39\": {\"I\": 1.0}}" candidate_id=3212b52708ba405b formula=FA0.49Rb0.51PbI3 config_index=0 rattle_stdev=0.0 method=PBE fidelity=phase2_force energy=-112.29935379305608 stress="-0.0006056309700858931 0.0 0.0 0.0 -0.0006117020305341456 -1.3207954103318578e-18 0.0 -1.3207954103318578e-18 -0.0006115033437607522" pbc="T T T"
Cs      12.72979825      12.72964238      12.72964238        0       0.00000000       0.00000000       0.00000000
Pb       3.18244956       3.19028304       3.17453815        1       0.00032917      -0.00971161       0.01036092
I        3.20145158       3.22533790      12.72964238        2      -0.00172237      -0.00771645       0.00000000
I        3.20642508      12.72964238       3.13768860        3       0.00038733      -0.00000000       0.00835906
I       12.72979825       3.24759386       3.16003784        4      -0.00000000      -0.00870949       0.00736959
Cs      12.72979825      12.72964238       6.36482119        5       0.00000000       0.00000000       0.00000000
Pb       3.18244956       3.19028304       9.55510423        6       0.00032917      -0.00971161      -0.01036092
I        3.15847405       3.22713260       6.36482119        7      -0.00039314      -0.00835764       0.00000000
I        3.20642508      12.72964238       9.59195379        8       0.00038733       0.00000000      -0.00835906
I       12.72979825       3.24759386       9.56960454        9       0.00000000      -0.00870949      -0.00736959
Rb       0.00000000       6.36482119       0.00000000       10       0.00000000      -0.00000000       0.00000000
Pb       3.18244956       9.53935934       3.17453815       11       0.00032917       0.00971161       0.01036092
I        3.20145158       9.50430448      12.72964238       12      -0.00172237       0.00771645       0.00000000
I        3.16344754       6.36482119       3.13948329       13       0.00172786      -0.00000000       0.00771222
I       12.72979825       9.48204852       3.16003784       14       0.00000000       0.00870949       0.00736959
Rb      12.72979825       6.36482119       6.36482119       15       0.00000000      -0.00000000       0.00000000
Pb       3.18244956       9.53935934       9.55510423       16       0.00032917       0.00971161      -0.01036092
I        3.15847405       9.50250979       6.36482119       17      -0.00039314       0.00835764       0.00000000
I        3.16344754       6.36482119       9.59015910       18       0.00172786       0.00000000      -0.00771222
I       12.72979825       9.48204852       9.56960454       19       0.00000000       0.00870949      -0.00736959
Rb       6.36489912      12.72964238       0.00000000       20      -0.00000000       0.00000000       0.00000000
Pb       9.54734869       3.19028304       3.17453815       21      -0.00032917      -0.00971161       0.01036092
I        9.52834666       3.22533790      12.72964238       22       0.00172237      -0.00771645       0.00000000
I        9.52337317      12.72964238       3.13768860       23      -0.00038733      -0.00000000       0.00835906
I        6.36489912       3.20478335       3.11722733       24      -0.00000000      -0.00736639       0.00869906
Cs       6.36489912      12.72964238       6.36482119       25       0.00000000       0.00000000       0.00000000
Pb       9.54734869       3.19028304       9.55510423       26      -0.00032917      -0.00971161      -0.01036092
I        9.57132420       3.22713260       6.36482119       27       0.00039314      -0.00835764       0.00000000
I        9.52337317      12.72964238       9.59195379       28      -0.00038733       0.00000000      -0.00835906
I        6.36489912       3.20478335       9.61241505       29      -0.00000000      -0.00736639      -0.00869906
Rb       6.36489912       6.36482119      12.72964238       30       0.00000000       0.00000000       0.00000000
Pb       9.54734869       9.53935934       3.17453815       31      -0.00032917       0.00971161       0.01036092
I        9.52834666       9.50430448      12.72964238       32       0.00172237       0.00771645       0.00000000
I        9.56635071       6.36482119       3.13948329       33      -0.00172786      -0.00000000       0.00771222
I        6.36489912       9.52485904       3.11722733       34      -0.00000000       0.00736639       0.00869906
Cs       6.36489912       6.36482119       6.36482119       35       0.00000000       0.00000000       0.00000000
Pb       9.54734869       9.53935934       9.55510423       36      -0.00032917       0.00971161      -0.01036092
I        9.57132420       9.50250979       6.36482119       37       0.00039314       0.00835764       0.00000000
I        9.56635071       6.36482119       9.59015910       38      -0.00172786       0.00000000      -0.00771222
I        6.36489912       9.52485904       9.61241505       39      -0.00000000       0.00736639      -0.00869906
40
Lattice="12.729798248823364 0.0 0.0 0.0 12.729642382893827 0.0 0.0 -2.7486018347540805e-14 12.729642382893797" Properties=species:S:1:pos:R:3:spacegroup_kinds:I:1:forces:R:3 spacegroup="P 1" unit_cell=conventional occupancy="_JSON {\"0\": {\"Cs\": 1.0}, \"1\": {\"Pb\": 1.0}, \"2\": {\"I\": 1.0}, \"3\": {\"I\": 1.0}, \"4\": {\"I\": 1.0}, \"5\": {\"Cs\": 1.0}, \"6\": {\"Pb\": 1.0}, \"7\": {\"I\": 1.0}, \"8\": {\"I\": 1.0}, \"9\": {\"I\": 1.0}, \"10\": {\"Rb\": 1.0}, \"11\": {\"Pb\": 1.0}, \"12\": {\"I\": 1.0}, \"13\": {\"I\": 1.0}, \"14\": {\"I\": 1.0}, \"15\": {\"Rb\": 1.0}, \"16\": {\"Pb\": 1.0}, \"17\": {\"I\": 1.0}, \"18\": {\"I\": 1.0}, \"19\": {\"I\": 1.0}, \"20\": {\"Rb\": 1.0}, \"21\": {\"Pb\": 1.0}, \"22\": {\"I\": 1.0}, \"23\": {\"I\": 1.0}, \"24\": {\"I\": 1.0}, \"25\": {\"Cs\": 1.0}, \"26\": {\"Pb\": 1.0}, \"27\": {\"I\": 1.0}, \"28\": {\"I\": 1.0}, \"29\": {\"I\": 1.0}, \"30\": {\"Rb\": 1.0}, \"31\": {\"Pb\": 1.0}, \"32\": {\"I\": 1.0}, \"33\": {\"I\": 1.0}, \"34\": {\"I\": 1.0}, \"35\": {\"Cs\": 1.0}, \"36\": {\"Pb\": 1.0}, \"37\": {\"I\": 1.0}, \"38\": {\"I\": 1.0}, \"39\": {\"I\": 1.0}}" candidate_id=3212b52708ba405b formula=FA0.49Rb0.51PbI3 config_index=1 rattle_stdev=0.08 method=PBE fidelity=phase2_force energy=-111.71705780408571 stress="-0.0022726237293900367 4.846641291384028e-05 3.6605787890715414e-07 4.846641291384028e-05 -0.001419062220984073 -7.902993573253562e-05 3.6605787890715414e-07 -7.902993573253562e-05 -0.0028541199782322274" pbc="T T T"
Cs      12.64288254      12.65795717      12.70513843        0      -0.03041313       0.02851382       0.03268612
Pb       3.07525487       3.09375619       3.12320001        1       0.26638119       0.25163023       0.23794827
I        3.30608723       3.37297474      12.79597158        2      -0.04927924      -0.02992006      -0.08054434
I        3.20456117      12.71295727       3.06435902        3       0.01470397       0.02243345      -0.00814899
I       12.64381884       3.24070238       3.25410493        4       0.49828515      -0.01612892       0.02185688
Cs      12.59899091      12.82789790       6.45093209        5       0.02829837       0.04441375      -0.03754773
Pb       3.21403139       3.15926697       9.60217637        6       0.07785164       0.03180055      -0.11231378
I        3.04381014       3.20124662       6.46505997        7       0.03807018       0.01597509      -0.20818110
I        3.14796567      12.84392119       9.66752610        8      -0.01780655      -0.50885539       0.00707640
I       12.70867803       3.23453680       9.49247596        9       0.11743928      -0.00420377       0.01795567
Rb      -0.02741179       6.36873351      -0.03997056       10      -0.00578960      -0.02893354       0.02286906
Pb       3.00549720       9.56414629       3.04736605       11       0.79378767      -0.23381777      -0.06248273
I        3.25980795       9.49567238      12.67762866       12      -0.02661205       0.03086641      -0.06014829
I        3.02800302       6.33534327       3.01225355       13       0.01210253       0.02100436       0.06844462
I       12.84823872       9.52000374       3.23314695       14      -0.91308088       0.02295493       0.06056499
Rb      12.80663587       6.37158460       6.50219967       15       0.02841744      -0.04556321       0.00642636
Pb       3.25060098       9.47896852       9.37209389       16       0.20425038       0.08769216       0.29841927
I        3.16721314       9.46649714       6.33178340       17       0.00602782      -0.01699018      -0.12239239
I        3.18896624       6.32153256       9.66605241       18      -0.01602844       0.36820472      -0.04588449
I       12.74191305       9.48820072       9.56485251       19       0.34630659       0.00949336       0.01201391
Rb       6.35928803      12.68435046       0.02488043       20       0.01511494       0.01164590       0.02704225
Pb       9.60528539       3.23159904       3.25662061       21      -0.42402448      -0.22878116      -0.40831208
I        9.56995887       3.15575082      12.84968759       22       0.04991913       0.00786668      -0.44264403
I        9.61669094      12.76899554       3.07910762       23       0.00518998      -0.14701206       0.10187147
I        6.41932361       3.24550309       3.05022443       24      -0.33227308      -0.00797970       0.06785473
Cs       6.41671071      12.73064554       6.48958832       25      -0.01786576       0.00953668      -0.01953887
Pb       9.63011632       3.21729845       9.45089540       26      -0.19103048       0.22411464       0.32992143
I        9.48184066       3.33189380       6.32336383       27      -0.03255432      -0.03066703       0.40324535
I        9.49192323      12.81307986       9.59793100       28       0.02392505      -0.17123886      -0.04136444
I        6.37205409       3.20909594       9.64589081       29       0.00671234      -0.00314766      -0.02338051
Rb       6.26668072       6.27765787      12.75501233       30      -0.01564798      -0.03737321       0.04009385
Pb       9.48491624       9.47086886       3.06894844       31      -0.12696752       0.23769796       0.26401771
I        9.56464920       9.58444647      12.84274116       32       0.02511938       0.01672507      -0.40127180
I        9.55113608       6.36723003       2.98960995       33       0.02519530       0.10107124       0.00468904
I        6.35555697       9.51465981       3.18940207       34       0.18009462       0.00122682       0.03317763
Cs       6.25974935       6.35685713       6.37606518       35      -0.00661197      -0.01934608      -0.01624949
Pb       9.75765316       9.67982165       9.34425241       36      -0.50190119      -0.21618661       0.90712582
I        9.46839264       9.48877201       6.50885749       37      -0.01005729       0.01838924      -0.95813344
I        9.61504636       6.36734324       9.47284612       38       0.01228899       0.16318144       0.04399414
I        6.38965438       9.61623646       9.57154752       39      -0.05454533       0.01180298      -0.00304129
40
Lattice="12.729798248823364 0.0 0.0 0.0 12.729642382893827 0.0 0.0 -2.7486018347540805e-14 12.729642382893797" Properties=species:S:1:pos:R:3:spacegroup_kinds:I:1:forces:R:3 spacegroup="P 1" unit_cell=conventional occupancy="_JSON {\"0\": {\"Cs\": 1.0}, \"1\": {\"Pb\": 1.0}, \"2\": {\"I\": 1.0}, \"3\": {\"I\": 1.0}, \"4\": {\"I\": 1.0}, \"5\": {\"Cs\": 1.0}, \"6\": {\"Pb\": 1.0}, \"7\": {\"I\": 1.0}, \"8\": {\"I\": 1.0}, \"9\": {\"I\": 1.0}, \"10\": {\"Rb\": 1.0}, \"11\": {\"Pb\": 1.0}, \"12\": {\"I\": 1.0}, \"13\": {\"I\": 1.0}, \"14\": {\"I\": 1.0}, \"15\": {\"Rb\": 1.0}, \"16\": {\"Pb\": 1.0}, \"17\": {\"I\": 1.0}, \"18\": {\"I\": 1.0}, \"19\": {\"I\": 1.0}, \"20\": {\"Rb\": 1.0}, \"21\": {\"Pb\": 1.0}, \"22\": {\"I\": 1.0}, \"23\": {\"I\": 1.0}, \"24\": {\"I\": 1.0}, \"25\": {\"Cs\": 1.0}, \"26\": {\"Pb\": 1.0}, \"27\": {\"I\": 1.0}, \"28\": {\"I\": 1.0}, \"29\": {\"I\": 1.0}, \"30\": {\"Rb\": 1.0}, \"31\": {\"Pb\": 1.0}, \"32\": {\"I\": 1.0}, \"33\": {\"I\": 1.0}, \"34\": {\"I\": 1.0}, \"35\": {\"Cs\": 1.0}, \"36\": {\"Pb\": 1.0}, \"37\": {\"I\": 1.0}, \"38\": {\"I\": 1.0}, \"39\": {\"I\": 1.0}}" candidate_id=3212b52708ba405b formula=FA0.49Rb0.51PbI3 config_index=2 rattle_stdev=0.08 method=PBE fidelity=phase2_force energy=-111.79452787219644 stress="-0.0017437068149666567 2.425792014750088e-05 -8.080770430405332e-06 2.425792014750088e-05 -0.0019358248788279746 -5.5075764025495536e-05 -8.080770430405332e-06 -5.5075764025495536e-05 -0.0014152250059346711" pbc="T T T"
Cs      12.72078121      12.64351726      12.87244454        0       0.02309995      -0.01181701      -0.05892540
Pb       3.06589090       3.16417738       3.07374643        1       0.70567182       0.22512881       0.14782314
I        3.23152090       3.15508611      12.70164432        2      -0.03574424       0.03100632      -0.04993500
I        3.23015790      12.82571534       3.01216898        3      -0.01035898      -0.57934467       0.02841753
I       12.87812055       3.28711081       3.14958093        4      -0.98696225       0.02260979      -0.02510227
Cs      12.69754859      12.65174940       6.32742385        5      -0.01229305      -0.01085844       0.05418300
Pb       3.12501584       3.28799450       9.49292823        6       0.36486053      -0.14831920      -0.00430761
I        3.11139199       3.22252309       6.37118758        7       0.02091636      -0.08433935      -0.10315676
I        3.11176899      12.60574299       9.66493428        8      -0.00569243       0.52712750      -0.00352820
I       12.76281191       3.19193234       9.38650279        9      -0.16903351       0.00481644       0.02049612
Rb      -0.06297932       6.28253986       0.00746465       10       0.01555772       0.02464284      -0.02734730
Pb       3.14011403       9.60177893       3.15847298       11       0.19029670      -0.19297942       0.05118504
I        3.16300290       9.42148351      12.68942363       12       0.00816176      -0.05265099       0.39059411
I        3.22663876       6.29082138       3.31628611       13      -0.00393801       0.49611426      -0.03064295
I       12.61777935       9.46292073       3.17742510       14       0.57421233       0.00997462       0.03728166
Rb      12.70160743       6.37169123       6.37335335       15      -0.00038420       0.01129059       0.03019474
Pb       3.16668707       9.64711405       9.58271815       16      -0.01421473      -0.38718950      -0.12478502
I        3.20308560       9.45488697       6.42344777       17      -0.01188054       0.06121371      -0.33517080
I        3.26994775       6.30641856       9.55129863       18       0.00715159       0.09447078       0.02812768
I       12.81595139       9.27441993       9.58295879       19      -0.14916163      -0.00692296      -0.01055867
Rb       6.44801590      12.58495647       0.06069128       20      -0.01386502       0.01060395      -0.01356171
Pb       9.50733966       3.00273959       3.16590474       21      -0.16611757       0.37051902       0.11961604
I        9.40812365       3.26444020      12.68538810       22       0.06649739       0.03667556       0.19791841
I        9.60797377      12.66009695       3.13168131       23       0.02433653       0.08339684      -0.00145749
I        6.35632673       3.37268911       3.08998430       24       0.29916762      -0.10130887       0.00446300
Cs       6.32266672      12.62607304       6.38194911       25       0.01685398      -0.00297280       0.02423637
Pb       9.63745025       3.22240591       9.61635106       26      -0.32928666      -0.06774934      -0.24424840
I        9.46307401       3.27304128       6.34721022       27       0.03560220      -0.06886308      -0.07107124
I        9.57498829      12.64926484       9.74393287       28       0.02873289       0.43899389       0.01216872
I        6.38224799       3.24478098       9.56228777       29       0.05925247      -0.05145578      -0.01801308
Rb       6.28466839       6.30231637      12.74598460       30      -0.02434013      -0.05721938       0.00323821
Pb       9.59023605       9.45335955       2.99710977       31      -0.38244137      -0.18253437       0.53191015
I        9.58010108       9.47851761      12.71583725       32       0.02150128      -0.01903564       0.00313633
I        9.38327696       6.35585768       3.21590839       33       0.06357602      -0.11564361      -0.03104497
I        6.40127818       9.68981323       3.12222417       34      -0.35111803       0.05728520      -0.02594026
Cs       6.36512652       6.32853688       6.39469979       35       0.00744784      -0.02011232      -0.00313877
Pb       9.48229941       9.53123474       9.59076129       36       0.26872525       0.11711048      -0.40455524
I        9.46931391       9.51113633       6.43300014       37       0.04233026       0.07633939      -0.18580684
I        9.55380254       6.45992673       9.47237802       38       0.04812895      -0.56311542       0.02883291
I        6.43418239       9.45338787       9.56849740       39      -0.23367596       0.02847490       0.05271675
40
Lattice="12.729798248823364 0.0 0.0 0.0 12.729642382893827 0.0 0.0 -2.7486018347540805e-14 12.729642382893797" Properties=species:S:1:pos:R:3:spacegroup_kinds:I:1:forces:R:3 spacegroup="P 1" unit_cell=conventional occupancy="_JSON {\"0\": {\"Cs\": 1.0}, \"1\": {\"Pb\": 1.0}, \"2\": {\"I\": 1.0}, \"3\": {\"I\": 1.0}, \"4\": {\"I\": 1.0}, \"5\": {\"Cs\": 1.0}, \"6\": {\"Pb\": 1.0}, \"7\": {\"I\": 1.0}, \"8\": {\"I\": 1.0}, \"9\": {\"I\": 1.0}, \"10\": {\"Rb\": 1.0}, \"11\": {\"Pb\": 1.0}, \"12\": {\"I\": 1.0}, \"13\": {\"I\": 1.0}, \"14\": {\"I\": 1.0}, \"15\": {\"Rb\": 1.0}, \"16\": {\"Pb\": 1.0}, \"17\": {\"I\": 1.0}, \"18\": {\"I\": 1.0}, \"19\": {\"I\": 1.0}, \"20\": {\"Rb\": 1.0}, \"21\": {\"Pb\": 1.0}, \"22\": {\"I\": 1.0}, \"23\": {\"I\": 1.0}, \"24\": {\"I\": 1.0}, \"25\": {\"Cs\": 1.0}, \"26\": {\"Pb\": 1.0}, \"27\": {\"I\": 1.0}, \"28\": {\"I\": 1.0}, \"29\": {\"I\": 1.0}, \"30\": {\"Rb\": 1.0}, \"31\": {\"Pb\": 1.0}, \"32\": {\"I\": 1.0}, \"33\": {\"I\": 1.0}, \"34\": {\"I\": 1.0}, \"35\": {\"Cs\": 1.0}, \"36\": {\"Pb\": 1.0}, \"37\": {\"I\": 1.0}, \"38\": {\"I\": 1.0}, \"39\": {\"I\": 1.0}}" candidate_id=3212b52708ba405b formula=FA0.49Rb0.51PbI3 config_index=3 rattle_stdev=0.08 method=PBE fidelity=phase2_force energy=-111.63739302681536 stress="-0.0018371457044464657 9.00728279837779e-05 2.746515737040799e-05 9.00728279837779e-05 -0.0019025404591698932 4.5923802062875975e-05 2.746515737040799e-05 4.5923802062875975e-05 -0.001351552405468891" pbc="T T T"
Cs      12.62411477      12.89098261      12.73344754        0       0.01741588       0.06216231       0.02378860
Pb       3.16343587       3.19701285       3.25130153        1      -0.25937884      -0.29512704      -0.62355772
I        3.14692370       3.26766354      12.66764893        2       0.01418003      -0.00761800      -0.07239309
I        3.31882158      12.71166794       3.03321774        3       0.02148037      -0.16736760       0.01031106
I       12.67551543       3.11791920       3.05763996        4       0.12254037       0.01999783       0.03082827
Cs      12.71185451      12.66159750       6.30436198        5      -0.03369953       0.02079571      -0.02074947
Pb       3.20350323       2.98586760       9.42148156        6      -0.02189692       0.44141860       0.42483604
I        3.10153523       3.03139055       6.26268641        7      -0.03103727      -0.03400471       0.37735466
I        3.25951488      12.62733566       9.52872101        8      -0.02053487       0.43919750       0.00661496
I       12.60960858       3.15243066       9.75093975        9       0.46247778       0.00425236      -0.01086095
Rb      -0.03814223       6.43655431      -0.14439506       10       0.00703228      -0.05953934      -0.04490173
Pb       3.14315239       9.44339962       3.11012053       11       0.02615746       0.27974706       0.02172467
I        3.31391707       9.48587923      12.67254666       12      -0.03200201      -0.04137257       0.47952178
I        3.15044054       6.31051080       3.26061270       13      -0.01875138       0.22516882       0.03276688
I       12.58999242       9.53473089       3.13250854       14       1.06712626      -0.04274240       0.00994118
Rb      12.66910240       6.37858329       6.31223791       15      -0.04352335      -0.00008057       0.00048852
Pb       3.22666520       9.56996800       9.52540100       16      -0.18080798      -0.52149221       0.03690450
I        3.28472556       9.51985359       6.46174852       17       0.00153553       0.02555212      -0.56534014
I        3.22196599       6.41874088       9.54373461       18      -0.01224332      -0.32709404      -0.04756517
I       12.72185108       9.35525933       9.56362722       19      -0.10472968       0.00625004       0.01218222
Rb       6.46080383      12.70840857      -0.05214397       20      -0.02134160       0.01206014      -0.00303902
Pb       9.39562576       3.06705912       3.14311229       21       0.33995675       0.24793173       0.04255045
I        9.49518820       3.28222333      12.78104441       22      -0.04927906      -0.03426726      -0.16724454
I        9.71516007      12.71605980       3.05661790       23      -0.05359895      -0.25400274       0.01089057
I        6.32941463       3.27246152       3.15677605       24      -0.14818112      -0.01966929       0.03129874
Cs       6.38719018      12.77140966       6.39023053       25       0.01260746      -0.01830691       0.00458260
Pb       9.56551960       3.15905580       9.49766282       26      -0.14795149      -0.04518406       0.00296184
I        9.69485310       3.15809699       6.33611498       27       0.00330322      -0.01081091       0.09223969
I        9.53007732      12.86398015       9.49760681       28      -0.02509940      -0.89240662       0.05087481
I        6.33300095       3.17091220       9.65716200       29      -0.19051899      -0.04322496      -0.05781383
Rb       6.31871955       6.37052098      12.79901879       30      -0.00856871      -0.02729161      -0.02652339
Pb       9.58054141       9.52126056       3.23498560       31      -0.12596215      -0.18295628       0.22245164
I        9.54635705       9.46912424      12.78196873       32       0.03478083      -0.00504520       0.03580817
I        9.49466085       6.25086530       3.27888202       33       0.05932305       0.24432842       0.03254578
I        6.59844517       9.47096102       3.05554539       34      -1.01739498       0.01435445      -0.00091029
Cs       6.44933851       6.45647823       6.37447104       35       0.02168753       0.01340907       0.01661352
Pb       9.54834816       9.48339763       9.70520816       36       0.04514350       0.00786906      -0.27375162
I        9.53527153       9.47801104       6.47784054       37      -0.00018060       0.01443737      -0.10319316
I        9.51406343       6.18349587       9.63858725       38      -0.01938601       0.91097949       0.00156705
I        6.32295368       9.54145822       9.70012722       39       0.29070834       0.02048512       0.00164887
