Cs Ge Br Cs Pb Br Cs Ge Br Cs Ge Br Cs Ge Br Cs Pb Br Cs Ge Br Cs Ge Br
 1.0000000000000000
    11.2199461397994238    0.0000000000000000    0.0000000000000000
     0.0000000000000000   11.2199461397994238    0.0000000000000000
     0.0000000000000000    0.0000000000000000   11.2199461397994238
 Cs  Ge  Br  Cs  Pb  Br  Cs  Ge  Br  Cs  Ge  Br  Cs  Ge  Br  Cs  Pb  Br  Cs  Ge  Br  Cs  Ge  Br 
   1   1   3   1   1   3   1   1   3   1   1   3   1   1   3   1   1   3   1   1   3   1   1   3
Cartesian
  0.0000000000000000  0.0000000000000000  0.0000000000000000
  2.8049865349498559  2.8049865349498559  2.8049865349498559
  2.8049865349498559  2.8049865349498559  0.0000000000000000
  2.8049865349498559  0.0000000000000000  2.8049865349498559
  0.0000000000000000  2.8049865349498559  2.8049865349498559
  0.0000000000000000  0.0000000000000000  5.6099730698997110
  2.8049865349498559  2.8049865349498559  8.4149596048495674
  2.8049865349498559  2.8049865349498559  5.6099730698997110
  2.8049865349498559  0.0000000000000000  8.4149596048495674
  0.0000000000000000  2.8049865349498559  8.4149596048495674
  0.0000000000000000  5.6099730698997110  0.0000000000000000
  2.8049865349498559  8.4149596048495674  2.8049865349498559
  2.8049865349498559  8.4149596048495674  0.0000000000000000
  2.8049865349498559  5.6099730698997110  2.8049865349498559
  0.0000000000000000  8.4149596048495674  2.8049865349498559
  0.0000000000000000  5.6099730698997110  5.6099730698997110
  2.8049865349498559  8.4149596048495674  8.4149596048495674
  2.8049865349498559  8.4149596048495674  5.6099730698997110
  2.8049865349498559  5.6099730698997110  8.4149596048495674
  0.0000000000000000  8.4149596048495674  8.4149596048495674
  5.6099730698997110  0.0000000000000000  0.0000000000000000
  8.4149596048495674  2.8049865349498559  2.8049865349498559
  8.4149596048495674  2.8049865349498559  0.0000000000000000
  8.4149596048495674  0.0000000000000000  2.8049865349498559
  5.6099730698997110  2.8049865349498559  2.8049865349498559
  5.6099730698997110  0.0000000000000000  5.6099730698997110
  8.4149596048495674  2.8049865349498559  8.4149596048495674
  8.4149596048495674  2.8049865349498559  5.6099730698997110
  8.4149596048495674  0.0000000000000000  8.4149596048495674
  5.6099730698997110  2.8049865349498559  8.4149596048495674
  5.6099730698997110  5.6099730698997110  0.0000000000000000
  8.4149596048495674  8.4149596048495674  2.8049865349498559
  8.4149596048495674  8.4149596048495674  0.0000000000000000
  8.4149596048495674  5.6099730698997110  2.8049865349498559
  5.6099730698997110  8.4149596048495674  2.8049865349498559
  5.6099730698997110  5.6099730698997110  5.6099730698997110
  8.4149596048495674  8.4149596048495674  8.4149596048495674
  8.4149596048495674  8.4149596048495674  5.6099730698997110
  8.4149596048495674  5.6099730698997110  8.4149596048495674
  5.6099730698997110  8.4149596048495674  8.4149596048495674
