Cs Pb I  Cs Pb I  Cs Pb Cl I  Cs Pb I  Cs Pb I  Cs Pb I  Cs Pb I  Cl I  Cs Pb I 
 1.0000000000000000
    13.4015119811161600    0.0000000000000000    0.0000000000000000
     0.0000000000000000   13.4015119811161600    0.0000000000000000
     0.0000000000000000    0.0000000000000000   13.4015119811161600
 Cs  Pb  I   Cs  Pb  I   Cs  Pb  Cl  I   Cs  Pb  I   Cs  Pb  I   Cs  Pb  I   Cs  Pb  I   Cl  I   Cs  Pb  I  
   1   1   3   1   1   3   1   1   1   2   1   1   3   1   1   3   1   1   3   1   1   1   1   1   1   1   3
Cartesian
  0.0000000000000000  0.0000000000000000  0.0000000000000000
  3.3503779952790400  3.3503779952790400  3.3503779952790400
  3.3503779952790400  3.3503779952790400  0.0000000000000000
  3.3503779952790400  0.0000000000000000  3.3503779952790400
  0.0000000000000000  3.3503779952790400  3.3503779952790400
  0.0000000000000000  0.0000000000000000  6.7007559905580791
  3.3503779952790400  3.3503779952790400 10.0511339858371223
  3.3503779952790400  3.3503779952790400  6.7007559905580791
  3.3503779952790400  0.0000000000000000 10.0511339858371223
  0.0000000000000000  3.3503779952790400 10.0511339858371223
  0.0000000000000000  6.7007559905580791  0.0000000000000000
  3.3503779952790400 10.0511339858371223  3.3503779952790400
  3.3503779952790400 10.0511339858371223  0.0000000000000000
  3.3503779952790400  6.7007559905580791  3.3503779952790400
  0.0000000000000000 10.0511339858371223  3.3503779952790400
  0.0000000000000000  6.7007559905580791  6.7007559905580791
  3.3503779952790400 10.0511339858371223 10.0511339858371223
  3.3503779952790400 10.0511339858371223  6.7007559905580791
  3.3503779952790400  6.7007559905580791 10.0511339858371223
  0.0000000000000000 10.0511339858371223 10.0511339858371223
  6.7007559905580791  0.0000000000000000  0.0000000000000000
 10.0511339858371223  3.3503779952790400  3.3503779952790400
 10.0511339858371223  3.3503779952790400  0.0000000000000000
 10.0511339858371223  0.0000000000000000  3.3503779952790400
  6.7007559905580791  3.3503779952790400  3.3503779952790400
  6.7007559905580791  0.0000000000000000  6.7007559905580791
 10.0511339858371223  3.3503779952790400 10.0511339858371223
 10.0511339858371223  3.3503779952790400  6.7007559905580791
 10.0511339858371223  0.0000000000000000 10.0511339858371223
  6.7007559905580791  3.3503779952790400 10.0511339858371223
  6.7007559905580791  6.7007559905580791  0.0000000000000000
 10.0511339858371223 10.0511339858371223  3.3503779952790400
 10.0511339858371223 10.0511339858371223  0.0000000000000000
 10.0511339858371223  6.7007559905580791  3.3503779952790400
  6.7007559905580791 10.0511339858371223  3.3503779952790400
  6.7007559905580791  6.7007559905580791  6.7007559905580791
 10.0511339858371223 10.0511339858371223 10.0511339858371223
 10.0511339858371223 10.0511339858371223  6.7007559905580791
 10.0511339858371223  6.7007559905580791 10.0511339858371223
  6.7007559905580791 10.0511339858371223 10.0511339858371223
