Cs Pb I  Cl Cs Pb Cl Cs Pb Cl I  Cs Pb I  Cl I  Cs Pb Cl Cs Pb Cl I  Cl Cs Pb I  Cl Cs Pb Cl
 1.0000000000000000
    12.3900664413069226    0.0000000000000000    0.0000000000000000
     0.0000000000000000   12.3900664413069226    0.0000000000000000
     0.0000000000000000    0.0000000000000000   12.3900664413069226
 Cs  Pb  I   Cl  Cs  Pb  Cl  Cs  Pb  Cl  I   Cs  Pb  I   Cl  I   Cs  Pb  Cl  Cs  Pb  Cl  I   Cl  Cs  Pb  I   Cl  Cs  Pb  Cl 
   1   1   1   2   1   1   3   1   1   2   1   1   1   1   1   1   1   1   3   1   1   1   1   1   1   1   1   2   1   1   3
Cartesian
  0.0000000000000000  0.0000000000000000  0.0000000000000000
  3.0975166103267306  3.0975166103267306  3.0975166103267306
  3.0975166103267306  3.0975166103267306  0.0000000000000000
  3.0975166103267306  0.0000000000000000  3.0975166103267306
  0.0000000000000000  3.0975166103267306  3.0975166103267306
  0.0000000000000000  0.0000000000000000  6.1950332206534604
  3.0975166103267306  3.0975166103267306  9.2925498309801942
  3.0975166103267306  3.0975166103267306  6.1950332206534604
  3.0975166103267306  0.0000000000000000  9.2925498309801942
  0.0000000000000000  3.0975166103267306  9.2925498309801942
  0.0000000000000000  6.1950332206534604  0.0000000000000000
  3.0975166103267306  9.2925498309801942  3.0975166103267306
  3.0975166103267306  9.2925498309801942  0.0000000000000000
  3.0975166103267306  6.1950332206534604  3.0975166103267306
  0.0000000000000000  9.2925498309801942  3.0975166103267306
  0.0000000000000000  6.1950332206534604  6.1950332206534604
  3.0975166103267306  9.2925498309801942  9.2925498309801942
  3.0975166103267306  9.2925498309801942  6.1950332206534604
  3.0975166103267306  6.1950332206534604  9.2925498309801942
  0.0000000000000000  9.2925498309801942  9.2925498309801942
  6.1950332206534604  0.0000000000000000  0.0000000000000000
  9.2925498309801942  3.0975166103267306  3.0975166103267306
  9.2925498309801942  3.0975166103267306  0.0000000000000000
  9.2925498309801942  0.0000000000000000  3.0975166103267306
  6.1950332206534604  3.0975166103267306  3.0975166103267306
  6.1950332206534604  0.0000000000000000  6.1950332206534604
  9.2925498309801942  3.0975166103267306  9.2925498309801942
  9.2925498309801942  3.0975166103267306  6.1950332206534604
  9.2925498309801942  0.0000000000000000  9.2925498309801942
  6.1950332206534604  3.0975166103267306  9.2925498309801942
  6.1950332206534604  6.1950332206534604  0.0000000000000000
  9.2925498309801942  9.2925498309801942  3.0975166103267306
  9.2925498309801942  9.2925498309801942  0.0000000000000000
  9.2925498309801942  6.1950332206534604  3.0975166103267306
  6.1950332206534604  9.2925498309801942  3.0975166103267306
  6.1950332206534604  6.1950332206534604  6.1950332206534604
  9.2925498309801942  9.2925498309801942  9.2925498309801942
  9.2925498309801942  9.2925498309801942  6.1950332206534604
  9.2925498309801942  6.1950332206534604  9.2925498309801942
  6.1950332206534604  9.2925498309801942  9.2925498309801942
