Cs Pb Br Cs Pb Br Cs Pb Br Cs Ge Br Cs Ge Br Cs Pb Br Cs Ge Br Cs Pb Br
 1.0000000000000000
    11.8914147392141683    0.0000000000000000    0.0000000000000000
     0.0000000000000000   11.8914147392141683    0.0000000000000000
     0.0000000000000000    0.0000000000000000   11.8914147392141683
 Cs  Pb  Br  Cs  Pb  Br  Cs  Pb  Br  Cs  Ge  Br  Cs  Ge  Br  Cs  Pb  Br  Cs  Ge  Br  Cs  Pb  Br 
   1   1   3   1   1   3   1   1   3   1   1   3   1   1   3   1   1   3   1   1   3   1   1   3
Cartesian
  0.0000000000000000  0.0000000000000000  0.0000000000000000
  2.9728536848035421  2.9728536848035421  2.9728536848035421
  2.9728536848035421  2.9728536848035421  0.0000000000000000
  2.9728536848035421  0.0000000000000000  2.9728536848035421
  0.0000000000000000  2.9728536848035421  2.9728536848035421
  0.0000000000000000  0.0000000000000000  5.9457073696070832
  2.9728536848035421  2.9728536848035421  8.9185610544106257
  2.9728536848035421  2.9728536848035421  5.9457073696070832
  2.9728536848035421  0.0000000000000000  8.9185610544106257
  0.0000000000000000  2.9728536848035421  8.9185610544106257
  0.0000000000000000  5.9457073696070832  0.0000000000000000
  2.9728536848035421  8.9185610544106257  2.9728536848035421
  2.9728536848035421  8.9185610544106257  0.0000000000000000
  2.9728536848035421  5.9457073696070832  2.9728536848035421
  0.0000000000000000  8.9185610544106257  2.9728536848035421
  0.0000000000000000  5.9457073696070832  5.9457073696070832
  2.9728536848035421  8.9185610544106257  8.9185610544106257
  2.9728536848035421  8.9185610544106257  5.9457073696070832
  2.9728536848035421  5.9457073696070832  8.9185610544106257
  0.0000000000000000  8.9185610544106257  8.9185610544106257
  5.9457073696070832  0.0000000000000000  0.0000000000000000
  8.9185610544106257  2.9728536848035421  2.9728536848035421
  8.9185610544106257  2.9728536848035421  0.0000000000000000
  8.9185610544106257  0.0000000000000000  2.9728536848035421
  5.9457073696070832  2.9728536848035421  2.9728536848035421
  5.9457073696070832  0.0000000000000000  5.9457073696070832
  8.9185610544106257  2.9728536848035421  8.9185610544106257
  8.9185610544106257  2.9728536848035421  5.9457073696070832
  8.9185610544106257  0.0000000000000000  8.9185610544106257
  5.9457073696070832  2.9728536848035421  8.9185610544106257
  5.9457073696070832  5.9457073696070832  0.0000000000000000
  8.9185610544106257  8.9185610544106257  2.9728536848035421
  8.9185610544106257  8.9185610544106257  0.0000000000000000
  8.9185610544106257  5.9457073696070832  2.9728536848035421
  5.9457073696070832  8.9185610544106257  2.9728536848035421
  5.9457073696070832  5.9457073696070832  5.9457073696070832
  8.9185610544106257  8.9185610544106257  8.9185610544106257
  8.9185610544106257  8.9185610544106257  5.9457073696070832
  8.9185610544106257  5.9457073696070832  8.9185610544106257
  5.9457073696070832  8.9185610544106257  8.9185610544106257
