Cs Sn I  Cs Pb I  Cs Sn I  Cs Sn I  Cs Sn I  Cs Sn I  Cs Sn I  Cs Sn I 
 1.0000000000000000
    13.5227100834115337    0.0000000000000000    0.0000000000000000
     0.0000000000000000   13.5227100834115337    0.0000000000000000
     0.0000000000000000    0.0000000000000000   13.5227100834115337
 Cs  Sn  I   Cs  Pb  I   Cs  Sn  I   Cs  Sn  I   Cs  Sn  I   Cs  Sn  I   Cs  Sn  I   Cs  Sn  I  
   1   1   3   1   1   3   1   1   3   1   1   3   1   1   3   1   1   3   1   1   3   1   1   3
Cartesian
  0.0000000000000000  0.0000000000000000  0.0000000000000000
  3.3806775208528825  3.3806775208528825  3.3806775208528825
  3.3806775208528825  3.3806775208528825  0.0000000000000000
  3.3806775208528825  0.0000000000000000  3.3806775208528825
  0.0000000000000000  3.3806775208528825  3.3806775208528825
  0.0000000000000000  0.0000000000000000  6.7613550417057660
  3.3806775208528825  3.3806775208528825 10.1420325625586507
  3.3806775208528825  3.3806775208528825  6.7613550417057660
  3.3806775208528825  0.0000000000000000 10.1420325625586507
  0.0000000000000000  3.3806775208528825 10.1420325625586507
  0.0000000000000000  6.7613550417057660  0.0000000000000000
  3.3806775208528825 10.1420325625586507  3.3806775208528825
  3.3806775208528825 10.1420325625586507  0.0000000000000000
  3.3806775208528825  6.7613550417057660  3.3806775208528825
  0.0000000000000000 10.1420325625586507  3.3806775208528825
  0.0000000000000000  6.7613550417057660  6.7613550417057660
  3.3806775208528825 10.1420325625586507 10.1420325625586507
  3.3806775208528825 10.1420325625586507  6.7613550417057660
  3.3806775208528825  6.7613550417057660 10.1420325625586507
  0.0000000000000000 10.1420325625586507 10.1420325625586507
  6.7613550417057660  0.0000000000000000  0.0000000000000000
 10.1420325625586507  3.3806775208528825  3.3806775208528825
 10.1420325625586507  3.3806775208528825  0.0000000000000000
 10.1420325625586507  0.0000000000000000  3.3806775208528825
  6.7613550417057660  3.3806775208528825  3.3806775208528825
  6.7613550417057660  0.0000000000000000  6.7613550417057660
 10.1420325625586507  3.3806775208528825 10.1420325625586507
 10.1420325625586507  3.3806775208528825  6.7613550417057660
 10.1420325625586507  0.0000000000000000 10.1420325625586507
  6.7613550417057660  3.3806775208528825 10.1420325625586507
  6.7613550417057660  6.7613550417057660  0.0000000000000000
 10.1420325625586507 10.1420325625586507  3.3806775208528825
 10.1420325625586507 10.1420325625586507  0.0000000000000000
 10.1420325625586507  6.7613550417057660  3.3806775208528825
  6.7613550417057660 10.1420325625586507  3.3806775208528825
  6.7613550417057660  6.7613550417057660  6.7613550417057660
 10.1420325625586507 10.1420325625586507 10.1420325625586507
 10.1420325625586507 10.1420325625586507  6.7613550417057660
 10.1420325625586507  6.7613550417057660 10.1420325625586507
  6.7613550417057660 10.1420325625586507 10.1420325625586507
