40
Lattice="12.665885023675123 0.0 0.0 0.0 12.663260227724182 0.0 0.0 3.733665044703257e-14 12.665885023675255" Properties=species:S:1:pos:R:3:spacegroup_kinds:I:1:forces:R:3 spacegroup="P 1" unit_cell=conventional candidate_id=6cdb1e29a376bfd6 formula=MAPb0.39Sn0.61I3 config_index=0 rattle_stdev=0.0 method=PBE fidelity=phase2_force energy=-112.62578400589598 stress="0.0006572080206704285 -4.032050877356767e-12 4.676884572035956e-11 -4.032050877356767e-12 0.0004729972433921281 4.032049483049679e-12 4.676884572035956e-11 4.032049483049679e-12 0.0006572080206704152" pbc="T T T"
Cs      12.65508914      12.62558187       0.01079589        0      -0.00282251      -0.00570819       0.00282251
Pb       3.16647126       3.16581506       3.16647126        1       0.00014553       0.00013253       0.00033531
I        3.16647126       3.16581506       0.00926339        2      -0.00000100      -0.00000088      -0.03820628
I        3.16647126      12.58171456       3.16647126        3      -0.00000259       0.24417030      -0.00000155
I       12.58908437       3.16581506       3.16647126        4       0.24830921      -0.00000251      -0.00000170
Cs      12.65508914      12.62558187       6.32214663        5      -0.00282070      -0.00570591      -0.00281725
Pb       3.16647126       3.16581506       9.49941377        6       0.00029502       0.00010321      -0.00029502
I        3.16647126       3.16581506       6.32367913        7       0.00000030      -0.00000030       0.03821914
I        3.16647126      12.57017158       9.49941377        8      -0.00000177       0.29637158       0.00000177
I       12.65662164       3.16581506       9.49941377        9       0.03820628      -0.00000088       0.00000100
Cs      12.65508914       6.36930847       0.01079589       10      -0.00282266       0.00569258       0.00282266
Sn       3.16647126       9.49744517       3.16647126       11       0.00019378      -0.00019576       0.00019829
I        3.16647126       9.49744517       0.00058194       12      -0.00000363       0.00000313       0.00590802
I        3.16647126       6.41317578       3.16647126       13      -0.00000184      -0.24425092      -0.00000083
I       12.65909814       9.49744517       3.16647126       14       0.01079391       0.00000271      -0.00000354
Cs      12.65508914       6.36930847       6.32214663       15      -0.00282086       0.00569026      -0.00281744
Sn       3.16647126       9.49744517       9.49941377       16       0.00019856      -0.00018611      -0.00019856
I        3.16647126       9.49744517       6.33236058       17      -0.00000225       0.00000249      -0.00590776
I        3.16647126       6.42471876       9.49941377       18      -0.00000101      -0.29646048       0.00000101
I       12.66530309       9.49744517       9.49941377       19      -0.00590802       0.00000313       0.00000363
Cs       6.34373840      12.62558187       0.01079589       20       0.00281725      -0.00570591       0.00282070
Sn       9.49941377       3.16581506       3.16647126       21      -0.00020002       0.00019044       0.00020002
I        9.49941377       3.16581506       0.07680066       22       0.00000170      -0.00000251      -0.24830921
I        9.49941377      12.64958418       3.16647126       23       0.00000264       0.01169577      -0.00000264
I        6.40974317       3.16581506       3.16647126       24      -0.24838539      -0.00000175      -0.00000017
Cs       6.34373840      12.62558187       6.32214663       25       0.00281543      -0.00570408      -0.00281543
Pb       9.49941377       3.16581506       9.49941377       26      -0.00033531       0.00013253      -0.00014553
I        9.49941377       3.16581506       6.25614186       27       0.00000017      -0.00000175       0.24838539
I        9.49941377      12.58171456       9.49941377       28       0.00000155       0.24417030       0.00000259
I        6.34220590       3.16581506       9.49941377       29      -0.03821914      -0.00000030      -0.00000030
Cs       6.34373840       6.36930847       0.01079589       30       0.00281744       0.00569026       0.00282086
Sn       9.49941377       9.49744517       3.16647126       31      -0.00020138      -0.00020511       0.00020138
I        9.49941377       9.49744517       0.00678688       32       0.00000354       0.00000271      -0.01079391
I        9.49941377       6.34530617       3.16647126       33       0.00000225      -0.01169845      -0.00000225
I        6.33972939       9.49744517       3.16647126       34      -0.01079518       0.00000227      -0.00000210
Cs       6.34373840       6.36930847       6.32214663       35       0.00281526       0.00568737      -0.00281526
Sn       9.49941377       9.49744517       9.49941377       36      -0.00019829      -0.00019576      -0.00019378
I        9.49941377       9.49744517       6.32615563       37       0.00000210       0.00000227       0.01079518
I        9.49941377       6.41317578       9.49941377       38       0.00000083      -0.24425092       0.00000184
I        6.33352445       9.49744517       9.49941377       39       0.00590776       0.00000249       0.00000225
40
Lattice="12.665885023675123 0.0 0.0 0.0 12.663260227724182 0.0 0.0 3.733665044703257e-14 12.665885023675255" Properties=species:S:1:pos:R:3:spacegroup_kinds:I:1:forces:R:3 spacegroup="P 1" unit_cell=conventional candidate_id=6cdb1e29a376bfd6 formula=MAPb0.39Sn0.61I3 config_index=1 rattle_stdev=0.08 method=PBE fidelity=phase2_force energy=-112.19722130434305 stress="-0.0010779385582112772 1.6228826068367357e-05 2.0987852001197476e-05 1.6228826068367357e-05 -0.0001167297434561739 -5.190654990224795e-05 2.0987852001197476e-05 -5.190654990224795e-05 -0.0014866007764274675" pbc="T T T"
Cs      12.56817343      12.55389666      -0.01370806        0      -0.02144221       0.01871288       0.02870143
Pb       3.05927656       3.06928821       3.11513311        1       0.19527858       0.19392570       0.27704550
I        3.27110691       3.31345189       0.07559258        2      -0.04717016      -0.01738770      -0.11976297
I        3.16460735      12.56502945       3.09314168        3       0.01236110       0.30681461       0.00030181
I       12.50310496       3.15892358       3.26053834        4       0.77346536       0.00010056       0.01618234
Cs      12.52428180      12.72383739       6.40825753        5       0.03523016       0.02518150      -0.03979256
Pb       3.19805309       3.13479899       9.54648591        6       0.06460087      -0.05557844      -0.11045699
I        3.05180735       3.13992908       6.42391790        7       0.03193278       0.02445497      -0.19159307
I        3.10801185      12.68445039       9.57498608        8      -0.01407156      -0.13637363       0.00703927
I       12.63550142       3.15275799       9.42228519        9       0.17615767       0.00733441       0.02930306
Cs      12.62767735       6.37322080      -0.02917467       10      -0.01119983      -0.01468731       0.02049039
Sn       2.98951890       9.52223212       3.03929915       11       0.52306284      -0.28574183      -0.12451048
I        3.22482762       9.48881307      -0.05143178       12      -0.05518021       0.02022769       0.07008470
I        3.03102674       6.38369785       3.03924152       13       0.00425941      -0.18346716       0.06123565
I       12.77753861       9.53540039       3.23958036       14      -0.57633551       0.01229880       0.01932269
Cs      12.73192676       6.37607188       6.45952510       15       0.01413622      -0.02915184      -0.02249610
Sn       3.23462267       9.43705435       9.31640342       16       0.25137972       0.14616969       0.18581613
I        3.17521035       9.46143252       6.29932278       17       0.00249526      -0.01456147      -0.01473721
I        3.19198996       6.38143012       9.57530709       18      -0.01981229       0.04154815      -0.04206543
I       12.67741789       9.50359737       9.49466174       19       0.19183347       0.02369390      -0.02002130
Cs       6.33812730      12.58028994       0.03567632       20       0.01704025       0.00735188       0.02409578
Sn       9.55735047       3.20713106       3.24855371       21      -0.45079135      -0.20521987      -0.50721156
I        9.54102598       3.09622797       0.19684587       22       0.04485472       0.01709041      -0.58314910
I        9.59273154      12.68893733       3.10789028       23      -0.01384269      -0.08000875       0.10796659
I        6.46416766       3.20653480       3.09946836       24      -0.51367191      -0.01406567       0.05053745
Cs       6.39554999      12.62658503       6.44691375       25      -0.02667909       0.00080022      -0.02712818
Pb       9.58218140       3.19283047       9.39520493       26      -0.22620333       0.23721128       0.22962807
I        9.40993022       3.27057627       6.21468450       27      -0.01954030      -0.02565732       0.71280721
I        9.46796382      12.66515204       9.50539098       28       0.02839590       0.12141388      -0.02998275
I        6.34936086       3.17012765       9.53288953       29      -0.02944134      -0.00118026      -0.00561838
Cs       6.24551999       6.28214515       0.03616584       30       0.01631187       0.00047883       0.02905203
Sn       9.43698132       9.42895469       3.06088154       31      -0.20518277       0.18948362       0.03612182
I        9.53571630       9.57758716       0.11988566       32       0.00034336      -0.02262809      -0.12628253
I        9.48419914       6.34771501       3.01659792       33       0.03241684       0.09624181       0.02286835
I        6.33038724       9.48724594       3.23864600       34       0.28089956      -0.00712366      -0.01177539
Cs       6.23858862       6.36134442       6.33339061       35       0.00101488      -0.00657232      -0.01614859
Sn       9.70971824       9.63790748       9.28856194       36      -0.38583095      -0.33782515       0.60477177
I        9.39648221       9.48370740       6.47019193       37       0.05900080       0.04939998      -0.60487325
I        9.54810942       6.41569782       9.38210079       38       0.01477011      -0.09005117       0.05372702
I        6.35827971       9.58882260       9.45854623       39      -0.15530321      -0.01636133       0.00984631
