Cs Sn I  Cs Sn I  Cs Sn Cl I  Cs Sn I  Cl I  Cs Sn I  Cl Cs Sn I  Cs Sn I  Cl I  Cs Sn I  Cl
 1.0000000000000000
    13.1499233883699880    0.0000000000000000    0.0000000000000000
     0.0000000000000000   13.1499233883699880    0.0000000000000000
     0.0000000000000000    0.0000000000000000   13.1499233883699880
 Cs  Sn  I   Cs  Sn  I   Cs  Sn  Cl  I   Cs  Sn  I   Cl  I   Cs  Sn  I   Cl  Cs  Sn  I   Cs  Sn  I   Cl  I   Cs  Sn  I   Cl 
   1   1   3   1   1   3   1   1   2   1   1   1   1   1   1   1   1   2   1   1   1   3   1   1   1   1   1   1   1   2   1
Cartesian
  0.0000000000000000  0.0000000000000000  0.0000000000000000
  3.2874808470924970  3.2874808470924970  3.2874808470924970
  3.2874808470924970  3.2874808470924970  0.0000000000000000
  3.2874808470924970  0.0000000000000000  3.2874808470924970
  0.0000000000000000  3.2874808470924970  3.2874808470924970
  0.0000000000000000  0.0000000000000000  6.5749616941849931
  3.2874808470924970  3.2874808470924970  9.8624425412774919
  3.2874808470924970  3.2874808470924970  6.5749616941849931
  3.2874808470924970  0.0000000000000000  9.8624425412774919
  0.0000000000000000  3.2874808470924970  9.8624425412774919
  0.0000000000000000  6.5749616941849931  0.0000000000000000
  3.2874808470924970  9.8624425412774919  3.2874808470924970
  3.2874808470924970  9.8624425412774919  0.0000000000000000
  3.2874808470924970  6.5749616941849931  3.2874808470924970
  0.0000000000000000  9.8624425412774919  3.2874808470924970
  0.0000000000000000  6.5749616941849931  6.5749616941849931
  3.2874808470924970  9.8624425412774919  9.8624425412774919
  3.2874808470924970  9.8624425412774919  6.5749616941849931
  3.2874808470924970  6.5749616941849931  9.8624425412774919
  0.0000000000000000  9.8624425412774919  9.8624425412774919
  6.5749616941849931  0.0000000000000000  0.0000000000000000
  9.8624425412774919  3.2874808470924970  3.2874808470924970
  9.8624425412774919  3.2874808470924970  0.0000000000000000
  9.8624425412774919  0.0000000000000000  3.2874808470924970
  6.5749616941849931  3.2874808470924970  3.2874808470924970
  6.5749616941849931  0.0000000000000000  6.5749616941849931
  9.8624425412774919  3.2874808470924970  9.8624425412774919
  9.8624425412774919  3.2874808470924970  6.5749616941849931
  9.8624425412774919  0.0000000000000000  9.8624425412774919
  6.5749616941849931  3.2874808470924970  9.8624425412774919
  6.5749616941849931  6.5749616941849931  0.0000000000000000
  9.8624425412774919  9.8624425412774919  3.2874808470924970
  9.8624425412774919  9.8624425412774919  0.0000000000000000
  9.8624425412774919  6.5749616941849931  3.2874808470924970
  6.5749616941849931  9.8624425412774919  3.2874808470924970
  6.5749616941849931  6.5749616941849931  6.5749616941849931
  9.8624425412774919  9.8624425412774919  9.8624425412774919
  9.8624425412774919  9.8624425412774919  6.5749616941849931
  9.8624425412774919  6.5749616941849931  9.8624425412774919
  6.5749616941849931  9.8624425412774919  9.8624425412774919
