Cs Pb I  Cs Pb I  Cs Pb I  Cs Ge I  Cs Ge I  Cs Pb I  Cs Ge I  Cs Pb I 
 1.0000000000000000
    12.9611258777931777    0.0000000000000000    0.0000000000000000
     0.0000000000000000   12.9611258777931777    0.0000000000000000
     0.0000000000000000    0.0000000000000000   12.9611258777931777
 Cs  Pb  I   Cs  Pb  I   Cs  Pb  I   Cs  Ge  I   Cs  Ge  I   Cs  Pb  I   Cs  Ge  I   Cs  Pb  I  
   1   1   3   1   1   3   1   1   3   1   1   3   1   1   3   1   1   3   1   1   3   1   1   3
Cartesian
  0.0000000000000000  0.0000000000000000  0.0000000000000000
  3.2402814694482944  3.2402814694482944  3.2402814694482944
  3.2402814694482944  3.2402814694482944  0.0000000000000000
  3.2402814694482944  0.0000000000000000  3.2402814694482944
  0.0000000000000000  3.2402814694482944  3.2402814694482944
  0.0000000000000000  0.0000000000000000  6.4805629388965880
  3.2402814694482944  3.2402814694482944  9.7208444083448811
  3.2402814694482944  3.2402814694482944  6.4805629388965880
  3.2402814694482944  0.0000000000000000  9.7208444083448811
  0.0000000000000000  3.2402814694482944  9.7208444083448811
  0.0000000000000000  6.4805629388965880  0.0000000000000000
  3.2402814694482944  9.7208444083448811  3.2402814694482944
  3.2402814694482944  9.7208444083448811  0.0000000000000000
  3.2402814694482944  6.4805629388965880  3.2402814694482944
  0.0000000000000000  9.7208444083448811  3.2402814694482944
  0.0000000000000000  6.4805629388965880  6.4805629388965880
  3.2402814694482944  9.7208444083448811  9.7208444083448811
  3.2402814694482944  9.7208444083448811  6.4805629388965880
  3.2402814694482944  6.4805629388965880  9.7208444083448811
  0.0000000000000000  9.7208444083448811  9.7208444083448811
  6.4805629388965880  0.0000000000000000  0.0000000000000000
  9.7208444083448811  3.2402814694482944  3.2402814694482944
  9.7208444083448811  3.2402814694482944  0.0000000000000000
  9.7208444083448811  0.0000000000000000  3.2402814694482944
  6.4805629388965880  3.2402814694482944  3.2402814694482944
  6.4805629388965880  0.0000000000000000  6.4805629388965880
  9.7208444083448811  3.2402814694482944  9.7208444083448811
  9.7208444083448811  3.2402814694482944  6.4805629388965880
  9.7208444083448811  0.0000000000000000  9.7208444083448811
  6.4805629388965880  3.2402814694482944  9.7208444083448811
  6.4805629388965880  6.4805629388965880  0.0000000000000000
  9.7208444083448811  9.7208444083448811  3.2402814694482944
  9.7208444083448811  9.7208444083448811  0.0000000000000000
  9.7208444083448811  6.4805629388965880  3.2402814694482944
  6.4805629388965880  9.7208444083448811  3.2402814694482944
  6.4805629388965880  6.4805629388965880  6.4805629388965880
  9.7208444083448811  9.7208444083448811  9.7208444083448811
  9.7208444083448811  9.7208444083448811  6.4805629388965880
  9.7208444083448811  6.4805629388965880  9.7208444083448811
  6.4805629388965880  9.7208444083448811  9.7208444083448811
