Cs Sn I  Cl Cs Sn Cl Cs Sn Cl I  Cs Sn I  Cl I  Cs Sn Cl I  Cl Cs Sn Cl I  Cl Cs Sn I  Cl Cs Sn I  Cl
 1.0000000000000000
    12.5593478047229823    0.0000000000000000    0.0000000000000000
     0.0000000000000000   12.5593478047229823    0.0000000000000000
     0.0000000000000000    0.0000000000000000   12.5593478047229823
 Cs  Sn  I   Cl  Cs  Sn  Cl  Cs  Sn  Cl  I   Cs  Sn  I   Cl  I   Cs  Sn  Cl  I   Cl  Cs  Sn  Cl  I   Cl  Cs  Sn  I   Cl  Cs  Sn  I   Cl 
   1   1   2   1   1   1   3   1   1   2   1   1   1   1   1   1   1   1   1   1   1   1   1   1   1   1   1   1   1   2   1   1   1   2
Cartesian
  0.0000000000000000  0.0000000000000000  0.0000000000000000
  3.1398369511807456  3.1398369511807456  3.1398369511807456
  3.1398369511807456  3.1398369511807456  0.0000000000000000
  3.1398369511807456  0.0000000000000000  3.1398369511807456
  0.0000000000000000  3.1398369511807456  3.1398369511807456
  0.0000000000000000  0.0000000000000000  6.2796739023614903
  3.1398369511807456  3.1398369511807456  9.4195108535422367
  3.1398369511807456  3.1398369511807456  6.2796739023614903
  3.1398369511807456  0.0000000000000000  9.4195108535422367
  0.0000000000000000  3.1398369511807456  9.4195108535422367
  0.0000000000000000  6.2796739023614903  0.0000000000000000
  3.1398369511807456  9.4195108535422367  3.1398369511807456
  3.1398369511807456  9.4195108535422367  0.0000000000000000
  3.1398369511807456  6.2796739023614903  3.1398369511807456
  0.0000000000000000  9.4195108535422367  3.1398369511807456
  0.0000000000000000  6.2796739023614903  6.2796739023614903
  3.1398369511807456  9.4195108535422367  9.4195108535422367
  3.1398369511807456  9.4195108535422367  6.2796739023614903
  3.1398369511807456  6.2796739023614903  9.4195108535422367
  0.0000000000000000  9.4195108535422367  9.4195108535422367
  6.2796739023614903  0.0000000000000000  0.0000000000000000
  9.4195108535422367  3.1398369511807456  3.1398369511807456
  9.4195108535422367  3.1398369511807456  0.0000000000000000
  9.4195108535422367  0.0000000000000000  3.1398369511807456
  6.2796739023614903  3.1398369511807456  3.1398369511807456
  6.2796739023614903  0.0000000000000000  6.2796739023614903
  9.4195108535422367  3.1398369511807456  9.4195108535422367
  9.4195108535422367  3.1398369511807456  6.2796739023614903
  9.4195108535422367  0.0000000000000000  9.4195108535422367
  6.2796739023614903  3.1398369511807456  9.4195108535422367
  6.2796739023614903  6.2796739023614903  0.0000000000000000
  9.4195108535422367  9.4195108535422367  3.1398369511807456
  9.4195108535422367  9.4195108535422367  0.0000000000000000
  9.4195108535422367  6.2796739023614903  3.1398369511807456
  6.2796739023614903  9.4195108535422367  3.1398369511807456
  6.2796739023614903  6.2796739023614903  6.2796739023614903
  9.4195108535422367  9.4195108535422367  9.4195108535422367
  9.4195108535422367  9.4195108535422367  6.2796739023614903
  9.4195108535422367  6.2796739023614903  9.4195108535422367
  6.2796739023614903  9.4195108535422367  9.4195108535422367
