40
Lattice="12.563805132387678 0.0 0.0 0.0 12.563805132387579 0.0 0.0 -1.2755804557387498e-13 12.563805132387554" Properties=species:S:1:pos:R:3:spacegroup_kinds:I:1:forces:R:3 spacegroup="P 1" unit_cell=conventional candidate_id=c4885c90ae5ca2a6 formula=MA0.92Rb0.077SnI3 config_index=0 rattle_stdev=0.0 method=PBE fidelity=phase2_force energy=-112.19936442202084 stress="0.0006561800872803371 0.0 0.0 0.0 0.0006561800872803479 6.662077976856329e-18 0.0 6.662077976856329e-18 0.0006561389874443731" pbc="T T T"
Cs       0.00000000       0.00000000       0.00000000        0      -0.00000000      -0.00000000       0.00000000
Sn       3.14611245       3.14611245       3.13579012        1      -0.00915433      -0.00915433       0.00956459
I        3.16714514       3.16714514       0.00000000        2      -0.00185377      -0.00185377       0.00000000
I        3.15243417      -0.00000000       3.12946839        3      -0.00734594      -0.00000000       0.00733978
I        0.00000000       3.15243417       3.12946839        4      -0.00000000      -0.00734594       0.00733978
Cs       0.00000000      -0.00000000       6.28190257        5       0.00000000       0.00000000       0.00000000
Sn       3.14611245       3.14611245       9.42801501        6      -0.00915433      -0.00915433      -0.00956459
I        3.15243417       3.15243417       6.28190257        7      -0.00734140      -0.00734140       0.00000000
I        3.15243417      -0.00000000       9.43433674        8      -0.00734594       0.00000000      -0.00733978
I        0.00000000       3.15243417       9.43433674        9       0.00000000      -0.00734594      -0.00733978
Cs       0.00000000       6.28190257       0.00000000       10       0.00000000       0.00000000       0.00000000
Sn       3.14611245       9.41769268       3.13579012       11      -0.00915433       0.00915433       0.00956459
I        3.16714514       9.39666000       0.00000000       12      -0.00185377       0.00185377       0.00000000
I        3.16714514       6.28190257       3.11475743       13      -0.00184880      -0.00000000       0.00185068
I        0.00000000       9.41137096       3.12946839       14       0.00000000       0.00734594       0.00733978
Cs       0.00000000       6.28190257       6.28190257       15       0.00000000       0.00000000       0.00000000
Sn       3.14611245       9.41769268       9.42801501       16      -0.00915433       0.00915433      -0.00956459
I        3.15243417       9.41137096       6.28190257       17      -0.00734140       0.00734140       0.00000000
I        3.16714514       6.28190257       9.44904770       18      -0.00184880       0.00000000      -0.00185068
I        0.00000000       9.41137096       9.43433674       19       0.00000000       0.00734594      -0.00733978
Cs       6.28190257       0.00000000       0.00000000       20       0.00000000      -0.00000000       0.00000000
Sn       9.41769268       3.14611245       3.13579012       21       0.00915433      -0.00915433       0.00956459
I        9.39666000       3.16714514       0.00000000       22       0.00185377      -0.00185377       0.00000000
I        9.41137096      -0.00000000       3.12946839       23       0.00734594      -0.00000000       0.00733978
I        6.28190257       3.16714514       3.11475743       24      -0.00000000      -0.00184880       0.00185068
Cs       6.28190257      -0.00000000       6.28190257       25      -0.00000000       0.00000000       0.00000000
Sn       9.41769268       3.14611245       9.42801501       26       0.00915433      -0.00915433      -0.00956459
I        9.41137096       3.15243417       6.28190257       27       0.00734140      -0.00734140       0.00000000
I        9.41137096      -0.00000000       9.43433674       28       0.00734594       0.00000000      -0.00733978
I        6.28190257       3.16714514       9.44904770       29      -0.00000000      -0.00184880      -0.00185068
Rb       6.28190257       6.28190257      12.56380513       30       0.00000000       0.00000000       0.00000000
Sn       9.41769268       9.41769268       3.13579012       31       0.00915433       0.00915433       0.00956459
I        9.39666000       9.39666000       0.00000000       32       0.00185377       0.00185377       0.00000000
I        9.39666000       6.28190257       3.11475743       33       0.00184880      -0.00000000       0.00185068
I        6.28190257       9.39666000       3.11475743       34      -0.00000000       0.00184880       0.00185068
Cs       6.28190257       6.28190257       6.28190257       35       0.00000000       0.00000000       0.00000000
Sn       9.41769268       9.41769268       9.42801501       36       0.00915433       0.00915433      -0.00956459
I        9.41137096       9.41137096       6.28190257       37       0.00734140       0.00734140       0.00000000
I        9.39666000       6.28190257       9.44904770       38       0.00184880       0.00000000      -0.00185068
I        6.28190257       9.39666000       9.44904770       39       0.00000000       0.00184880      -0.00185068
40
Lattice="12.563805132387678 0.0 0.0 0.0 12.563805132387579 0.0 0.0 -1.2755804557387498e-13 12.563805132387554" Properties=species:S:1:pos:R:3:spacegroup_kinds:I:1:forces:R:3 spacegroup="P 1" unit_cell=conventional candidate_id=c4885c90ae5ca2a6 formula=MA0.92Rb0.077SnI3 config_index=1 rattle_stdev=0.08 method=PBE fidelity=phase2_force energy=-111.7567223250042 stress="-0.0010058473482477024 3.537038170906908e-05 3.753734859210714e-05 3.537038170906908e-05 -0.00034644819543112426 -7.990007756933387e-05 3.753734859210714e-05 -7.990007756933387e-05 -0.0014831509659391962" pbc="T T T"
Cs      -0.08691571      -0.07168521      -0.02450395        0      -0.02277039       0.03148232       0.02532032
Sn       3.03891776       3.04958560       3.08445197        1       0.24483162       0.25052967       0.16325702
I        3.27178079       3.31478197       0.06632920        2      -0.07220790      -0.06312815      -0.01523041
I        3.15057027      -0.01668512       3.05613881        3      -0.00047278       0.02605682      -0.00357481
I       -0.08597941       3.14554269       3.22353548        4       0.43704090      -0.00378154       0.00519172
Cs      -0.13080734       0.09825552       6.36801347        5       0.03913441       0.03408889      -0.03737205
Sn       3.17769428       3.11509638       9.47508715        6       0.08584660      -0.02146534      -0.17066045
I        3.03777027       3.12654820       6.38214134        7       0.04953121       0.01510756      -0.12682901
I        3.09397477       0.11427881       9.50990905        8      -0.00834111      -0.39077988       0.00360826
I       -0.02112022       3.13937711       9.35720816        9       0.04706453       0.00995961       0.03286651
Cs      -0.02741179       6.28581489      -0.03997056       10      -0.00816602      -0.02844383       0.01451360
Sn       2.96916009       9.44247963       3.00861802       11       0.62276004      -0.24373975      -0.11113514
I        3.22550150       9.38802790      -0.05201372       12      -0.05550467       0.02675043       0.04731859
I        3.03170062       6.25242464       2.98752769       13       0.00323210       0.04746209       0.08145462
I        0.11844047       9.44932618       3.20257750       14      -0.67931192       0.01270851       0.02575859
Cs       0.07683762       6.28866597       6.41928104       15       0.02018669      -0.04004836      -0.02041738
Sn       3.21426387       9.35730186       9.24500467       16       0.24429167       0.04661962       0.23034112
I        3.16117327       9.37535831       6.24886477       17       0.00135080      -0.00946963      -0.04268980
I        3.19266384       6.23861393       9.52494102       18      -0.02083072       0.37575904      -0.06267652
I        0.01211480       9.41752315       9.42958471       19       0.22673063       0.02150726      -0.01834266
Cs       6.27629147      -0.04529192       0.02488043       20       0.01895651       0.01965281       0.02192989
Sn       9.47562939       3.18742845       3.21787257       21      -0.37436047      -0.23317161      -0.45703774
I        9.43827220       3.09755805       0.12004521       22       0.05223628       0.02055441      -0.34620461
I        9.50468873       0.03935316       3.07088742       23      -0.01194890      -0.09264410       0.10793477
I        6.33632705       3.20786488       3.04775453       24      -0.28503058      -0.01565347       0.06804199
Cs       6.33371415       0.00100316       6.40666969       25      -0.03157522       0.01279161      -0.02732214
Sn       9.50046031       3.17312786       9.32380618       26      -0.12623101       0.24393973       0.27344107
I        9.32188742       3.25719538       6.24044521       27      -0.00497622      -0.03853830       0.39569136
I        9.37992102       0.08343748       9.44031396       28       0.04264987      -0.17353307      -0.04997756
I        6.28905753       3.17145773       9.48252346       29      -0.04716632      -0.00732551      -0.01539695
Rb       6.18368416       6.19473924      12.58917508       30      -0.00929853      -0.02892165       0.03283748
Sn       9.35526024       9.34920220       3.03020041       31      -0.19849227       0.20058140       0.08788871
I        9.43296253       9.47680198       0.11309877       32       0.00970495      -0.00797377      -0.19743520
I        9.38144536       6.28431141       2.96488409       33       0.03225548       0.10932170       0.02401648
I        6.27256041       9.38646077       3.18693217       34       0.27661748       0.00147830       0.00181495
Cs       6.17675279       6.27393851       6.29314655       35      -0.00738833      -0.01878541      -0.01505239
Sn       9.62799716       9.55815499       9.21716319       36      -0.43315120      -0.23558957       0.72779593
I        9.30843940       9.39763318       6.42593886       37       0.05142029       0.03784841      -0.71565977
I        9.44535565       6.28442461       9.33173473       38       0.02357802       0.11333683       0.05398862
I        6.30665783       9.48803742       9.40818017       39      -0.13480941      -0.00565069       0.01098913
40
Lattice="12.563805132387678 0.0 0.0 0.0 12.563805132387579 0.0 0.0 -1.2755804557387498e-13 12.563805132387554" Properties=species:S:1:pos:R:3:spacegroup_kinds:I:1:forces:R:3 spacegroup="P 1" unit_cell=conventional candidate_id=c4885c90ae5ca2a6 formula=MA0.92Rb0.077SnI3 config_index=2 rattle_stdev=0.08 method=PBE fidelity=phase2_force energy=-111.7682308101186 stress="-0.0005030370867764094 3.605667969580274e-05 1.8782628863448397e-05 3.605667969580274e-05 -0.0006402953928580028 6.211792795374931e-06 1.8782628863448397e-05 6.211792795374931e-06 -0.0002563424690767324" pbc="T T T"
Cs      -0.00901704      -0.08612512       0.14280215        0       0.02236466      -0.00585121      -0.05970617
Sn       3.02955378       3.12000679       3.03499840        1       0.56357093       0.23039084       0.09645645
I        3.19721446       3.09689335      -0.02799806        2      -0.05428225       0.04750690       0.00957661
I        3.17616699       0.09607295       3.00394877        3      -0.02283740      -0.51486766       0.04666354
I        0.14832230       3.19195112       3.11901148        4      -0.76190234       0.00855444      -0.02970197
Cs      -0.03224966      -0.07789298       6.24450522        5      -0.01146743      -0.01120259       0.05014180
Sn       3.08867873       3.24382391       9.36583901        6       0.32854619      -0.01837422      -0.06113764
I        3.10535212       3.14782466       6.28826896        7       0.01714857      -0.08156257      -0.02923026
I        3.05777809      -0.12389940       9.50731723        8       0.00771628       0.33859911      -0.01017317
I        0.03301366       3.09677265       9.25123499        9      -0.12981646       0.02635363       0.05406912
Cs      -0.06297932       6.19962123       0.00746465       10       0.02283463       0.01985982      -0.01994849
Sn       3.10377692       9.48011227       3.11972494       11       0.20784951      -0.18072304       0.04737028
I        3.12869645       9.31383903      -0.04021875       12       0.01545455      -0.03647644       0.34438187
I        3.23033635       6.20790276       3.29156026       13      -0.04132466       0.42995510      -0.07112718
I       -0.11201889       9.39224317       3.14685565       14       0.47611270      -0.00625579       0.02104459
Cs      -0.02819082       6.28877261       6.29043472       15      -0.00353331       0.01119205       0.01206303
Sn       3.13034995       9.52544739       9.45562893       16      -0.10317411      -0.26510179      -0.11259301
I        3.19704573       9.36374815       6.34052914       17      -0.02837733       0.07272432      -0.28708776
I        3.27364535       6.22349993       9.41018724       18      -0.04036925      -0.05546395       0.03210878
I        0.08615314       9.20374237       9.44769099       19      -0.05336179       0.02531393      -0.01285778
Cs       6.36501934      -0.14468591       0.06069128       20      -0.02808508       0.04123362      -0.02880290
Sn       9.37768366       2.95856900       3.12715670       21      -0.24561714       0.32224814       0.15460274
I        9.27643698       3.20624743      -0.04425428       22       0.08208634       0.02578031       0.12304390
I        9.49597156      -0.06954543       3.12346111       23       0.00331399       0.13808579      -0.00407796
I        6.27333017       3.33505090       3.08751439       24       0.35105412      -0.15549471      -0.00944438
Cs       6.23967016      -0.10356935       6.29903049       25       0.01810216       0.01134750       0.01955298
Sn       9.50779425       3.17823532       9.48926184       26      -0.33439455      -0.06659130      -0.20579283
I        9.30312076       3.19834285       6.26429160       27       0.05536963      -0.08723989      -0.09670802
I        9.46298608      -0.08037754       9.58631582       28       0.02533174       0.38883147      -0.00716153
I        6.29925143       3.20714277       9.39892042       29       0.05773046      -0.06701943       0.00224900
Rb       6.20167183       6.21939775      12.58014735       30      -0.02078625      -0.05247640       0.00956252
Sn       9.46058004       9.33169289       2.95836174       31      -0.33269554      -0.22226649       0.45028433
I        9.44841441       9.37087313      -0.01380513       32       0.01259538      -0.03221851       0.06998648
I        9.21358625       6.27293906       3.19118253       33       0.10695137      -0.00231234      -0.06229507
I        6.31828162       9.56161419       3.11975427       34      -0.34252426       0.02514590      -0.03163674
Cs       6.28212996       6.24561826       6.31178117       35       0.00656870      -0.01551969      -0.01049895
Sn       9.35264340       9.40956808       9.46367207       36       0.17209749       0.08979899      -0.44696751
I        9.30936067       9.41999750       6.35008152       37       0.06570147       0.06925696      -0.08387498
I        9.38411183       6.37700811       9.33126663       38       0.06031620      -0.49657563       0.05687638
I        6.35118583       9.32518883       9.40513005       39      -0.12661250       0.05112915       0.07829282
40
Lattice="12.563805132387678 0.0 0.0 0.0 12.563805132387579 0.0 0.0 -1.2755804557387498e-13 12.563805132387554" Properties=species:S:1:pos:R:3:spacegroup_kinds:I:1:forces:R:3 spacegroup="P 1" unit_cell=conventional candidate_id=c4885c90ae5ca2a6 formula=MA0.92Rb0.077SnI3 config_index=3 rattle_stdev=0.08 method=PBE fidelity=phase2_force energy=-111.56412693683227 stress="-0.0006370262121007857 7.196884802148943e-05 5.55831000784307e-05 7.196884802148943e-05 -0.0007167537638080637 5.606482513110268e-05 5.55831000784307e-05 5.606482513110268e-05 -0.00014654876238762014" pbc="T T T"
Cs      -0.10568348       0.16134023       0.00380516        0       0.03435788       0.03481512       0.02306188
Sn       3.12709875       3.15284226       3.21255350        1      -0.25993440      -0.29533705      -0.55997563
I        3.11261726       3.20947077      -0.06199346        2       0.02819950      -0.01820416      -0.09361642
I        3.26483067      -0.01797444       3.02499754        3       0.01154013      -0.14064048       0.00982396
I       -0.05428282       3.02275951       3.02707051        4       0.14071013       0.05731774       0.04673819
Cs      -0.01794374      -0.06804488       6.22144336        5      -0.02366996       0.01084519      -0.01759014
Sn       3.16716611       2.94169700       9.29439234        6       0.04704186       0.38907978       0.45259574
I        3.09549536       2.95669212       6.17976778        7      -0.02677076      -0.00754389       0.29851016
I        3.20552398      -0.10230672       9.37110396        8      -0.02898786       0.44516898       0.01902546
I       -0.12018966       3.05727098       9.61567195        9       0.31888443       0.03000952      -0.05217414
Cs      -0.03814223       6.35363569      -0.14439506       10       0.02636546      -0.07018062      -0.00357622
Sn       3.10681528       9.32173296       3.07137249       11       0.02003692       0.28216442      -0.01198697
I        3.27961063       9.37823474      -0.05709572       12      -0.04582780      -0.04454861       0.46985600
I        3.15413813       6.22759217       3.23588685       13      -0.02216240       0.19807795       0.01029405
I       -0.13980583       9.46405333       3.10193909       14       0.98132569      -0.06280425       0.01322862
Cs      -0.06069585       6.29566467       6.22931929       15      -0.02367307      -0.00378463       0.01095052
Sn       3.19032809       9.44830134       9.39831179       16      -0.11994175      -0.55069320      -0.00281194
I        3.27868569       9.42871476       6.37882990       17      -0.01430603       0.01518573      -0.45255297
I        3.22566358       6.33582225       9.40262321       18      -0.02547524      -0.23280257      -0.04255907
I       -0.00794717       9.28458177       9.42835942       19      -0.12953823       0.02846223       0.00633145
Cs       6.37780727      -0.02123382      -0.05214397       20      -0.03571382       0.01856297       0.01137240
Sn       9.26596976       3.02288853       3.10436426       21       0.34068181       0.26589730       0.00038284
I        9.36350153       3.22403056       0.05140203       22      -0.05804748      -0.04118357      -0.11753803
I        9.60315786      -0.01358259       3.04839770       23      -0.10682792      -0.23301283       0.01879097
I        6.24641807       3.23482331       3.15430615       24      -0.11317288      -0.04680569       0.02127704
Cs       6.30419363       0.04176727       6.30731190       25       0.01185008      -0.03209445      -0.00257099
Sn       9.43586359       3.11488521       9.37057361       26      -0.05700203      -0.07531930       0.00106472
I        9.53489985       3.08339856       6.25319636       27      -0.01501433      -0.00252510       0.13456981
I        9.41807511       0.13433776       9.33998976       28      -0.02603838      -0.77646021       0.06743546
I        6.25000440       3.13327399       9.49379465       29      -0.22481085      -0.04897212      -0.06955609
Rb       6.23572299       6.28760236      12.63318154       30      -0.01497681      -0.02344709      -0.02599184
Sn       9.45088540       9.39959390       3.19623757       31      -0.13410077      -0.17984364       0.18186816
I        9.41467039       9.36147975       0.05232634       32       0.03033114      -0.00306088       0.02044867
I        9.32497013       6.16794667       3.25415616       33       0.08150916       0.21841821      -0.00124979
I        6.51544862       9.34276198       3.05307549       34      -0.89424453       0.02729804       0.00784322
Cs       6.36634195       6.37355961       6.29155241       35       0.00695812       0.01517013       0.02078278
Sn       9.41869216       9.36173097       9.57811894       36       0.07400950      -0.00403025      -0.26935801
I        9.37531829       9.38687222       6.39492192       37       0.01086350       0.01511192      -0.11047615
I        9.34437271       6.10057724       9.49747586       38      -0.00400480       0.82519535      -0.00694325
I        6.23995713       9.41325918       9.53675987       39       0.23692912       0.01447300      -0.00450342
