Cs Sn I  Cs Pb I  Cs Sn I  Cs Sn I  Cs Sn I  Cs Sn I  Cs Sn I  Cs Sn I 
 1.0000000000000000
    13.5270941454548890    0.0000000000000000    0.0000000000000000
     0.0000000000000000   13.5270941454548890    0.0000000000000000
     0.0000000000000000    0.0000000000000000   13.5270941454548890
 Cs  Sn  I   Cs  Pb  I   Cs  Sn  I   Cs  Sn  I   Cs  Sn  I   Cs  Sn  I   Cs  Sn  I   Cs  Sn  I  
   1   1   3   1   1   3   1   1   3   1   1   3   1   1   3   1   1   3   1   1   3   1   1   3
Cartesian
  0.0000000000000000  0.0000000000000000  0.0000000000000000
  3.3817735363637214  3.3817735363637214  3.3817735363637214
  3.3817735363637214  3.3817735363637214  0.0000000000000000
  3.3817735363637214  0.0000000000000000  3.3817735363637214
  0.0000000000000000  3.3817735363637214  3.3817735363637214
  0.0000000000000000  0.0000000000000000  6.7635470727274436
  3.3817735363637214  3.3817735363637214 10.1453206090911667
  3.3817735363637214  3.3817735363637214  6.7635470727274436
  3.3817735363637214  0.0000000000000000 10.1453206090911667
  0.0000000000000000  3.3817735363637214 10.1453206090911667
  0.0000000000000000  6.7635470727274436  0.0000000000000000
  3.3817735363637214 10.1453206090911667  3.3817735363637214
  3.3817735363637214 10.1453206090911667  0.0000000000000000
  3.3817735363637214  6.7635470727274436  3.3817735363637214
  0.0000000000000000 10.1453206090911667  3.3817735363637214
  0.0000000000000000  6.7635470727274436  6.7635470727274436
  3.3817735363637214 10.1453206090911667 10.1453206090911667
  3.3817735363637214 10.1453206090911667  6.7635470727274436
  3.3817735363637214  6.7635470727274436 10.1453206090911667
  0.0000000000000000 10.1453206090911667 10.1453206090911667
  6.7635470727274436  0.0000000000000000  0.0000000000000000
 10.1453206090911667  3.3817735363637214  3.3817735363637214
 10.1453206090911667  3.3817735363637214  0.0000000000000000
 10.1453206090911667  0.0000000000000000  3.3817735363637214
  6.7635470727274436  3.3817735363637214  3.3817735363637214
  6.7635470727274436  0.0000000000000000  6.7635470727274436
 10.1453206090911667  3.3817735363637214 10.1453206090911667
 10.1453206090911667  3.3817735363637214  6.7635470727274436
 10.1453206090911667  0.0000000000000000 10.1453206090911667
  6.7635470727274436  3.3817735363637214 10.1453206090911667
  6.7635470727274436  6.7635470727274436  0.0000000000000000
 10.1453206090911667 10.1453206090911667  3.3817735363637214
 10.1453206090911667 10.1453206090911667  0.0000000000000000
 10.1453206090911667  6.7635470727274436  3.3817735363637214
  6.7635470727274436 10.1453206090911667  3.3817735363637214
  6.7635470727274436  6.7635470727274436  6.7635470727274436
 10.1453206090911667 10.1453206090911667 10.1453206090911667
 10.1453206090911667 10.1453206090911667  6.7635470727274436
 10.1453206090911667  6.7635470727274436 10.1453206090911667
  6.7635470727274436 10.1453206090911667 10.1453206090911667
