Cs Pb I  Cs Pb Br I  Cs Pb Br I  Cs Pb I  Br I  Cs Pb I  Br Cs Pb Br I  Br Cs Pb I  Br Cs Pb I  Br
 1.0000000000000000
    13.0800612383887565    0.0000000000000000    0.0000000000000000
     0.0000000000000000   13.0800612383887565    0.0000000000000000
     0.0000000000000000    0.0000000000000000   13.0800612383887565
 Cs  Pb  I   Cs  Pb  Br  I   Cs  Pb  Br  I   Cs  Pb  I   Br  I   Cs  Pb  I   Br  Cs  Pb  Br  I   Br  Cs  Pb  I   Br  Cs  Pb  I   Br 
   1   1   3   1   1   2   1   1   1   2   1   1   1   1   1   1   1   1   2   1   1   1   1   1   1   1   1   1   2   1   1   1   2
Cartesian
  0.0000000000000000  0.0000000000000000  0.0000000000000000
  3.2700153095971891  3.2700153095971891  3.2700153095971891
  3.2700153095971891  3.2700153095971891  0.0000000000000000
  3.2700153095971891  0.0000000000000000  3.2700153095971891
  0.0000000000000000  3.2700153095971891  3.2700153095971891
  0.0000000000000000  0.0000000000000000  6.5400306191943773
  3.2700153095971891  3.2700153095971891  9.8100459287915669
  3.2700153095971891  3.2700153095971891  6.5400306191943773
  3.2700153095971891  0.0000000000000000  9.8100459287915669
  0.0000000000000000  3.2700153095971891  9.8100459287915669
  0.0000000000000000  6.5400306191943773  0.0000000000000000
  3.2700153095971891  9.8100459287915669  3.2700153095971891
  3.2700153095971891  9.8100459287915669  0.0000000000000000
  3.2700153095971891  6.5400306191943773  3.2700153095971891
  0.0000000000000000  9.8100459287915669  3.2700153095971891
  0.0000000000000000  6.5400306191943773  6.5400306191943773
  3.2700153095971891  9.8100459287915669  9.8100459287915669
  3.2700153095971891  9.8100459287915669  6.5400306191943773
  3.2700153095971891  6.5400306191943773  9.8100459287915669
  0.0000000000000000  9.8100459287915669  9.8100459287915669
  6.5400306191943773  0.0000000000000000  0.0000000000000000
  9.8100459287915669  3.2700153095971891  3.2700153095971891
  9.8100459287915669  3.2700153095971891  0.0000000000000000
  9.8100459287915669  0.0000000000000000  3.2700153095971891
  6.5400306191943773  3.2700153095971891  3.2700153095971891
  6.5400306191943773  0.0000000000000000  6.5400306191943773
  9.8100459287915669  3.2700153095971891  9.8100459287915669
  9.8100459287915669  3.2700153095971891  6.5400306191943773
  9.8100459287915669  0.0000000000000000  9.8100459287915669
  6.5400306191943773  3.2700153095971891  9.8100459287915669
  6.5400306191943773  6.5400306191943773  0.0000000000000000
  9.8100459287915669  9.8100459287915669  3.2700153095971891
  9.8100459287915669  9.8100459287915669  0.0000000000000000
  9.8100459287915669  6.5400306191943773  3.2700153095971891
  6.5400306191943773  9.8100459287915669  3.2700153095971891
  6.5400306191943773  6.5400306191943773  6.5400306191943773
  9.8100459287915669  9.8100459287915669  9.8100459287915669
  9.8100459287915669  9.8100459287915669  6.5400306191943773
  9.8100459287915669  6.5400306191943773  9.8100459287915669
  6.5400306191943773  9.8100459287915669  9.8100459287915669
