40
Lattice="11.297081999650837 0.0 0.0 0.0 11.29182446748025 0.0 0.0 3.830075537599823e-14 11.291824467480176" Properties=species:S:1:pos:R:3:spacegroup_kinds:I:1:forces:R:3 spacegroup="P 1" unit_cell=conventional candidate_id=a35814366ffe59f1 formula=MAPb0.25Sn0.75Cl3 config_index=0 rattle_stdev=0.0 method=PBE fidelity=phase2_force energy=-139.96524409389863 stress="0.0012485696217976881 0.0 1.0609844177458263e-31 0.0 0.0011781585144215378 -4.606409834486346e-15 1.0609844177458263e-31 -4.606409834486346e-15 0.0011781585144215534" pbc="T T T"
Cs       0.00000000      11.24468337       0.04714109        0       0.00000000       0.02762883      -0.02762883
Sn       2.82427050       2.82295612       2.82295612        1      -0.00000000      -0.00000000       0.00000000
Cl       2.82427050       2.82295612       0.06319962        2      -0.00000000      -0.00000000      -0.19756562
Cl       2.82427050       0.01732140       2.82295612        3      -0.00000000      -0.17930077       0.00000000
Cl       0.00000000       2.82295612       2.82295612        4       0.00000000      -0.00000000      -0.00000000
Cs      11.29708200      11.24468337       5.59877114        5       0.00000000       0.02762883       0.02762883
Pb       2.82427050       2.82295612       8.46886835        6       0.00000000       0.00000000      -0.00000000
Cl       2.82427050       2.82295612       5.58271261        7      -0.00000000       0.00000000       0.19756562
Cl       2.82427050      11.22862485       8.46886835        8      -0.00000000       0.19756562       0.00000000
Cl       0.00000000       2.82295612       8.46886835        9       0.00000000      -0.00000000       0.00000000
Cs      11.29708200       5.69305333       0.04714109       10      -0.00000000      -0.02762883      -0.02762883
Sn       2.82427050       8.46886835       2.82295612       11      -0.00000000       0.00000000      -0.00000000
Cl       2.82427050       8.46886835      11.27450306       12      -0.00000000      -0.00000000       0.17930077
Cl       2.82427050       5.62859083       2.82295612       13      -0.00000000       0.17930077      -0.00000000
Cl       0.00000000       8.46886835       2.82295612       14       0.00000000      -0.00000000       0.00000000
Cs       0.00000000       5.69305333       5.59877114       15       0.00000000      -0.02762883       0.02762883
Sn       2.82427050       8.46886835       8.46886835       16      -0.00000000      -0.00000000       0.00000000
Cl       2.82427050       8.46886835       5.66323364       17      -0.00000000       0.00000000      -0.17930077
Cl       2.82427050       5.70911185       8.46886835       18      -0.00000000      -0.19756562      -0.00000000
Cl       0.00000000       8.46886835       8.46886835       19       0.00000000       0.00000000       0.00000000
Cs       5.64854100      11.24468337       0.04714109       20       0.00000000       0.02762883      -0.02762883
Sn       8.47281150       2.82295612       2.82295612       21       0.00000000      -0.00000000       0.00000000
Cl       8.47281150       2.82295612       0.06319962       22       0.00000000      -0.00000000      -0.19756562
Cl       8.47281150       0.01732140       2.82295612       23       0.00000000      -0.17930077       0.00000000
Cl       5.64854100       2.82295612       2.82295612       24       0.00000000      -0.00000000      -0.00000000
Cs       5.64854100      11.24468337       5.59877114       25       0.00000000       0.02762883       0.02762883
Pb       8.47281150       2.82295612       8.46886835       26      -0.00000000       0.00000000      -0.00000000
Cl       8.47281150       2.82295612       5.58271261       27       0.00000000       0.00000000       0.19756562
Cl       8.47281150      11.22862485       8.46886835       28       0.00000000       0.19756562       0.00000000
Cl       5.64854100       2.82295612       8.46886835       29       0.00000000      -0.00000000       0.00000000
Cs       5.64854100       5.69305333       0.04714109       30       0.00000000      -0.02762883      -0.02762883
Sn       8.47281150       8.46886835       2.82295612       31       0.00000000       0.00000000      -0.00000000
Cl       8.47281150       8.46886835      11.27450306       32       0.00000000      -0.00000000       0.17930077
Cl       8.47281150       5.62859083       2.82295612       33       0.00000000       0.17930077      -0.00000000
Cl       5.64854100       8.46886835       2.82295612       34       0.00000000       0.00000000      -0.00000000
Cs       5.64854100       5.69305333       5.59877114       35       0.00000000      -0.02762883       0.02762883
Sn       8.47281150       8.46886835       8.46886835       36       0.00000000      -0.00000000       0.00000000
Cl       8.47281150       8.46886835       5.66323364       37       0.00000000       0.00000000      -0.17930077
Cl       8.47281150       5.70911185       8.46886835       38       0.00000000      -0.19756562      -0.00000000
Cl       5.64854100       8.46886835       8.46886835       39       0.00000000       0.00000000       0.00000000
40
Lattice="11.297081999650837 0.0 0.0 0.0 11.29182446748025 0.0 0.0 3.830075537599823e-14 11.291824467480176" Properties=species:S:1:pos:R:3:spacegroup_kinds:I:1:forces:R:3 spacegroup="P 1" unit_cell=conventional candidate_id=a35814366ffe59f1 formula=MAPb0.25Sn0.75Cl3 config_index=1 rattle_stdev=0.08 method=PBE fidelity=phase2_force energy=-139.33245990436276 stress="-0.0012769220937646547 8.75784652701552e-05 -2.5388010625178612e-05 8.75784652701552e-05 -8.434741298812856e-05 -0.00012444044254774703 -2.5388010625178612e-05 -0.00012444044254774703 -0.002020535174873353" pbc="T T T"
Cs      -0.08691571      11.17299816       0.02263714        0      -0.03055548       0.08115315       0.00439101
Sn       2.71707581       2.72642927       2.77161797        1       0.36290563       0.39955052       0.29535131
Cl       2.92890615       2.97059295       0.12952882        2      -0.11597944      -0.09406143      -0.18207001
Cl       2.82240659       0.00063629       2.74962654        3      -0.07815151      -0.14725927      -0.04481621
Cl      -0.08597941       2.81606464       2.91702320        4       0.49671955      -0.02112956      -0.01159052
Cs      11.16627466      11.34293889       5.68488204        5       0.09686047       0.07300226      -0.06474378
Pb       2.85585233       2.79194005       8.51594049        6       0.06945817       0.01802418      -0.16323773
Cl       2.70960659       2.79707014       5.68295139        7       0.03886143       0.01259491       0.01590124
Cl       2.76581109      11.34290365       8.54444066        8      -0.01473871      -0.35119403      -0.03065161
Cl      -0.02112022       2.80989905       8.39173977        9       0.18115398      -0.00304297      -0.00034048
Cs      11.26967021       5.69696565       0.00717053       10      -0.01611177      -0.06244452      -0.00452794
Sn       2.64731814       8.49365530       2.69578401       11       0.83284933      -0.29196035      -0.11011791
Cl       2.88262687       8.46023625      11.22248934       12      -0.12671155       0.02376252       0.18216313
Cl       2.68882598       5.59911291       2.69572638       13      -0.05737846       0.15222279       0.07514834
Cl       0.11844047       8.50682357       2.89606522       14      -0.66050481       0.01134377      -0.01197543
Cs       0.07683762       5.69981673       5.73614962       15       0.02141079      -0.09136642      -0.04247676
Sn       2.89242192       8.40847753       8.28585801       16       0.32333792       0.18898429       0.46170833
Cl       2.83300960       8.43285570       5.63019584       17      -0.04076348      -0.02839172      -0.16873403
Cl       2.84978920       5.66582322       8.54476167       18      -0.02511560       0.24899882      -0.11096926
Cl       0.01211480       8.47502055       8.46411632       19       0.27870309       0.02669441      -0.13216705
Cs       5.64292990      11.19939145       0.07202152       20       0.03724972       0.05147486      -0.00011006
Sn       8.53074820       2.86427212       2.90503857       21      -0.50735396      -0.26690246      -0.74520310
Cl       8.51442371       2.75336903       0.18324483       22       0.09363855       0.03405192      -0.57423098
Cl       8.56612927       0.05667456       2.76437514       23      -0.01180813      -0.28332708       0.12415196
Cl       5.70296549       2.86367586       2.75595322       24      -0.32640303      -0.03036590       0.08785962
Cs       5.70035259      11.24568653       5.72353827       25      -0.05993698       0.04566584      -0.04984233
Pb       8.55557913       2.84997153       8.36465952       26      -0.40401829       0.32473433       0.43241551
Cl       8.38332796       2.92771733       5.54125525       27       0.01367124      -0.05055029       0.78061044
Cl       8.44136156      11.31206233       8.47484557       28       0.09429671       0.04506152      -0.14832467
Cl       5.65569596       2.82726871       8.50234411       29       0.01636409      -0.01604460      -0.05047643
Cs       5.55032260       5.60589000       0.07251104       30       0.03936587      -0.02255076       0.00784903
Sn       8.41037906       8.40037787       2.71736640       31      -0.27178350       0.21862403      -0.05248992
Cl       8.50911403       8.54901034      11.38760184       32      -0.00184053      -0.05358407       0.19262506
Cl       8.45759687       5.63099967       2.67308278       33       0.03567458       0.37288615       0.00021512
Cl       5.63919884       8.45866912       2.89513086       34       0.41204075      -0.01391691      -0.06546613
Cs       5.54339122       5.68508927       5.61001513       35       0.01355474      -0.05820192      -0.02037434
Sn       8.68311598       8.60933066       8.25801653       36      -0.68064568      -0.49467335       1.07235325
Cl       8.36987994       8.45513057       5.80726993       37       0.09296968       0.06622766      -0.86463932
Cl       8.52150715       5.71163390       8.35155538       38       0.08069952       0.00451810      -0.00629829
Cl       5.67329626       8.56024578       8.42800082       39      -0.19510944      -0.02106285      -0.07478929
40
Lattice="11.297081999650837 0.0 0.0 0.0 11.29182446748025 0.0 0.0 3.830075537599823e-14 11.291824467480176" Properties=species:S:1:pos:R:3:spacegroup_kinds:I:1:forces:R:3 spacegroup="P 1" unit_cell=conventional candidate_id=a35814366ffe59f1 formula=MAPb0.25Sn0.75Cl3 config_index=2 rattle_stdev=0.08 method=PBE fidelity=phase2_force energy=-139.2051499428331 stress="-0.0003673394221436033 4.391542069055822e-05 1.7371617159192217e-05 4.391542069055822e-05 -0.0011658760686943637 -6.697974442972932e-05 1.7371617159192217e-05 -6.697974442972932e-05 -0.00012831825805740223" pbc="T T T"
Cs      -0.00901704      11.15855826       0.18994325        0       0.03511380       0.03006013      -0.15182237
Sn       2.70771184       2.79685045       2.72216440        1       0.77217856       0.37190856       0.31919965
Cl       2.85433982       2.75270433       0.03520156        2      -0.12720819       0.06778857      -0.23277513
Cl       2.84800332       0.11339436       2.69743650        3      -0.07681905      -0.80752789       0.04439278
Cl       0.14832230       2.86247306       2.81249920        4      -0.80171644      -0.02883664      -0.07931108
Cs      11.26483234      11.16679039       5.56137380        5      -0.01837702       0.01719031       0.11843903
Pb       2.76683678       2.92066758       8.40669235        6       0.57709723      -0.07541448      -0.06804195
Cl       2.77718845       2.81834661       5.58907900        7      -0.03339426      -0.11297859       0.12039762
Cl       2.72961442      11.10472545       8.54184884        8      -0.03980854       0.75063499      -0.00780793
Cl       0.03301366       2.76729460       8.28576660        9      -0.21491454       0.03192210       0.04553302
Cs      11.23410268       5.61077199       0.05460574       10       0.04533283       0.02101722      -0.05603236
Sn       2.78193497       8.53128794       2.80689094       11       0.33641062      -0.29173064       0.11622194
Cl       2.78582181       8.38604738      11.23428431       12      -0.00966714       0.02148499       0.61568452
Cl       2.88746172       5.55459102       2.99975894       13      -0.11600487       0.66081681      -0.15848156
Cl      -0.11201889       8.44974056       2.84034337       14       0.51144563      -0.00036161      -0.03578884
Cs      -0.02819082       5.69992337       5.60730330       15       0.00396331      -0.00812320       0.04833535
Sn       2.80850800       8.57662306       8.49648227       16      -0.09231716      -0.72453959      -0.16817930
Cl       2.86888205       8.42124554       5.72186021       17      -0.07637478       0.16629893      -0.53045965
Cl       2.93077071       5.65070922       8.43000789       18      -0.07774569      -0.22265327       0.05733316
Cl       0.08615314       8.26123976       8.48222261       19       0.01041447       0.08635607       0.00403349
Cs       5.73165777      11.09999747       0.10783237       20      -0.05219126       0.11518849      -0.08681492
Sn       8.43280248       2.63541266       2.81432270       21      -0.39531706       0.63174785       0.23726372
Cl       8.35258849       2.86205841       0.01894534       22       0.11016032       0.00310880      -0.00677890
Cl       8.55741210      -0.05222403       2.81694883       23       0.00220700      -0.03789267      -0.04714531
Cl       5.63996860       2.99086188       2.79571308       24       0.51376810      -0.25650058      -0.03077887
Cs       5.60630859      11.14111403       5.61589906       25       0.03395600       0.05626066       0.05411020
Pb       8.56291307       2.85507898       8.53011518       26      -0.57380519      -0.07700212      -0.32512205
Cl       8.36456130       2.86886480       5.56510164       27       0.07648238      -0.14264532       0.05533691
Cl       8.52442662      11.14824730       8.62084744       28       0.01987341       0.74255882       0.01713796
Cl       5.66588987       2.86295375       8.41874106       29       0.11204196      -0.06139991       0.01673926
Cs       5.56831026       5.63054851       0.06348331       30      -0.02292857      -0.08395260      -0.01508654
Sn       8.51569886       8.38286855       2.64552774       31      -0.48672486      -0.27931702       0.62255462
Cl       8.52456592       8.44308149      11.26069793       32       0.00762950      -0.05706462       0.36101073
Cl       8.28973776       5.61962732       2.89938122       33       0.17850790       0.11095040      -0.15876163
Cl       5.68492005       8.63382255       2.82795295       34      -0.41290913       0.00866498      -0.10789172
Cs       5.64876839       5.65676902       5.62864974       35       0.00301864      -0.05046613       0.00909785
Sn       8.40776222       8.46074375       8.50452541       36       0.16863275       0.01928416      -0.61096294
Cl       8.37080121       8.47749490       5.73141259       37       0.08671159       0.09574161      -0.20856058
Cl       8.46026333       5.80421739       8.35108728       38       0.06186951      -0.80351732       0.10298918
Cl       5.71782427       8.39739719       8.42495070       39      -0.02879195       0.11479123       0.12037660
40
Lattice="11.297081999650837 0.0 0.0 0.0 11.29182446748025 0.0 0.0 3.830075537599823e-14 11.291824467480176" Properties=species:S:1:pos:R:3:spacegroup_kinds:I:1:forces:R:3 spacegroup="P 1" unit_cell=conventional candidate_id=a35814366ffe59f1 formula=MAPb0.25Sn0.75Cl3 config_index=3 rattle_stdev=0.08 method=PBE fidelity=phase2_force energy=-139.08261393970548 stress="-0.000605508195451335 0.00022450852913319215 -1.3758467452046214e-05 0.00022450852913319215 -0.000865981907851489 6.774931578607653e-05 -1.3758467452046214e-05 6.774931578607653e-05 -0.00018457789151877537" pbc="T T T"
Cs      -0.10568348      11.40602360       0.05094625        0       0.06969825       0.08229956       0.00927091
Sn       2.80525681       2.82968593       2.89971950        1      -0.28578756      -0.34276658      -0.93724673
Cl       2.76974262       2.86528175       0.00120616        2       0.05763781      -0.03369870      -0.29186282
Cl       2.93666700      -0.00065304       2.71848526        3       0.00437322      -0.35019231       0.04336880
Cl      -0.05428282       2.69328145       2.72055823        4       0.12580607       0.06848638       0.08924131
Cs      11.27913826      11.17663849       5.53831193        5      -0.05211660       0.05233186       0.00642474
Pb       2.84532416       2.61854067       8.33524568        6      -0.08953526       0.60426624       0.63881239
Cl       2.76733168       2.62721407       5.48057783        7      -0.01778740      -0.04848995       0.61277337
Cl       2.87736030      11.12631813       8.40563557        8       0.00378431       0.79341672      -0.01793549
Cl      -0.12018966       2.72779292       8.65020356        9       0.61089511      -0.00094136      -0.03880681
Cs      11.25893977       5.76478645      -0.09725397       10       0.03892378      -0.15916918      -0.02719046
Sn       2.78497333       8.37290862       2.75853849       11       0.10605848       0.37064951      -0.04868845
Cl       2.93673599       8.45044310      11.21740734       12      -0.06294911      -0.05310268       0.74827134
Cl       2.81126350       5.57428044       2.94408553       13      -0.03238469       0.45545407       0.01497031
Cl      -0.13980583       8.52155072       2.79542682       14       1.08734395      -0.09039317      -0.00385321
Cs      -0.06069585       5.70681543       5.54618786       15      -0.04522932      -0.04554660       0.05011073
Sn       2.86848614       8.49947701       8.43916512       16      -0.10811714      -0.78501477       0.06665291
Cl       2.95052202       8.48621215       5.76016097       17      -0.01725970       0.01526927      -0.67476696
Cl       2.88278895       5.76303154       8.42244386       18      -0.00669189      -0.48891345      -0.07103960
Cl      -0.00794717       8.34207916       8.46289104       19      -0.24873895       0.03615097       0.01806011
Cs       5.74444571      11.22344956      -0.00500288       20      -0.06999871       0.04920417      -0.00340100
Sn       8.32108857       2.69973220       2.79153026       21       0.50812905       0.44111378       0.05177920
Cl       8.43965303       2.87984154       0.11460165       22      -0.07243101      -0.04826487      -0.35627481
Cl       8.66459840       0.00373882       2.74188542       23      -0.15618245      -0.48456603       0.01533555
Cl       5.61305651       2.89063429       2.86250484       24      -0.19426050      -0.05814437       0.04973439
Cs       5.67083206      11.28645065       5.62418048       25       0.03229212      -0.04195011       0.01209672
Pb       8.49098241       2.79172888       8.41142694       26      -0.23091312      -0.01400795       0.04388131
Cl       8.59634039       2.75392051       5.55400641       27      -0.01343132      -0.02120628       0.30217707
Cl       8.47951565      11.36296261       8.37452137       28      -0.02030675      -0.83084782       0.08395626
Cl       5.61664283       2.78908497       8.51361530       29      -0.28015972      -0.08229770      -0.07382277
Cs       5.60236142       5.69875312       0.11651750       30      -0.00668470      -0.09896768      -0.08972334
Sn       8.50600422       8.45076957       2.88340357       31      -0.17796756      -0.20511892       0.12961433
Cl       8.49082189       8.43368811      11.32682941       32       0.02956886       0.00605934       0.20724055
Cl       8.40112164       5.51463494       2.96235485       33       0.06803271       0.34747932      -0.02603484
Cl       5.88208705       8.41497033       2.76127418       34      -0.93412513       0.04236506       0.00288845
Cs       5.73298038       5.78471037       5.60842099       35       0.01243946      -0.01380707       0.06154072
Sn       8.47381097       8.41290663       8.61897228       36       0.08724391       0.01705166      -0.42912585
Cl       8.43675883       8.44436961       5.77625299       37       0.01681708       0.01037189      -0.17630109
Cl       8.42052422       5.52778653       8.51729651       38       0.01277203       0.87111593       0.00816600
Cl       5.60659556       8.48546753       8.55658052       39       0.23525211       0.02371408      -0.00201771
