40
Lattice="12.614266313956785 0.0 0.0 0.002990504590544489 12.49882628763303 0.0 -0.0011993195293990577 0.003018412050807161 12.614265895812187" Properties=species:S:1:pos:R:3:spacegroup_kinds:I:1:forces:R:3 spacegroup="P 1" unit_cell=conventional occupancy="_JSON {\"0\": {\"Cs\": 1.0}, \"1\": {\"Pb\": 1.0}, \"2\": {\"I\": 1.0}, \"3\": {\"I\": 1.0}, \"4\": {\"I\": 1.0}, \"5\": {\"Cs\": 1.0}, \"6\": {\"Pb\": 1.0}, \"7\": {\"I\": 1.0}, \"8\": {\"I\": 1.0}, \"9\": {\"I\": 1.0}, \"10\": {\"Cs\": 1.0}, \"11\": {\"Pb\": 1.0}, \"12\": {\"Cl\": 1.0}, \"13\": {\"I\": 1.0}, \"14\": {\"I\": 1.0}, \"15\": {\"Cs\": 1.0}, \"16\": {\"Pb\": 1.0}, \"17\": {\"I\": 1.0}, \"18\": {\"Cl\": 1.0}, \"19\": {\"I\": 1.0}, \"20\": {\"Cs\": 1.0}, \"21\": {\"Pb\": 1.0}, \"22\": {\"I\": 1.0}, \"23\": {\"I\": 1.0}, \"24\": {\"Cl\": 1.0}, \"25\": {\"Cs\": 1.0}, \"26\": {\"Pb\": 1.0}, \"27\": {\"I\": 1.0}, \"28\": {\"I\": 1.0}, \"29\": {\"I\": 1.0}, \"30\": {\"Cs\": 1.0}, \"31\": {\"Pb\": 1.0}, \"32\": {\"I\": 1.0}, \"33\": {\"Cl\": 1.0}, \"34\": {\"I\": 1.0}, \"35\": {\"Cs\": 1.0}, \"36\": {\"Pb\": 1.0}, \"37\": {\"I\": 1.0}, \"38\": {\"I\": 1.0}, \"39\": {\"I\": 1.0}}" candidate_id=2ef6da81533d183d formula=MAPbCl0.18I0.823 config_index=0 rattle_stdev=0.0 method=PBE fidelity=phase2_force energy=-117.30652306446599 stress="-0.0006753782532666341 -1.2170124945056597e-05 1.0205370323358661e-05 -1.2170124945056597e-05 0.00012571141121300145 -1.2328266881909252e-05 1.0205370323358661e-05 -1.2328266881909252e-05 -0.0006754209654838654" pbc="T T T"
Cs       0.00743548       0.03075738       0.02748131        0       0.00598113      -0.00013221      -0.00268082
Pb       3.49881621       3.14763243       3.14916825        1      -0.00343815       0.01058832      -0.00356038
I        3.24325376       3.20105972       0.00575248        2      -0.00620420      -0.00888066      -0.00537327
I        3.23356542       0.00073539       3.07327544        3      -0.00529975       0.00000641       0.00529788
I       12.56765817       3.24459841       3.16265077        4      -0.06134323       0.00513597       0.00130543
Cs       0.03943327       0.00149963       6.26710382        5       0.00553811       0.00000069      -0.00552278
Pb       3.16346921       3.43647634       9.47858424        6       0.01710538      -0.02746066       0.00894253
I        3.23716958       3.20469214       6.30591015        7      -0.00492628      -0.00530835       0.00473065
I        3.14367637      12.46927660       9.59648420        8      -0.00061695      -0.04287813       0.01245674
I        0.01142118       3.20713703       9.45238638        9      -0.01840661      -0.00768440      -0.00433860
Cs       0.01561914       6.21746812       0.02277005       10       0.01433240       0.00386990      -0.00423625
Pb       3.15993533       9.35261951       2.80877037       11       0.00403851      -0.01060096       0.00328256
Cl       3.15221894       9.24993765       0.02153812       12      -0.00331878      -0.01042968      -0.00168572
I        3.23650220       6.25014819       3.07183405       13      -0.01398112      -0.00000223       0.01394663
I        0.00315500       9.29637770       3.07013033       14      -0.00475723       0.00530580       0.00492163
Cs       0.03758721       6.25091357       6.27044482       15       0.00478510      -0.00000296      -0.00477635
Pb       3.15081707       9.23228318       9.60227687       16      -0.01216944       0.08753546      -0.10565683
I        3.14609252       9.25650512       6.35421652       17      -0.00131936      -0.00512743       0.06149207
Cl       3.15184712       6.23691349       9.59006484       18      -0.00487248       0.00408391       0.01742521
I        0.01181397       9.26070811       9.59148227       19      -0.02132992      -0.00917600       0.01901633
Cs       6.31327606       0.00301666      12.60692437       20       0.00101237       0.00000342      -0.00101170
Pb       9.31960418       3.26959636       3.15761143       21       0.10570112      -0.08755498       0.01278940
I        9.33171432       3.24388220       0.01088118       22      -0.01428746       0.00364207      -0.02380084
I        9.32462161       0.03260345       3.16552717       23      -0.01244607       0.04289004       0.00059861
Cl       6.28607220       3.24964925       3.15712523       24       0.00160302       0.01044212       0.00333484
Cs       6.28203604      12.46958292       6.29970222       25       0.00269723       0.00013640      -0.00598362
Pb       9.45535271       3.14127992       9.45780399       26      -0.00305846       0.02113735      -0.00954299
I        9.33009354       3.24191997       6.29662225       27      -0.01901759       0.00918786       0.02133265
I        9.47126831       0.00226107       9.44923245       28       0.00392374       0.00000275      -0.00391735
I        6.29588857       3.21613456       9.45136279       29       0.01715839      -0.00995077      -0.00502453
Cs       6.31031151       6.25243087      12.61138375       30      -0.00739949      -0.00000164       0.00740329
Pb       9.44468487       9.06537025       3.14358433       31      -0.00935421       0.02746056      -0.01658428
I        9.47225685       9.28495597       0.01111495       32       0.00508466       0.00994605      -0.01715946
Cl       9.33253305       6.26496271       3.15586586       33      -0.01745187      -0.00408040       0.00489273
I        6.30331391       9.29850127       3.06464464       34       0.00541676       0.00887555       0.00620200
Cs       6.28526769       6.28286944       6.29299925       35       0.00424634      -0.00388024      -0.01433067
Pb       9.46493464       9.36207454       9.46589829       36       0.00904694      -0.02113754       0.00256506
I        9.47063792       9.29545752       6.29557988       37       0.00434514       0.00768987       0.01840956
I        9.47185904       6.25167443       9.45013688       38       0.00840556      -0.00000485      -0.00835137
I        6.29755451       9.25724155       9.59045993       39       0.02382599      -0.00364725       0.01429541
40
Lattice="12.614266313956785 0.0 0.0 0.002990504590544489 12.49882628763303 0.0 -0.0011993195293990577 0.003018412050807161 12.614265895812187" Properties=species:S:1:pos:R:3:spacegroup_kinds:I:1:forces:R:3 spacegroup="P 1" unit_cell=conventional occupancy="_JSON {\"0\": {\"Cs\": 1.0}, \"1\": {\"Pb\": 1.0}, \"2\": {\"I\": 1.0}, \"3\": {\"I\": 1.0}, \"4\": {\"I\": 1.0}, \"5\": {\"Cs\": 1.0}, \"6\": {\"Pb\": 1.0}, \"7\": {\"I\": 1.0}, \"8\": {\"I\": 1.0}, \"9\": {\"I\": 1.0}, \"10\": {\"Cs\": 1.0}, \"11\": {\"Pb\": 1.0}, \"12\": {\"Cl\": 1.0}, \"13\": {\"I\": 1.0}, \"14\": {\"I\": 1.0}, \"15\": {\"Cs\": 1.0}, \"16\": {\"Pb\": 1.0}, \"17\": {\"I\": 1.0}, \"18\": {\"Cl\": 1.0}, \"19\": {\"I\": 1.0}, \"20\": {\"Cs\": 1.0}, \"21\": {\"Pb\": 1.0}, \"22\": {\"I\": 1.0}, \"23\": {\"I\": 1.0}, \"24\": {\"Cl\": 1.0}, \"25\": {\"Cs\": 1.0}, \"26\": {\"Pb\": 1.0}, \"27\": {\"I\": 1.0}, \"28\": {\"I\": 1.0}, \"29\": {\"I\": 1.0}, \"30\": {\"Cs\": 1.0}, \"31\": {\"Pb\": 1.0}, \"32\": {\"I\": 1.0}, \"33\": {\"Cl\": 1.0}, \"34\": {\"I\": 1.0}, \"35\": {\"Cs\": 1.0}, \"36\": {\"Pb\": 1.0}, \"37\": {\"I\": 1.0}, \"38\": {\"I\": 1.0}, \"39\": {\"I\": 1.0}}" candidate_id=2ef6da81533d183d formula=MAPbCl0.18I0.823 config_index=1 rattle_stdev=0.08 method=PBE fidelity=phase2_force energy=-116.66919430556179 stress="-0.0019391721273458186 -6.887728369121785e-05 1.410420295534112e-05 -6.887728369121785e-05 -0.0008208904891487724 -0.00017556167742079404 1.410420295534112e-05 -0.00017556167742079404 -0.003461538839473231" pbc="T T T"
Cs      -0.07948023      -0.04092783       0.00297736        0      -0.03437245       0.04107951       0.02771203
Pb       3.39162152       3.05110558       3.09783011        1       0.29250725       0.37238930       0.30409668
I        3.34788941       3.34869656       0.07208167        2      -0.06144131      -0.08269727      -0.11941718
I        3.23170151      -0.01594973       2.99994586        3       0.00159696      -0.01177257       0.00976266
I       12.48167877       3.23770693       3.25671785        4       0.39079318       0.00735774       0.02000701
Cs      -0.09137407       0.09975515       6.35321472        5       0.03909816       0.04733672      -0.05131928
Pb       3.19505104       3.40546027       9.52565638        6       0.05574248      -0.23686647      -0.09965633
I        3.12250568       3.17880617       6.40614893        7       0.02748638       0.02392294      -0.21467418
I        3.08521696      12.58355541       9.67205651        8      -0.00264936      -0.26973163      -0.01127146
I       -0.00969904       3.19407997       9.37525780        9       0.13642793      -0.00840948       0.01578740
Cs      -0.01179265       6.22138044      -0.01720051       10      -0.01166845      -0.03801833       0.01891910
Pb       2.98298297       9.37740645       2.68159827       11       0.91599427      -0.30804272      -0.05983710
Cl       3.21057530       9.24130555      -0.03047559       12      -0.08699686       0.01099121      -0.08927345
I        3.10105768       6.22067027       2.94460431       13      -0.00738413       0.06210099       0.09941034
I        0.12159547       9.33433291       3.14323943       14      -0.90385453       0.02215146       0.09897644
Cs       0.11442483       6.25767698       6.40782329       15       0.02367575      -0.04350375      -0.02929714
Pb       3.21896848       9.17189236       9.41926652       16       0.15772023       0.15021598       0.14743090
I        3.15483162       9.22049247       6.32117873       17      -0.00097509      -0.01639463       0.02507452
Cl       3.17736582       6.19362485       9.66595816       18      -0.02167655       0.32913952      -0.04685433
I        0.02392877       9.26686030       9.58673024       19       0.34620083      -0.00444005       0.04744775
Cs       6.30766497      -0.04227527      12.63180480       20       0.02564814       0.01788876       0.01754926
Pb       9.37754089       3.31091237       3.23969388       21      -0.25590954      -0.23289646      -0.54477275
I        9.37332653       3.17429511       0.13092640       22       0.02476533       0.02341365      -0.51979559
I        9.41793938       0.07195661       3.10694619       23      -0.01247566      -0.04675043       0.11290926
Cl       6.34049669       3.29036900       3.09012234       24      -0.36882234      -0.01956698       0.05015091
Cs       6.33384763      12.47058607       6.42446935       25      -0.02206181       0.00344080      -0.02365739
Pb       9.53812034       3.16829533       9.35359515       26      -0.21997209       0.29957731       0.36811364
I        9.24060999       3.34668118       6.25516489       27      -0.05519072      -0.02845730       0.49701098
I        9.43981837       0.08569854       9.45520966       28       0.00116685      -0.19430137      -0.01359816
I        6.30304353       3.22044715       9.48483855       29       0.03227091      -0.00339653      -0.01063567
Cs       6.21209310       6.16526754      12.63675370       30       0.04302847       0.01068818       0.04066712
Pb       9.38225242       8.99687977       3.03799462       31      -0.07283265       0.23208438       0.33185880
I        9.50855938       9.36509795       0.12421372       32       0.02740078       0.00552543      -0.50016253
Cl       9.31731842       6.26737156       3.00599252       33       0.00620922      -0.01873188      -0.00080924
I        6.29397176       9.28830204       3.13681938       34       0.09677183      -0.02055568       0.04021623
Cs       6.18011791       6.27490538       6.30424324       35      -0.00304511      -0.02048395      -0.02910348
Pb       9.67523912       9.50253685       9.25504646       36      -0.51781728      -0.31837947       1.04136754
I        9.36770636       9.28171974       6.43961617       37      -0.01751031       0.02582813      -1.06436283
I        9.52055469       6.25419647       9.33282391       38      -0.00040894       0.24482716       0.08273572
I        6.32230977       9.34861898       9.54959240       39       0.02700007      -0.00364531       0.03507038
40
Lattice="12.614266313956785 0.0 0.0 0.002990504590544489 12.49882628763303 0.0 -0.0011993195293990577 0.003018412050807161 12.614265895812187" Properties=species:S:1:pos:R:3:spacegroup_kinds:I:1:forces:R:3 spacegroup="P 1" unit_cell=conventional occupancy="_JSON {\"0\": {\"Cs\": 1.0}, \"1\": {\"Pb\": 1.0}, \"2\": {\"I\": 1.0}, \"3\": {\"I\": 1.0}, \"4\": {\"I\": 1.0}, \"5\": {\"Cs\": 1.0}, \"6\": {\"Pb\": 1.0}, \"7\": {\"I\": 1.0}, \"8\": {\"I\": 1.0}, \"9\": {\"I\": 1.0}, \"10\": {\"Cs\": 1.0}, \"11\": {\"Pb\": 1.0}, \"12\": {\"Cl\": 1.0}, \"13\": {\"I\": 1.0}, \"14\": {\"I\": 1.0}, \"15\": {\"Cs\": 1.0}, \"16\": {\"Pb\": 1.0}, \"17\": {\"I\": 1.0}, \"18\": {\"Cl\": 1.0}, \"19\": {\"I\": 1.0}, \"20\": {\"Cs\": 1.0}, \"21\": {\"Pb\": 1.0}, \"22\": {\"I\": 1.0}, \"23\": {\"I\": 1.0}, \"24\": {\"Cl\": 1.0}, \"25\": {\"Cs\": 1.0}, \"26\": {\"Pb\": 1.0}, \"27\": {\"I\": 1.0}, \"28\": {\"I\": 1.0}, \"29\": {\"I\": 1.0}, \"30\": {\"Cs\": 1.0}, \"31\": {\"Pb\": 1.0}, \"32\": {\"I\": 1.0}, \"33\": {\"Cl\": 1.0}, \"34\": {\"I\": 1.0}, \"35\": {\"Cs\": 1.0}, \"36\": {\"Pb\": 1.0}, \"37\": {\"I\": 1.0}, \"38\": {\"I\": 1.0}, \"39\": {\"I\": 1.0}}" candidate_id=2ef6da81533d183d formula=MAPbCl0.18I0.823 config_index=2 rattle_stdev=0.08 method=PBE fidelity=phase2_force energy=-116.85048608709289 stress="-0.0008954336528541789 -9.014309324611492e-05 2.9842332946388097e-05 -9.014309324611492e-05 -0.0019037889969225064 2.608916214506958e-05 2.9842332946388097e-05 2.608916214506958e-05 -0.0014421359157225898" pbc="T T T"
Cs      -0.00158157      -0.05536774       0.17028347        0       0.01162771       0.01029885      -0.05468251
Pb       3.38225755       3.12152677       3.04837653        1       0.13833833       0.38818971       0.21808472
I        3.27332308       3.13080793      -0.02224558        2      -0.02770723       0.02103987      -0.10521188
I        3.25729823       0.09680834       2.94775582        3      -0.04514904      -0.71206756       0.01549579
I       12.71598047       3.28411536       3.15219385        4      -0.32445929      -0.03996776      -0.04004993
Cs       0.00718361      -0.07639335       6.22970648        5      -0.00315394      -0.00127149       0.03616596
Pb       3.10603549       3.53418780       9.41640824        6       0.44435082      -0.20166790       0.01485886
I        3.19008753       3.20008264       6.31227654        7       0.01063835      -0.07786807      -0.08331017
I        3.04902028      12.34537721       9.66946469        8       0.01329343       0.31475384       0.01590148
I        0.04443484       3.15147551       9.26928463        9      -0.19031364      -0.01225335       0.01640506
Cs      -0.04736018       6.13518679       0.03023470       10       0.04955196       0.01044172      -0.01924814
Pb       3.11759979       9.41503909       2.79270520       11       0.23047215      -0.32711920       0.00975271
Cl       3.11377025       9.16711668      -0.01868062       12       0.00708012       0.01178344       0.31578284
I        3.29969342       6.17614838       3.24863687       13      -0.02943432       0.63332705      -0.04390051
I       -0.10886390       9.27724990       3.08751758       14       0.58658164       0.03299576       0.03730310
Cs       0.00939639       6.25778361       6.27897697       15       0.00672322       0.00569927       0.00327971
Pb       3.13505457       9.34003789       9.62989079       16       0.05665266      -0.22631061      -0.11873912
I        3.19070407       9.20888231       6.41284310       17      -0.02766332       0.08115687      -0.17951538
Cl       3.25834733       6.17851086       9.55120438       18      -0.03147405       0.16248444       0.02854464
I        0.09796711       9.05307951       9.60483652       19      -0.22887212      -0.04151657       0.01479113
Cs       6.39639283      -0.14166925      12.66761564       20      -0.01411540       0.03288765      -0.04911954
Pb       9.27959516       3.08205291       3.14897801       21      -0.09179713       0.23196907       0.14847952
I        9.21149131       3.28298449      -0.03337310       22       0.04249173       0.03248859       0.17116788
I        9.40922221      -0.03694198       3.15951988       23       0.00715738       0.09510879      -0.01927773
Cl       6.27749981       3.41755501       3.12988220       24       0.22248763      -0.13056059      -0.03796170
Cs       6.23980363      12.36601357       6.31683014       25       0.01311299      -0.01016285       0.02810093
Pb       9.54545427       3.17340278       9.51905081       26      -0.33502616      -0.04261858      -0.25865830
I        9.22184334       3.28782865       6.27901128       27       0.03131682      -0.05462547      -0.03640660
I        9.52288343      -0.07811648       9.60121153       28       0.03488393       0.55034026       0.02404863
I        6.31323743       3.25613219       9.40123551       29       0.04177055      -0.05856362       0.00503812
Cs       6.23008077       6.18992605      12.62772597       30      -0.03490484      -0.03366121       0.02488212
Pb       9.48757223       8.97937045       2.96615595       31      -0.49074176      -0.14635562       0.69499046
I        9.52401127       9.25916910      -0.00269019       32       0.02007927      -0.00985995      -0.05847178
Cl       9.14945931       6.25599921       3.23229096       33       0.08519775      -0.04174615      -0.09552060
I        6.33969297       9.46345546       3.06964148       34      -0.35108221       0.04365522      -0.04262538
Cs       6.28549508       6.24658513       6.32287785       35       0.01098650      -0.01640171      -0.04478901
Pb       9.39988536       9.35394994       9.50155534       36       0.27159762       0.10875176      -0.38294427
I        9.36862762       9.30408406       6.36375883       37       0.04406967       0.08265813      -0.23527639
I        9.45931088       6.34677997       9.33235581       38       0.06303433      -0.70016592       0.01917833
I        6.36683778       9.18577039       9.54654228       39      -0.21908767       0.03425629       0.06867460
40
Lattice="12.614266313956785 0.0 0.0 0.002990504590544489 12.49882628763303 0.0 -0.0011993195293990577 0.003018412050807161 12.614265895812187" Properties=species:S:1:pos:R:3:spacegroup_kinds:I:1:forces:R:3 spacegroup="P 1" unit_cell=conventional occupancy="_JSON {\"0\": {\"Cs\": 1.0}, \"1\": {\"Pb\": 1.0}, \"2\": {\"I\": 1.0}, \"3\": {\"I\": 1.0}, \"4\": {\"I\": 1.0}, \"5\": {\"Cs\": 1.0}, \"6\": {\"Pb\": 1.0}, \"7\": {\"I\": 1.0}, \"8\": {\"I\": 1.0}, \"9\": {\"I\": 1.0}, \"10\": {\"Cs\": 1.0}, \"11\": {\"Pb\": 1.0}, \"12\": {\"Cl\": 1.0}, \"13\": {\"I\": 1.0}, \"14\": {\"I\": 1.0}, \"15\": {\"Cs\": 1.0}, \"16\": {\"Pb\": 1.0}, \"17\": {\"I\": 1.0}, \"18\": {\"Cl\": 1.0}, \"19\": {\"I\": 1.0}, \"20\": {\"Cs\": 1.0}, \"21\": {\"Pb\": 1.0}, \"22\": {\"I\": 1.0}, \"23\": {\"I\": 1.0}, \"24\": {\"Cl\": 1.0}, \"25\": {\"Cs\": 1.0}, \"26\": {\"Pb\": 1.0}, \"27\": {\"I\": 1.0}, \"28\": {\"I\": 1.0}, \"29\": {\"I\": 1.0}, \"30\": {\"Cs\": 1.0}, \"31\": {\"Pb\": 1.0}, \"32\": {\"I\": 1.0}, \"33\": {\"Cl\": 1.0}, \"34\": {\"I\": 1.0}, \"35\": {\"Cs\": 1.0}, \"36\": {\"Pb\": 1.0}, \"37\": {\"I\": 1.0}, \"38\": {\"I\": 1.0}, \"39\": {\"I\": 1.0}}" candidate_id=2ef6da81533d183d formula=MAPbCl0.18I0.823 config_index=3 rattle_stdev=0.08 method=PBE fidelity=phase2_force energy=-116.61380989575683 stress="-0.0020503215701663377 7.006606337600635e-05 -1.540860564470023e-06 7.006606337600635e-05 -0.0008157688446043515 8.258204064051605e-05 -1.540860564470023e-06 8.258204064051605e-05 -0.0016959259646180415" pbc="T T T"
Cs      -0.09824801       0.19209761       0.03128647        0       0.01631415       0.06705379       0.03734986
Pb       3.47980252       3.15436224       3.22593163        1      -0.19580181      -0.30380725      -0.70915577
I        3.18872588       3.24338536      -0.05624098        2       0.00355971       0.00611329      -0.06362948
I        3.34596191      -0.01723905       2.96880459        3       0.02254745      -0.21912831      -0.00311992
I       12.51337536       3.11492375       3.06025289        4       0.04718116       0.05382824       0.03888449
Cs       0.02148954      -0.06654526       6.20664461        5      -0.02574996       0.02184835      -0.03028475
Pb       3.18452287       3.23206090       9.34496156        6      -0.04021439       0.30399193       0.50097074
I        3.18023077       3.00895009       6.20377537        7      -0.05772820      -0.04772489       0.37952923
I        3.19676617      12.36696989       9.53325142        8      -0.03128886       0.49035989       0.00884192
I       -0.10876848       3.11197383       9.63372159        9       0.47166812       0.01156826      -0.00413222
Cs      -0.02252309       6.28920124      -0.12162501       10       0.03733725      -0.09887436      -0.00942036
Pb       3.12063816       9.25665978       2.74435274       11       0.09570740       0.31249499      -0.04372573
Cl       3.26468443       9.23151239      -0.03555759       12      -0.04312890      -0.06091645       0.37189266
I        3.22349520       6.19583780       3.19296346       13      -0.04272909       0.28059004       0.04557152
I       -0.13665083       9.34906006       3.04260103       14       1.06765334       0.02661709      -0.02139274
Cs      -0.02310864       6.26467567       6.21786153       15      -0.02892219      -0.01654476      -0.00086922
Pb       3.19503270       9.26289184       9.57257364       16      -0.18429127      -0.44876299      -0.02740029
I        3.27234404       9.27384892       6.45114386       17      -0.02460798       0.00236257      -0.31811121
Cl       3.21036556       6.29083318       9.54364035       18      -0.02113606      -0.28955221      -0.04505241
I        0.00386680       9.13391892       9.58550495       19      -0.12370167       0.01114892      -0.01227360
Cs       6.40918077      -0.01821716      12.55478040       20      -0.03274583       0.01410841      -0.00370419
Pb       9.16788125       3.14637245       3.12618557       21       0.32172865       0.21575280       0.05783369
I        9.29855586       3.30076762       0.06228322       22      -0.05088534      -0.01609469      -0.24469706
I        9.51640851       0.01902086       3.08445647       23      -0.09596480      -0.22205281       0.01439244
Cl       6.25058771       3.31732743       3.19667396       24       0.00954837      -0.02310744       0.03740311
Cs       6.30432710      12.51135019       6.32511155       25       0.01037432      -0.03739318       0.01082550
Pb       9.47352362       3.11005268       9.40036258       26      -0.18659037      -0.03634950       0.05023945
I        9.45362243       3.17288436       6.26791604       27      -0.00158924       0.01054390       0.12573230
I        9.47797246       0.13659883       9.35488547       28      -0.02491666      -1.09741338       0.04383733
I        6.26399039       3.18226341       9.49610974       29      -0.13062217      -0.02657944      -0.04991646
Cs       6.26413193       6.25813066      12.68076016       30      -0.02234150      -0.03832365      -0.04219490
Pb       9.47787758       9.04727147       3.20403178       31      -0.07892044      -0.28774152       0.22923492
I        9.49026724       9.24977572       0.06344129       32       0.02509477       0.01089158       0.04109726
Cl       9.26084319       6.15100682       3.29526459       33       0.03023638       0.21366354       0.00751507
I        6.53685996       9.24460325       3.00296270       34      -1.12659318       0.06987085      -0.01614638
Cs       6.36970707       6.37452648       6.30264910       35       0.02892054      -0.00191326      -0.00354909
Pb       9.46593411       9.30611282       9.61600222       36       0.03702266       0.00025290      -0.27910141
I        9.43458524       9.27095878       6.40859922       37       0.00730918       0.01667053      -0.09621401
I        9.41957176       6.07034910       9.49856504       38      -0.02062718       1.13057184       0.00131491
I        6.25560907       9.27384073       9.67817210       39       0.35393679       0.00159769       0.03076272
