Cs Sn I  Cs Sn I  Cs Sn I  Cs Ge I  Cs Ge I  Cs Sn I  Cs Ge I  Cs Sn I 
 1.0000000000000000
    12.7573377034552138    0.0000000000000000    0.0000000000000000
     0.0000000000000000   12.7573377034552138    0.0000000000000000
     0.0000000000000000    0.0000000000000000   12.7573377034552138
 Cs  Sn  I   Cs  Sn  I   Cs  Sn  I   Cs  Ge  I   Cs  Ge  I   Cs  Sn  I   Cs  Ge  I   Cs  Sn  I  
   1   1   3   1   1   3   1   1   3   1   1   3   1   1   3   1   1   3   1   1   3   1   1   3
Cartesian
  0.0000000000000000  0.0000000000000000  0.0000000000000000
  3.1893344258638034  3.1893344258638034  3.1893344258638034
  3.1893344258638034  3.1893344258638034  0.0000000000000000
  3.1893344258638034  0.0000000000000000  3.1893344258638034
  0.0000000000000000  3.1893344258638034  3.1893344258638034
  0.0000000000000000  0.0000000000000000  6.3786688517276060
  3.1893344258638034  3.1893344258638034  9.5680032775914103
  3.1893344258638034  3.1893344258638034  6.3786688517276060
  3.1893344258638034  0.0000000000000000  9.5680032775914103
  0.0000000000000000  3.1893344258638034  9.5680032775914103
  0.0000000000000000  6.3786688517276060  0.0000000000000000
  3.1893344258638034  9.5680032775914103  3.1893344258638034
  3.1893344258638034  9.5680032775914103  0.0000000000000000
  3.1893344258638034  6.3786688517276060  3.1893344258638034
  0.0000000000000000  9.5680032775914103  3.1893344258638034
  0.0000000000000000  6.3786688517276060  6.3786688517276060
  3.1893344258638034  9.5680032775914103  9.5680032775914103
  3.1893344258638034  9.5680032775914103  6.3786688517276060
  3.1893344258638034  6.3786688517276060  9.5680032775914103
  0.0000000000000000  9.5680032775914103  9.5680032775914103
  6.3786688517276060  0.0000000000000000  0.0000000000000000
  9.5680032775914103  3.1893344258638034  3.1893344258638034
  9.5680032775914103  3.1893344258638034  0.0000000000000000
  9.5680032775914103  0.0000000000000000  3.1893344258638034
  6.3786688517276060  3.1893344258638034  3.1893344258638034
  6.3786688517276060  0.0000000000000000  6.3786688517276060
  9.5680032775914103  3.1893344258638034  9.5680032775914103
  9.5680032775914103  3.1893344258638034  6.3786688517276060
  9.5680032775914103  0.0000000000000000  9.5680032775914103
  6.3786688517276060  3.1893344258638034  9.5680032775914103
  6.3786688517276060  6.3786688517276060  0.0000000000000000
  9.5680032775914103  9.5680032775914103  3.1893344258638034
  9.5680032775914103  9.5680032775914103  0.0000000000000000
  9.5680032775914103  6.3786688517276060  3.1893344258638034
  6.3786688517276060  9.5680032775914103  3.1893344258638034
  6.3786688517276060  6.3786688517276060  6.3786688517276060
  9.5680032775914103  9.5680032775914103  9.5680032775914103
  9.5680032775914103  9.5680032775914103  6.3786688517276060
  9.5680032775914103  6.3786688517276060  9.5680032775914103
  6.3786688517276060  9.5680032775914103  9.5680032775914103
