Cs Pb Cl
 1.0000000000000000
     6.0000131704022115    0.0000000000000000    0.0000000000000000
     0.0000000000000000    6.0000131704022115    0.0000000000000000
     0.0000000000000000    0.0000000000000000    6.0000131704022115
 Cs  Pb  Cl 
   1   1   3
Cartesian
  0.0000000000000000  0.0000000000000000  0.0000000000000000
  3.0000065852011057  3.0000065852011057  3.0000065852011057
  3.0000065852011057  3.0000065852011057  0.0000000000000000
  3.0000065852011057  0.0000000000000000  3.0000065852011057
  0.0000000000000000  3.0000065852011057  3.0000065852011057
