Cs Pb I  Br Cs Pb Br Cs Pb Cl Br I  Cs Pb Br Cs Pb Br Cl Cs Pb Br I  Br Cs Pb Br Cl Br Cs Pb Br
 1.0000000000000000
    12.6450491466027906    0.0000000000000000    0.0000000000000000
     0.0000000000000000   12.6450491466027906    0.0000000000000000
     0.0000000000000000    0.0000000000000000   12.6450491466027906
 Cs  Pb  I   Br  Cs  Pb  Br  Cs  Pb  Cl  Br  I   Cs  Pb  Br  Cs  Pb  Br  Cl  Cs  Pb  Br  I   Br  Cs  Pb  Br  Cl  Br  Cs  Pb  Br 
   1   1   1   2   1   1   3   1   1   1   1   1   1   1   3   1   1   2   1   1   1   1   1   1   1   1   1   1   1   1   1   3
Cartesian
  0.0000000000000000  0.0000000000000000  0.0000000000000000
  3.1612622866506976  3.1612622866506976  3.1612622866506976
  3.1612622866506976  3.1612622866506976  0.0000000000000000
  3.1612622866506976  0.0000000000000000  3.1612622866506976
  0.0000000000000000  3.1612622866506976  3.1612622866506976
  0.0000000000000000  0.0000000000000000  6.3225245733013944
  3.1612622866506976  3.1612622866506976  9.4837868599520938
  3.1612622866506976  3.1612622866506976  6.3225245733013944
  3.1612622866506976  0.0000000000000000  9.4837868599520938
  0.0000000000000000  3.1612622866506976  9.4837868599520938
  0.0000000000000000  6.3225245733013944  0.0000000000000000
  3.1612622866506976  9.4837868599520938  3.1612622866506976
  3.1612622866506976  9.4837868599520938  0.0000000000000000
  3.1612622866506976  6.3225245733013944  3.1612622866506976
  0.0000000000000000  9.4837868599520938  3.1612622866506976
  0.0000000000000000  6.3225245733013944  6.3225245733013944
  3.1612622866506976  9.4837868599520938  9.4837868599520938
  3.1612622866506976  9.4837868599520938  6.3225245733013944
  3.1612622866506976  6.3225245733013944  9.4837868599520938
  0.0000000000000000  9.4837868599520938  9.4837868599520938
  6.3225245733013944  0.0000000000000000  0.0000000000000000
  9.4837868599520938  3.1612622866506976  3.1612622866506976
  9.4837868599520938  3.1612622866506976  0.0000000000000000
  9.4837868599520938  0.0000000000000000  3.1612622866506976
  6.3225245733013944  3.1612622866506976  3.1612622866506976
  6.3225245733013944  0.0000000000000000  6.3225245733013944
  9.4837868599520938  3.1612622866506976  9.4837868599520938
  9.4837868599520938  3.1612622866506976  6.3225245733013944
  9.4837868599520938  0.0000000000000000  9.4837868599520938
  6.3225245733013944  3.1612622866506976  9.4837868599520938
  6.3225245733013944  6.3225245733013944  0.0000000000000000
  9.4837868599520938  9.4837868599520938  3.1612622866506976
  9.4837868599520938  9.4837868599520938  0.0000000000000000
  9.4837868599520938  6.3225245733013944  3.1612622866506976
  6.3225245733013944  9.4837868599520938  3.1612622866506976
  6.3225245733013944  6.3225245733013944  6.3225245733013944
  9.4837868599520938  9.4837868599520938  9.4837868599520938
  9.4837868599520938  9.4837868599520938  6.3225245733013944
  9.4837868599520938  6.3225245733013944  9.4837868599520938
  6.3225245733013944  9.4837868599520938  9.4837868599520938
