40
Lattice="12.285355413667483 0.0 0.0 0.0 12.286119891024663 0.0 0.0 3.075912684029202e-14 12.285355413667462" Properties=species:S:1:pos:R:3:spacegroup_kinds:I:1:forces:R:3 spacegroup="P 1" unit_cell=conventional occupancy="_JSON {\"0\": {\"Cs\": 1.0}, \"1\": {\"Pb\": 1.0}, \"2\": {\"I\": 1.0}, \"3\": {\"I\": 1.0}, \"4\": {\"I\": 1.0}, \"5\": {\"Cs\": 1.0}, \"6\": {\"Pb\": 1.0}, \"7\": {\"I\": 1.0}, \"8\": {\"I\": 1.0}, \"9\": {\"I\": 1.0}, \"10\": {\"Cs\": 1.0}, \"11\": {\"Ge\": 1.0}, \"12\": {\"I\": 1.0}, \"13\": {\"I\": 1.0}, \"14\": {\"I\": 1.0}, \"15\": {\"Cs\": 1.0}, \"16\": {\"Ge\": 1.0}, \"17\": {\"I\": 1.0}, \"18\": {\"I\": 1.0}, \"19\": {\"I\": 1.0}, \"20\": {\"Cs\": 1.0}, \"21\": {\"Ge\": 1.0}, \"22\": {\"I\": 1.0}, \"23\": {\"I\": 1.0}, \"24\": {\"I\": 1.0}, \"25\": {\"Cs\": 1.0}, \"26\": {\"Pb\": 1.0}, \"27\": {\"I\": 1.0}, \"28\": {\"I\": 1.0}, \"29\": {\"I\": 1.0}, \"30\": {\"Cs\": 1.0}, \"31\": {\"Ge\": 1.0}, \"32\": {\"I\": 1.0}, \"33\": {\"I\": 1.0}, \"34\": {\"I\": 1.0}, \"35\": {\"Cs\": 1.0}, \"36\": {\"Ge\": 1.0}, \"37\": {\"I\": 1.0}, \"38\": {\"I\": 1.0}, \"39\": {\"I\": 1.0}}" candidate_id=d0a0242ae28a546d formula=CsGe0.6Pb0.4I3 config_index=0 rattle_stdev=0.0 method=PBE fidelity=phase2_force energy=-111.84909491622878 stress="-0.0017355954722922417 2.4891699963568158e-11 -1.5241260503630885e-10 2.4891699963568158e-11 -0.0011425700462791384 -2.48916971028893e-11 -1.5241260503630885e-10 -2.48916971028893e-11 -0.001735595472292248" pbc="T T T"
Cs      12.24595483      12.17047383       0.03940058        0       0.00075983       0.00267814      -0.00075983
Pb       3.07133885       3.07152997       3.07133885        1       0.00000764      -0.00000072       0.00015991
I        3.07133885       3.07152997       0.01118830        2      -0.00000065      -0.00000079      -0.04620782
I        3.07133885      12.12798339       3.07133885        3      -0.00000118       0.21625209      -0.00000165
I       12.12991121       3.07152997       3.07133885        4       0.28301585      -0.00000173      -0.00000169
Cs      12.24595483      12.17047383       6.10327713        5       0.00076073       0.00267988       0.00076335
Pb       3.07133885       3.07152997       9.21401656        6       0.00013275      -0.00001173      -0.00013275
I        3.07133885       3.07152997       6.13148941        7      -0.00000106      -0.00000109       0.04621554
I        3.07133885      12.11235700       9.21401656        8      -0.00000125       0.28184786       0.00000125
I       12.27416712       3.07152997       9.21401656        9       0.04620782      -0.00000079       0.00000065
Cs      12.24595483       6.25870601       0.03940058       10       0.00076028      -0.00267823      -0.00076028
Ge       3.07133885       9.21458992       3.07133885       11      -0.00000377       0.00000333      -0.00000274
I        3.07133885       9.21458992       0.00409231       12      -0.00000188       0.00000244       0.01224845
I        3.07133885       6.30119645       3.07133885       13      -0.00000128      -0.21628409      -0.00000185
I       12.28310157       9.21458992       3.07133885       14      -0.05273918       0.00000219      -0.00000189
Cs      12.24595483       6.25870601       6.10327713       15       0.00076112      -0.00268002       0.00076402
Ge       3.07133885       9.21458992       9.21401656       16      -0.00000248       0.00000336       0.00000248
I        3.07133885       9.21458992       6.13858540       17      -0.00000187       0.00000274      -0.01224855
I        3.07133885       6.31682284       9.21401656       18      -0.00000155      -0.28188498       0.00000155
I       12.28126311       9.21458992       9.21401656       19      -0.01224845       0.00000244       0.00000188
Cs       6.18207829      12.17047383       0.03940058       20      -0.00076335       0.00267988      -0.00076073
Ge       9.21401656       3.07152997       3.07133885       21       0.00000279      -0.00000508      -0.00000279
I        9.21401656       3.07152997       0.15544420       22       0.00000169      -0.00000173      -0.28301585
I        9.21401656      12.27858190       3.07133885       23       0.00000194      -0.11434016      -0.00000194
I        6.29812191       3.07152997       3.07133885       24      -0.28304689      -0.00000179      -0.00000199
Cs       6.18207829      12.17047383       6.10327713       25      -0.00076431       0.00268150       0.00076431
Pb       9.21401656       3.07152997       9.21401656       26      -0.00015991      -0.00000072      -0.00000764
I        9.21401656       3.07152997       5.98723351       27       0.00000199      -0.00000179       0.28304689
I        9.21401656      12.12798339       9.21401656       28       0.00000165       0.21625209       0.00000118
I        6.15386600       3.07152997       9.21401656       29      -0.04621554      -0.00000109       0.00000106
Cs       6.18207829       6.25870601       0.03940058       30      -0.00076402      -0.00268002      -0.00076112
Ge       9.21401656       9.21458992       3.07133885       31       0.00000210       0.00000163      -0.00000210
I        9.21401656       9.21458992       0.00225384       32       0.00000189       0.00000219       0.05273918
I        9.21401656       6.15059794       3.07133885       33       0.00000214       0.11434098      -0.00000214
I        6.14493155       9.21458992       3.07133885       34       0.05273912       0.00000233      -0.00000183
Cs       6.18207829       6.25870601       6.10327713       35      -0.00076473      -0.00268149       0.00076473
Ge       9.21401656       9.21458992       9.21401656       36       0.00000274       0.00000333       0.00000377
I        9.21401656       9.21458992       6.14042386       37       0.00000183       0.00000233      -0.05273912
I        9.21401656       6.30119645       9.21401656       38       0.00000185      -0.21628409       0.00000128
I        6.14677001       9.21458992       9.21401656       39       0.01224855       0.00000274       0.00000187
40
Lattice="12.285355413667483 0.0 0.0 0.0 12.286119891024663 0.0 0.0 3.075912684029202e-14 12.285355413667462" Properties=species:S:1:pos:R:3:spacegroup_kinds:I:1:forces:R:3 spacegroup="P 1" unit_cell=conventional occupancy="_JSON {\"0\": {\"Cs\": 1.0}, \"1\": {\"Pb\": 1.0}, \"2\": {\"I\": 1.0}, \"3\": {\"I\": 1.0}, \"4\": {\"I\": 1.0}, \"5\": {\"Cs\": 1.0}, \"6\": {\"Pb\": 1.0}, \"7\": {\"I\": 1.0}, \"8\": {\"I\": 1.0}, \"9\": {\"I\": 1.0}, \"10\": {\"Cs\": 1.0}, \"11\": {\"Ge\": 1.0}, \"12\": {\"I\": 1.0}, \"13\": {\"I\": 1.0}, \"14\": {\"I\": 1.0}, \"15\": {\"Cs\": 1.0}, \"16\": {\"Ge\": 1.0}, \"17\": {\"I\": 1.0}, \"18\": {\"I\": 1.0}, \"19\": {\"I\": 1.0}, \"20\": {\"Cs\": 1.0}, \"21\": {\"Ge\": 1.0}, \"22\": {\"I\": 1.0}, \"23\": {\"I\": 1.0}, \"24\": {\"I\": 1.0}, \"25\": {\"Cs\": 1.0}, \"26\": {\"Pb\": 1.0}, \"27\": {\"I\": 1.0}, \"28\": {\"I\": 1.0}, \"29\": {\"I\": 1.0}, \"30\": {\"Cs\": 1.0}, \"31\": {\"Ge\": 1.0}, \"32\": {\"I\": 1.0}, \"33\": {\"I\": 1.0}, \"34\": {\"I\": 1.0}, \"35\": {\"Cs\": 1.0}, \"36\": {\"Ge\": 1.0}, \"37\": {\"I\": 1.0}, \"38\": {\"I\": 1.0}, \"39\": {\"I\": 1.0}}" candidate_id=d0a0242ae28a546d formula=CsGe0.6Pb0.4I3 config_index=1 rattle_stdev=0.08 method=PBE fidelity=phase2_force energy=-111.56779942172967 stress="-0.003573175247715289 -3.141765045046958e-05 9.012043708055258e-05 -3.141765045046958e-05 -0.0018746185344329124 4.917187482513822e-05 9.012043708055258e-05 4.917187482513822e-05 -0.0037867825125081868" pbc="T T T"
Cs      12.15903912      12.09878862       0.01489663        0       0.02001389       0.05540913       0.02717498
Pb       2.96414416       2.97500313       3.02000071        1       0.18377773       0.16499971       0.48004794
I        3.17597450       3.21916681       0.07751749        2      -0.02413328       0.02366926      -0.22442625
I        3.06947495      12.11129827       2.99800927        3       0.03111249       0.26827502       0.01944869
I       12.04393181       3.06463849       3.16540594        4       0.87160481       0.02091368       0.02778269
Cs      12.11514749      12.26872935       6.18938803        5       0.05317091       0.01918979      -0.05125900
Pb       3.10292068       3.04051391       9.26108870        6       0.03855454      -0.10287827      -0.08192880
I        2.95667495       3.04564400       6.23172819        7       0.03622416       0.03675993      -0.33435962
I        3.01287945      12.22663581       9.28958887        8      -0.01660666      -0.15904657       0.00343671
I       12.25304689       3.05847291       9.13688798        9       0.32343584       0.00741051       0.04599666
Cs      12.21854305       6.26261833      -0.00056998       10      -0.01132555      -0.02681556       0.01942824
Ge       2.89438649       9.23937687       2.94416675       11       0.14617904      -0.28282947      -0.27000989
I        3.12969522       9.20595782      -0.04792141       12      -0.07315619       0.02777620       0.24616392
I        2.93589433       6.27171853       2.94410912       13       0.03112009      -0.17257053       0.08376100
I       12.40154204       9.25254513       3.14444796       14      -0.29089687       0.01215880       0.00235566
Cs      12.32279245       6.26546942       6.24065560       15       0.00633677      -0.03927944      -0.04884313
Ge       3.13949027       9.15419909       9.03100622       16       0.36630489       0.09572247      -0.06058878
I        3.08007795       9.17857727       6.10554760       17       0.01137226       0.00558628       0.23922315
I        3.09685755       6.27353420       9.28990988       18      -0.02122595       0.14251713      -0.05349704
I       12.29337791       9.22074211       9.20926453       19      -0.03549663       0.04712844      -0.01827381
Cs       6.17646719      12.12518190       0.06428101       20       0.00954242       0.03372571       0.02387358
Ge       9.27195326       3.11284597       3.15342131       21      -0.44633504      -0.20956975      -0.53687401
I        9.25562877       3.00194289       0.27548941       22       0.04872849       0.02348296      -0.71987532
I        9.30733433      12.31793506       3.01275788       23      -0.04170373      -0.16939853       0.15279824
I        6.35254639       3.11224972       3.00433596       24      -0.63522018      -0.01988843       0.06189037
Cs       6.23388988      12.17147698       6.22804425       25      -0.05126198       0.03276056      -0.05587697
Pb       9.29678419       3.09854539       9.10980773       26      -0.36288769       0.27822897       0.22712226
I        9.12453302       3.17629118       5.94577615       27      -0.03459690      -0.01768342       0.80026557
I        9.18256662      12.21142087       9.21999378       28       0.02576334       0.02986568       0.00082500
I        6.16102097       3.07584256       9.24749232       29       0.01826662       0.00128657       0.00620615
Cs       6.08385988       6.17154269       0.06477053       30       0.03978320       0.00943808       0.01785163
Ge       9.15158412       9.14609943       2.96574914       31      -0.38845334       0.06966515      -0.34120233
I        9.25031909       9.29473191       0.11535262       32      -0.03503136      -0.07815943       0.26784773
I        9.19880193       6.15300678       2.92146552       33       0.04172821       0.31602747       0.06989246
I        6.13558939       9.20439069       3.14351360       34       0.52716995      -0.01078456      -0.01602080
Cs       6.07692851       6.25074195       6.11452111       35       0.00218248      -0.03110313      -0.01717838
Ge       9.42432104       9.35505222       9.00316474       36      -0.12406995      -0.34136260       0.12974075
I        9.11108500       9.20085214       6.28446016       37       0.13076040       0.08420670      -0.26527733
I        9.26271221       6.30371849       9.09670359       38      -0.01335968      -0.09616826       0.10001430
I        6.17152527       9.30596735       9.17314903       39      -0.35535093      -0.05215421       0.03772961
40
Lattice="12.285355413667483 0.0 0.0 0.0 12.286119891024663 0.0 0.0 3.075912684029202e-14 12.285355413667462" Properties=species:S:1:pos:R:3:spacegroup_kinds:I:1:forces:R:3 spacegroup="P 1" unit_cell=conventional occupancy="_JSON {\"0\": {\"Cs\": 1.0}, \"1\": {\"Pb\": 1.0}, \"2\": {\"I\": 1.0}, \"3\": {\"I\": 1.0}, \"4\": {\"I\": 1.0}, \"5\": {\"Cs\": 1.0}, \"6\": {\"Pb\": 1.0}, \"7\": {\"I\": 1.0}, \"8\": {\"I\": 1.0}, \"9\": {\"I\": 1.0}, \"10\": {\"Cs\": 1.0}, \"11\": {\"Ge\": 1.0}, \"12\": {\"I\": 1.0}, \"13\": {\"I\": 1.0}, \"14\": {\"I\": 1.0}, \"15\": {\"Cs\": 1.0}, \"16\": {\"Ge\": 1.0}, \"17\": {\"I\": 1.0}, \"18\": {\"I\": 1.0}, \"19\": {\"I\": 1.0}, \"20\": {\"Cs\": 1.0}, \"21\": {\"Ge\": 1.0}, \"22\": {\"I\": 1.0}, \"23\": {\"I\": 1.0}, \"24\": {\"I\": 1.0}, \"25\": {\"Cs\": 1.0}, \"26\": {\"Pb\": 1.0}, \"27\": {\"I\": 1.0}, \"28\": {\"I\": 1.0}, \"29\": {\"I\": 1.0}, \"30\": {\"Cs\": 1.0}, \"31\": {\"Ge\": 1.0}, \"32\": {\"I\": 1.0}, \"33\": {\"I\": 1.0}, \"34\": {\"I\": 1.0}, \"35\": {\"Cs\": 1.0}, \"36\": {\"Ge\": 1.0}, \"37\": {\"I\": 1.0}, \"38\": {\"I\": 1.0}, \"39\": {\"I\": 1.0}}" candidate_id=d0a0242ae28a546d formula=CsGe0.6Pb0.4I3 config_index=2 rattle_stdev=0.08 method=PBE fidelity=phase2_force energy=-111.4898499088796 stress="-0.0026933263152632593 7.345670299918383e-05 7.708204912844428e-05 7.345670299918383e-05 -0.0028692943444232084 -2.6427121407750355e-05 7.708204912844428e-05 -2.6427121407750355e-05 -0.0026598005084712065" pbc="T T T"
Cs      12.23693779      12.08434871       0.18220273        0       0.02251923       0.01713256      -0.08207561
Pb       2.95478019       3.04542431       2.97054713        1       0.43834420       0.23136556       0.30399149
I        3.10140817       3.00127818      -0.01680976        2       0.00130713      -0.00197046      -0.18545777
I        3.09507167      12.22405634       2.94581923        3      -0.02039484      -0.38597231       0.05905688
I       12.27823351       3.11104692       3.06088194        4      -0.55215728       0.02571794      -0.02291129
Cs      12.21370517      12.09258085       6.06587978        5      -0.01234725      -0.00744775       0.05825057
Pb       3.01390514       3.16924144       9.15184056        6       0.52602568       0.16450716       0.08662990
I        3.02425680       3.06692046       6.13785580        7       0.04640763      -0.10284570      -0.20401453
I        2.97668277      11.98845761       9.28699705        8       0.01227166       0.82176372      -0.00094808
I       12.30718078       3.01586845       9.03091481        9      -0.16449717      -0.03951131      -0.01366376
Cs      12.18297551       6.17642468       0.04686523       10       0.03514907       0.01179894      -0.01321432
Ge       3.02900332       9.27700951       3.05527368       11       0.22516701      -0.20415795      -0.00756644
I        3.03289017       9.13176895      -0.03612644       12       0.01929635      -0.03540209       0.34845003
I        3.13453007       6.22719664       3.24814168       13      -0.01411848       0.28633999      -0.08096881
I       12.17108268       9.19546213       3.08872611       14       0.27114197      -0.03521574       0.01382980
Cs      12.21776401       6.26557605       6.11180928       15       0.00480127       0.00136400       0.00996316
Ge       3.05557636       9.32234463       9.24163048       16      -0.27146709      -0.49967404      -0.07206717
I        3.11595041       9.16696711       6.19721197       17      -0.03618668       0.09482494      -0.28239738
I        3.17783907       6.25842020       9.17515610       18      -0.01358360      -0.38894263       0.03377711
I       12.36741624       9.00696132       9.22737081       19       0.10912879       0.07030108      -0.00666672
Cs       6.26519506      12.02578792       0.10009186       20      -0.03266773       0.07357509      -0.05705928
Ge       9.17400754       2.88398652       3.06270544       21      -0.23783955       0.01644196       0.15511830
I        9.09379355       3.11063227       0.11118992       22       0.09451549       0.01788106      -0.14409351
I        9.29861716      12.20903647       3.06533157       23      -0.03240592       0.24238207       0.00087513
I        6.28954951       3.23943573       3.04409582       24       0.11219627      -0.16343067      -0.00257460
Cs       6.13984588      12.06690448       6.12040505       25       0.02261890       0.04100415       0.03213926
Pb       9.30411813       3.10365284       9.27526339       26      -0.48049388      -0.05570723      -0.08821049
I        9.10576636       3.11743865       5.96962254       27       0.07105688      -0.07574307       0.13645765
I        9.26563168      12.04760584       9.36599564       28       0.04668821       0.69065219      -0.01277249
I        6.17121487       3.11152760       9.16388927       29       0.03958637      -0.07364554      -0.01212252
Cs       6.10184755       6.19620119       0.05574280       30      -0.01808786      -0.01982775      -0.00882043
Ge       9.25690392       9.12859012       2.89391047       31      -0.18030675      -0.32685405       0.12327827
I        9.26577098       9.18880305      -0.01155129       32      -0.00063080      -0.06881215       0.30529022
I        9.03094282       6.14163443       3.14776396       33       0.15307775       0.34748565      -0.09335423
I        6.18131060       9.37954411       3.07633569       34      -0.28074900      -0.06051347      -0.03050362
Cs       6.18230568       6.22242170       6.13315573       35      -0.01491614      -0.01416269       0.00534472
Ge       9.14896728       9.20646532       9.24967362       36      -0.10564732       0.09395675      -0.46223495
I        9.11200627       9.22321646       6.20860282       37       0.09332518       0.07832938       0.03823551
I        9.20146839       6.39630199       9.09623549       38       0.05756677      -0.83947468       0.06398499
I        6.21605328       9.14311876       9.17009891       39       0.06052107       0.07535674       0.10616386
40
Lattice="12.285355413667483 0.0 0.0 0.0 12.286119891024663 0.0 0.0 3.075912684029202e-14 12.285355413667462" Properties=species:S:1:pos:R:3:spacegroup_kinds:I:1:forces:R:3 spacegroup="P 1" unit_cell=conventional occupancy="_JSON {\"0\": {\"Cs\": 1.0}, \"1\": {\"Pb\": 1.0}, \"2\": {\"I\": 1.0}, \"3\": {\"I\": 1.0}, \"4\": {\"I\": 1.0}, \"5\": {\"Cs\": 1.0}, \"6\": {\"Pb\": 1.0}, \"7\": {\"I\": 1.0}, \"8\": {\"I\": 1.0}, \"9\": {\"I\": 1.0}, \"10\": {\"Cs\": 1.0}, \"11\": {\"Ge\": 1.0}, \"12\": {\"I\": 1.0}, \"13\": {\"I\": 1.0}, \"14\": {\"I\": 1.0}, \"15\": {\"Cs\": 1.0}, \"16\": {\"Ge\": 1.0}, \"17\": {\"I\": 1.0}, \"18\": {\"I\": 1.0}, \"19\": {\"I\": 1.0}, \"20\": {\"Cs\": 1.0}, \"21\": {\"Ge\": 1.0}, \"22\": {\"I\": 1.0}, \"23\": {\"I\": 1.0}, \"24\": {\"I\": 1.0}, \"25\": {\"Cs\": 1.0}, \"26\": {\"Pb\": 1.0}, \"27\": {\"I\": 1.0}, \"28\": {\"I\": 1.0}, \"29\": {\"I\": 1.0}, \"30\": {\"Cs\": 1.0}, \"31\": {\"Ge\": 1.0}, \"32\": {\"I\": 1.0}, \"33\": {\"I\": 1.0}, \"34\": {\"I\": 1.0}, \"35\": {\"Cs\": 1.0}, \"36\": {\"Ge\": 1.0}, \"37\": {\"I\": 1.0}, \"38\": {\"I\": 1.0}, \"39\": {\"I\": 1.0}}" candidate_id=d0a0242ae28a546d formula=CsGe0.6Pb0.4I3 config_index=3 rattle_stdev=0.08 method=PBE fidelity=phase2_force energy=-111.18914657387025 stress="-0.0030974753097703246 7.891888288871574e-05 -3.1230749370701624e-05 7.891888288871574e-05 -0.0025748704864808816 -4.077220680551304e-05 -3.1230749370701624e-05 -4.077220680551304e-05 -0.0028177984227416523" pbc="T T T"
Cs      12.14027135      12.33181406       0.04320574        0       0.05524901       0.01658372      -0.00443847
Pb       3.05232516       3.07825979       3.14810223        1      -0.27075103      -0.21446338      -1.02812696
I        3.01681097       3.11385560      -0.05080516        2       0.02190389       0.01595084      -0.08634721
I        3.18373535      12.11000895       2.96686800        3       0.01383045      -0.00994504       0.01827268
I       12.07562840       2.94185531       2.96894097        4       0.48558819       0.08311354       0.03768025
Cs      12.22801110      12.10242894       6.04281792        5      -0.01731237       0.02176733       0.00328631
Pb       3.09239252       2.86711453       9.08039389        6      -0.12762081       0.27952231       0.54157506
I        3.01440004       2.87578792       6.02935462        7      -0.04971952      -0.05480121       0.63358969
I        3.12442866      12.01005028       9.15078378        8      -0.05685697       0.90685284       0.04003621
I       12.15397745       2.97636678       9.39535177        9       0.77830011       0.03222066       0.03499353
Cs      12.20781261       6.33043913      -0.10499448       10       0.03405571      -0.08856052       0.02187069
Ge       3.03204168       9.11863019       3.00692123       11      -0.10462909       0.32186295      -0.15975529
I        3.18380434       9.19616467      -0.05300341       12      -0.07715764      -0.04748557       0.53948875
I        3.05833185       6.24688606       3.19246827       13      -0.00183302       0.03651187      -0.00025189
I       12.14329574       9.26727229       3.04380955       14       0.79161864      -0.09079750       0.01683419
Cs      12.18525898       6.27246811       6.05069385       15      -0.02372813      -0.01317255       0.02049385
Ge       3.11555449       9.24519858       9.18431333       16       0.02512109      -0.67723531      -0.10622392
I        3.19759037       9.23193372       6.23551273       17      -0.03872479       0.01387546      -0.30804645
I        3.12985730       6.37074252       9.16759207       18      -0.02312035      -0.57490397      -0.02063880
I       12.27331594       9.08780073       9.20803925       19      -0.22574388       0.06588683       0.01344946
Cs       6.27798300      12.14924001      -0.01274339       20      -0.03094783       0.03257459       0.01525179
Ge       9.06229363       2.94830605       3.03991299       21       0.40347451       0.15037986       0.01561447
I        9.18085809       3.12841540       0.20684623       22      -0.08075021      -0.00873199      -0.43974579
I        9.40580347      12.26499931       2.99026816       23      -0.19586348      -0.26683022       0.04967343
I        6.26263741       3.13920815       3.11088757       24      -0.43215608      -0.05764538       0.03679516
Cs       6.20436935      12.21224110       6.12868646       25       0.02801860      -0.03250820      -0.01320241
Pb       9.23218747       3.04030273       9.15657515       26      -0.34214802      -0.04942410      -0.10315768
I        9.33754545       3.00249436       5.95852730       27      -0.01817857      -0.02059878       0.45219316
I        9.22072071      12.26232115       9.11966958       28      -0.02077417      -0.65621007       0.07618531
I        6.12196783       3.03765883       9.25876351       29      -0.20987946      -0.00545229      -0.01721645
Cs       6.13589871       6.26440580       0.10877699       30       0.00276668      -0.05023786      -0.04767926
Ge       9.24720928       9.19649114       3.13178630       31      -0.22836298      -0.13295121       0.13129750
I        9.23202695       9.17940967       0.05458019       32       0.01928649       0.00280668      -0.11025586
I        9.14232670       6.03664205       3.21073758       33       0.09998102       0.31138584      -0.04073211
I        6.37847760       9.16069190       3.00965691       34      -0.50548185       0.05738598       0.04686249
Cs       6.26651767       6.35036305       6.11292697       35      -0.00497913      -0.00987791       0.03634279
Ge       9.21501603       9.15862820       9.36412049       36       0.13024451      -0.00213762      -0.13129508
I        9.17796389       9.19009118       6.25344321       37       0.02175453       0.02056119      -0.17089696
I        9.16172928       6.11987112       9.26244472       38      -0.01550127       0.68954972       0.01272782
I        6.10482457       9.23118910       9.30172873       39       0.19180876       0.00203000      -0.00703380
