K  Sn Br Cs Sn Br K  Sn Br K  Sn Br K  Sn Br Cs Sn Br K  Sn Br K  Sn Br
 1.0000000000000000
    12.5600549115041673    0.0000000000000000    0.0000000000000000
     0.0000000000000000   12.5600549115041673    0.0000000000000000
     0.0000000000000000    0.0000000000000000   12.5600549115041673
 K   Sn  Br  Cs  Sn  Br  K   Sn  Br  K   Sn  Br  K   Sn  Br  Cs  Sn  Br  K   Sn  Br  K   Sn  Br 
   1   1   3   1   1   3   1   1   3   1   1   3   1   1   3   1   1   3   1   1   3   1   1   3
Cartesian
  0.0000000000000000  0.0000000000000000  0.0000000000000000
  3.1400137278760409  3.1400137278760409  3.1400137278760409
  3.1400137278760409  3.1400137278760409  0.0000000000000000
  3.1400137278760409  0.0000000000000000  3.1400137278760409
  0.0000000000000000  3.1400137278760409  3.1400137278760409
  0.0000000000000000  0.0000000000000000  6.2800274557520828
  3.1400137278760409  3.1400137278760409  9.4200411836281255
  3.1400137278760409  3.1400137278760409  6.2800274557520828
  3.1400137278760409  0.0000000000000000  9.4200411836281255
  0.0000000000000000  3.1400137278760409  9.4200411836281255
  0.0000000000000000  6.2800274557520828  0.0000000000000000
  3.1400137278760409  9.4200411836281255  3.1400137278760409
  3.1400137278760409  9.4200411836281255  0.0000000000000000
  3.1400137278760409  6.2800274557520828  3.1400137278760409
  0.0000000000000000  9.4200411836281255  3.1400137278760409
  0.0000000000000000  6.2800274557520828  6.2800274557520828
  3.1400137278760409  9.4200411836281255  9.4200411836281255
  3.1400137278760409  9.4200411836281255  6.2800274557520828
  3.1400137278760409  6.2800274557520828  9.4200411836281255
  0.0000000000000000  9.4200411836281255  9.4200411836281255
  6.2800274557520828  0.0000000000000000  0.0000000000000000
  9.4200411836281255  3.1400137278760409  3.1400137278760409
  9.4200411836281255  3.1400137278760409  0.0000000000000000
  9.4200411836281255  0.0000000000000000  3.1400137278760409
  6.2800274557520828  3.1400137278760409  3.1400137278760409
  6.2800274557520828  0.0000000000000000  6.2800274557520828
  9.4200411836281255  3.1400137278760409  9.4200411836281255
  9.4200411836281255  3.1400137278760409  6.2800274557520828
  9.4200411836281255  0.0000000000000000  9.4200411836281255
  6.2800274557520828  3.1400137278760409  9.4200411836281255
  6.2800274557520828  6.2800274557520828  0.0000000000000000
  9.4200411836281255  9.4200411836281255  3.1400137278760409
  9.4200411836281255  9.4200411836281255  0.0000000000000000
  9.4200411836281255  6.2800274557520828  3.1400137278760409
  6.2800274557520828  9.4200411836281255  3.1400137278760409
  6.2800274557520828  6.2800274557520828  6.2800274557520828
  9.4200411836281255  9.4200411836281255  9.4200411836281255
  9.4200411836281255  9.4200411836281255  6.2800274557520828
  9.4200411836281255  6.2800274557520828  9.4200411836281255
  6.2800274557520828  9.4200411836281255  9.4200411836281255
