40
Lattice="12.583502813277452 0.0 0.0 0.006150144631234978 12.505584678342627 0.0 -0.005614703771441228 0.001377570986258371 12.656903228702895" Properties=species:S:1:pos:R:3:spacegroup_kinds:I:1:forces:R:3 spacegroup="P 1" unit_cell=conventional occupancy="_JSON {\"0\": {\"Cs\": 1.0}, \"1\": {\"Pb\": 1.0}, \"2\": {\"I\": 1.0}, \"3\": {\"I\": 1.0}, \"4\": {\"I\": 1.0}, \"5\": {\"Cs\": 1.0}, \"6\": {\"Pb\": 1.0}, \"7\": {\"I\": 1.0}, \"8\": {\"I\": 1.0}, \"9\": {\"I\": 1.0}, \"10\": {\"Cs\": 1.0}, \"11\": {\"Pb\": 1.0}, \"12\": {\"Br\": 1.0}, \"13\": {\"Br\": 1.0}, \"14\": {\"I\": 1.0}, \"15\": {\"Cs\": 1.0}, \"16\": {\"Pb\": 1.0}, \"17\": {\"I\": 1.0}, \"18\": {\"Br\": 1.0}, \"19\": {\"I\": 1.0}, \"20\": {\"Cs\": 1.0}, \"21\": {\"Pb\": 1.0}, \"22\": {\"I\": 1.0}, \"23\": {\"I\": 1.0}, \"24\": {\"Br\": 1.0}, \"25\": {\"Cs\": 1.0}, \"26\": {\"Pb\": 1.0}, \"27\": {\"I\": 1.0}, \"28\": {\"I\": 1.0}, \"29\": {\"I\": 1.0}, \"30\": {\"Cs\": 1.0}, \"31\": {\"Pb\": 1.0}, \"32\": {\"I\": 1.0}, \"33\": {\"Br\": 1.0}, \"34\": {\"I\": 1.0}, \"35\": {\"Cs\": 1.0}, \"36\": {\"Pb\": 1.0}, \"37\": {\"I\": 1.0}, \"38\": {\"I\": 1.0}, \"39\": {\"Br\": 1.0}}" candidate_id=d52426d1f8ea9071 formula=FAPbBr0.25I0.753 config_index=0 rattle_stdev=0.0 method=PBE fidelity=phase2_force energy=-116.68224459681745 stress="-0.00027000840701966956 -1.6054412116961694e-05 5.478354887862344e-06 -1.6054412116961694e-05 0.0002535129936827558 -1.9013397694096153e-05 5.478354887862344e-06 -1.9013397694096153e-05 -0.0007533951499541303" pbc="T T T"
Cs       0.04703172      12.46815809       0.01087183        0       0.00681657      -0.01503844      -0.00497426
Pb       3.25826709       3.24890835       3.15841265        1       0.00607869       0.02391839      -0.00571193
I        3.23407795       3.30917009       0.00733786        2      -0.00752811       0.00375729      -0.01317580
I        3.20848306      12.50450491       3.10106022        3      -0.00443746      -0.00119022       0.00111069
I        0.00243739       3.28138962       3.17567829        4      -0.00124589      -0.01090784       0.00180193
Cs       0.01479242      12.50139127       6.31275891        5      -0.00891781       0.00372505       0.00106010
Pb       3.15611497       3.24843616       9.49920941        6       0.01555115       0.00824494       0.00664569
I        3.22465127       3.27065794       6.32257242        7      -0.00542862      -0.00152208       0.01472385
I        3.23275183      12.49626649       9.58031240        8      -0.00645018      -0.01591496       0.00188957
I        0.00346382       3.16876007       9.48050697        9      -0.00704063      -0.00850193      -0.00437129
Cs       0.04150197       6.27428725       0.02165702       10       0.01618328       0.00681489       0.00419061
Pb       3.16289937       9.25541025       3.03780642       11       0.01223925      -0.01730104      -0.01206027
Br       3.19273982       9.29286728       0.01668933       12       0.00959513      -0.02661099      -0.01891155
Br       3.18913390       6.25518593       3.12284246       13       0.00734709      -0.00318232      -0.01379889
I        0.01070956       9.23142141       3.08901120       14      -0.01617910      -0.00016246       0.00058096
Cs       0.03772831       6.26166540       6.30559169       15       0.00351044      -0.00185485      -0.00841686
Pb       3.23951192       9.26849575       9.58831383       16      -0.00243887      -0.01930602       0.01302867
I        3.23082970       9.22329897       6.34369646       17      -0.01039202       0.01671764       0.00694010
Br       3.18948901       6.24693745       9.54454117       18       0.00956561       0.04292257       0.01757374
I        0.02080171       9.30887941       9.58983189       19       0.01793225       0.01028192      -0.00251602
Cs       6.26645810      12.48857982       0.01668949       20      -0.00332215      -0.00777987      -0.00383993
Pb       9.32508674       3.24340252       3.16423387       21      -0.00486943       0.02436607       0.00506159
I        9.34771170       3.21109594       0.00981430       22       0.00323696      -0.00935143      -0.01476875
I        9.38052441      12.50586461       3.17775751       23       0.00316175       0.01538388       0.00136927
Br       6.28685436       3.20806113       3.16920320       24       0.00128132       0.02516832       0.00502248
Cs       6.27811760      12.50181715       6.31745401       25       0.00527210       0.00648565       0.00361614
Pb       9.42834842       3.13612408       9.49477067       26      -0.01193827       0.00805703      -0.00215959
I        9.35253461       3.20067097       6.32007079       27       0.00236662      -0.00715176       0.01460858
I        9.38905074      12.50363762       9.47757247       28       0.00412318       0.00738029      -0.00461710
I        6.28358938       3.19649306       9.48498136       29       0.00669330      -0.01037602      -0.00672061
Cs       6.26175532       6.26949332       0.00921745       30      -0.01344851       0.00727912       0.00115311
Pb       9.43046356       9.26185364       3.15948122       31      -0.01018634      -0.01098948      -0.00196924
I        9.37183182       9.31279579       0.00047060       32       0.00371367       0.01403560      -0.00501312
Br       9.39922745       6.26147242       3.16810720       33      -0.00972946      -0.03400893       0.00689262
I        6.28737261       9.18224996       3.06964368       34       0.01588036      -0.00432031       0.00082007
Cs       6.26396217       6.26056503       6.31513745       35       0.00178667      -0.00561588      -0.00920918
Pb       9.30015367       9.36927940       9.49844307       36       0.00143132      -0.01296808       0.01206966
I        9.38528050       9.32179967       6.32524909       37       0.00540984       0.00877602       0.00106703
I        9.35477302       6.25890499       9.48562080       38       0.00459782      -0.00401645      -0.00773609
Br       6.30330026       9.34582021       9.53783101       39      -0.04068159      -0.00481926       0.01610141
40
Lattice="12.583502813277452 0.0 0.0 0.006150144631234978 12.505584678342627 0.0 -0.005614703771441228 0.001377570986258371 12.656903228702895" Properties=species:S:1:pos:R:3:spacegroup_kinds:I:1:forces:R:3 spacegroup="P 1" unit_cell=conventional occupancy="_JSON {\"0\": {\"Cs\": 1.0}, \"1\": {\"Pb\": 1.0}, \"2\": {\"I\": 1.0}, \"3\": {\"I\": 1.0}, \"4\": {\"I\": 1.0}, \"5\": {\"Cs\": 1.0}, \"6\": {\"Pb\": 1.0}, \"7\": {\"I\": 1.0}, \"8\": {\"I\": 1.0}, \"9\": {\"I\": 1.0}, \"10\": {\"Cs\": 1.0}, \"11\": {\"Pb\": 1.0}, \"12\": {\"Br\": 1.0}, \"13\": {\"Br\": 1.0}, \"14\": {\"I\": 1.0}, \"15\": {\"Cs\": 1.0}, \"16\": {\"Pb\": 1.0}, \"17\": {\"I\": 1.0}, \"18\": {\"Br\": 1.0}, \"19\": {\"I\": 1.0}, \"20\": {\"Cs\": 1.0}, \"21\": {\"Pb\": 1.0}, \"22\": {\"I\": 1.0}, \"23\": {\"I\": 1.0}, \"24\": {\"Br\": 1.0}, \"25\": {\"Cs\": 1.0}, \"26\": {\"Pb\": 1.0}, \"27\": {\"I\": 1.0}, \"28\": {\"I\": 1.0}, \"29\": {\"I\": 1.0}, \"30\": {\"Cs\": 1.0}, \"31\": {\"Pb\": 1.0}, \"32\": {\"I\": 1.0}, \"33\": {\"Br\": 1.0}, \"34\": {\"I\": 1.0}, \"35\": {\"Cs\": 1.0}, \"36\": {\"Pb\": 1.0}, \"37\": {\"I\": 1.0}, \"38\": {\"I\": 1.0}, \"39\": {\"Br\": 1.0}}" candidate_id=d52426d1f8ea9071 formula=FAPbBr0.25I0.753 config_index=1 rattle_stdev=0.08 method=PBE fidelity=phase2_force energy=-116.05719669995625 stress="-0.0017547306483657803 -2.0453433755653586e-05 1.1074306007200584e-05 -2.0453433755653586e-05 -0.0006776689135696193 -0.00014757431174748244 1.1074306007200584e-05 -0.00014757431174748244 -0.0031747723686158746" pbc="T T T"
Cs      -0.03988399      12.39647288      -0.01363212        0      -0.02896227       0.01480429       0.02336399
Pb       3.15107240       3.15238150       3.10707451        1       0.21880290       0.25090881       0.25824519
I        3.33871360       3.45680693       0.07366706        2      -0.08937777      -0.06653795      -0.10263582
I        3.20661916      12.48781980       3.02773064        3      -0.00890044       0.02249830      -0.00244206
I       -0.08354202       3.27449814       3.26974537        4       0.41196089      -0.01151596       0.01450931
Cs      -0.11601492      12.59964679       6.39886981        5       0.02389874       0.04485019      -0.04245861
Pb       3.18769680       3.21742009       9.54628155        6       0.05342769      -0.02902658      -0.07412151
I        3.10998737       3.24477196       6.42281120        7       0.02578074       0.00986455      -0.21317074
I        3.17429242      12.61054530       9.65588471        8      -0.02037272      -0.41223032       0.00321820
I       -0.01765640       3.15570301       9.40337839        9       0.15872333      -0.00675536       0.01484113
Cs       0.01409019       6.27819957      -0.01831353       10       0.00133551      -0.02507160       0.03034819
Pb       2.98594701       9.28019720       2.91063431       11       1.01192891      -0.24371809      -0.15246861
Br       3.25109619       9.28423518      -0.03532439       12      -0.05610847      -0.00578586      -0.01158680
Br       3.05368938       6.22570800       2.99561272       13       0.00093611       0.04007586       0.04828431
I        0.12915003       9.26937663       3.16212031       14      -1.02633412       0.01115594       0.07760501
Cs       0.11456593       6.26842881       6.44297016       15       0.01983100      -0.03951660      -0.01926105
Pb       3.30766334       9.20810492       9.40530349       16       0.22358945       0.06899604       0.26352375
I        3.23956879       9.18728632       6.31065866       17      -0.01711784       0.01097107      -0.03505447
Br       3.21500771       6.20364882       9.62043449       18      -0.01037329       0.39380832      -0.03525116
I        0.03291652       9.31503160       9.58507986       19       0.16258494       0.02778754      -0.01202131
Cs       6.26084700      12.44328790       0.04156992       20       0.01858965       0.00519771       0.01554479
Pb       9.38302345       3.28471852       3.24631632       21      -0.34280405      -0.17797283      -0.50705281
I        9.38932391       3.14150885       0.12985951       22       0.04364483       0.00277890      -0.48657396
I        9.47384218      12.54521777       3.11917653       23       0.00687498      -0.12075452       0.10517283
Br       6.34127885       3.24878088       3.10220030       24      -0.27659037       0.01241661       0.05941181
Cs       6.32992919      12.50282030       6.44222114       25      -0.02491713       0.00776091      -0.01571443
Pb       9.51111605       3.16313949       9.39056183       26      -0.23974227       0.29828916       0.36184498
I        9.26305107       3.30543218       6.27861343       27      -0.02709847      -0.04466156       0.46681953
I        9.35760079      12.58707510       9.48354969       28       0.00045158      -0.17546559      -0.01442556
I        6.29074434       3.20080565       9.51845712       29       0.03168213      -0.00922883      -0.00939011
Cs       6.16353691       6.18233000       0.03458740       30       0.05464289       0.03858178       0.04439770
Pb       9.36803111       9.19336316       3.05389151       31      -0.09052498       0.17585079       0.29284988
I        9.40813435       9.39293778       0.11356937       32       0.03605185       0.01071785      -0.46012382
Br       9.38401282       6.26388126       3.01823386       33       0.03570129       0.06325734       0.01258271
I        6.27803045       9.17205073       3.14181843       34       0.12570178       0.00522016       0.04240977
Cs       6.15881240       6.25260097       6.32638144       35       0.00617710      -0.03259748      -0.02077810
Pb       9.51045814       9.50974170       9.28759124       36      -0.27812071      -0.35191208       1.09308951
I        9.28234894       9.30806189       6.46928539       37      -0.01430534       0.02228823      -1.08078113
I        9.40346867       6.26142704       9.36830782       38       0.00733651       0.21504189       0.07380640
Br       6.32805552       9.43719764       9.49696348       39      -0.13131390       0.00114459      -0.00468687
40
Lattice="12.583502813277452 0.0 0.0 0.006150144631234978 12.505584678342627 0.0 -0.005614703771441228 0.001377570986258371 12.656903228702895" Properties=species:S:1:pos:R:3:spacegroup_kinds:I:1:forces:R:3 spacegroup="P 1" unit_cell=conventional occupancy="_JSON {\"0\": {\"Cs\": 1.0}, \"1\": {\"Pb\": 1.0}, \"2\": {\"I\": 1.0}, \"3\": {\"I\": 1.0}, \"4\": {\"I\": 1.0}, \"5\": {\"Cs\": 1.0}, \"6\": {\"Pb\": 1.0}, \"7\": {\"I\": 1.0}, \"8\": {\"I\": 1.0}, \"9\": {\"I\": 1.0}, \"10\": {\"Cs\": 1.0}, \"11\": {\"Pb\": 1.0}, \"12\": {\"Br\": 1.0}, \"13\": {\"Br\": 1.0}, \"14\": {\"I\": 1.0}, \"15\": {\"Cs\": 1.0}, \"16\": {\"Pb\": 1.0}, \"17\": {\"I\": 1.0}, \"18\": {\"Br\": 1.0}, \"19\": {\"I\": 1.0}, \"20\": {\"Cs\": 1.0}, \"21\": {\"Pb\": 1.0}, \"22\": {\"I\": 1.0}, \"23\": {\"I\": 1.0}, \"24\": {\"Br\": 1.0}, \"25\": {\"Cs\": 1.0}, \"26\": {\"Pb\": 1.0}, \"27\": {\"I\": 1.0}, \"28\": {\"I\": 1.0}, \"29\": {\"I\": 1.0}, \"30\": {\"Cs\": 1.0}, \"31\": {\"Pb\": 1.0}, \"32\": {\"I\": 1.0}, \"33\": {\"Br\": 1.0}, \"34\": {\"I\": 1.0}, \"35\": {\"Cs\": 1.0}, \"36\": {\"Pb\": 1.0}, \"37\": {\"I\": 1.0}, \"38\": {\"I\": 1.0}, \"39\": {\"Br\": 1.0}}" candidate_id=d52426d1f8ea9071 formula=FAPbBr0.25I0.753 config_index=2 rattle_stdev=0.08 method=PBE fidelity=phase2_force energy=-116.17273891527542 stress="-0.0015199773222093244 1.0290709774923133e-05 -1.0069087739849524e-05 1.0290709774923133e-05 -0.001045778874990692 -1.2014068357761223e-05 -1.0069087739849524e-05 -1.2014068357761223e-05 -0.001599580416285501" pbc="T T T"
Cs       0.03801468      12.38203297       0.15367398        0       0.02329909      -0.01881477      -0.06521126
Pb       3.14170842       3.22280268       3.05762094        1       0.53289409       0.27210468       0.21967581
I        3.26414727       3.23891831      -0.02066020        2      -0.04059924       0.02744171      -0.08176435
I        3.23221588      12.60057787       2.97554060        3      -0.03353696      -0.54228859       0.02971303
I        0.15075969       3.32090657       3.16522137        4      -0.73403571      -0.00806805      -0.02562924
Cs      -0.01745724      12.42349829       6.27536157        5      -0.02030808      -0.00525517       0.05086372
Pb       3.09868126       3.34614762       9.43703341        6       0.44085338      -0.05640877       0.00978182
I        3.17756922       3.26604843       6.32893881        7       0.00861186      -0.08166869      -0.10006615
I        3.13809574      12.37236709       9.65329289        8       0.00878645       0.39976013       0.00358421
I        0.03647748       3.11309855       9.29740522        9      -0.18436120      -0.01107969       0.00713339
Cs      -0.02147735       6.19200591       0.02912167       10       0.03691250       0.02479238      -0.02942295
Pb       3.12056384       9.31782984       3.02174124       11       0.25417543      -0.22504728       0.03992614
Br       3.15429113       9.21004631      -0.02352942       12       0.01155155      -0.02895303       0.31478031
Br       3.25232512       6.18118612       3.29964528       13      -0.02316428       0.43823388      -0.08416296
I       -0.10130934       9.21229362       3.10639846       14       0.63326107       0.00377474       0.03400105
Cs       0.00953748       6.26853544       6.31412385       15       0.00598735       0.00722472       0.01407548
Pb       3.22374943       9.37625046       9.61592775       16      -0.02995820      -0.37461333      -0.07067721
I        3.27544125       9.17567616       6.40232303       17      -0.04541277       0.09381584      -0.27529424
Br       3.29598923       6.18853482       9.50568071       18      -0.02304393       0.06501896       0.03550315
I        0.10695485       9.10125081       9.60318615       19      -0.07454022       0.01886291      -0.00454125
Cs       6.34957487      12.34389391       0.07738076       20      -0.02948386       0.03123596      -0.04089091
Pb       9.28507772       3.05585906       3.15560045       21      -0.22833861       0.35962339       0.13174748
I        9.22748868       3.25019823      -0.03443998       22       0.05948348       0.02424075       0.17556304
I        9.46512501      12.43631918       3.17175022       23       0.02201938       0.11506883      -0.00986202
Br       6.27828196       3.37596690       3.14196017       24       0.32894572      -0.10330220      -0.01840407
Cs       6.23588519      12.39824780       6.33458193       25       0.02015286      -0.00017191       0.03312564
Pb       9.51844999       3.16824695       9.55601749       26      -0.37317239      -0.06004431      -0.24168237
I        9.24428441       3.24657965       6.30245982       27       0.05249497      -0.07250122      -0.04039593
I        9.44066585      12.42326008       9.62955156       28       0.04856890       0.55895421       0.01705812
I        6.30093824       3.23649069       9.43485407       29       0.05312523      -0.08038797      -0.00117680
Cs       6.18152458       6.20698850       0.02555967       30      -0.02419844      -0.02564736       0.01820574
Pb       9.47335092       9.17585385       2.98205284       31      -0.46389419      -0.22725790       0.61346983
I        9.42358624       9.28700893      -0.01333454       32       0.02667430      -0.01570863      -0.01326170
Br       9.21615371       6.25250891       3.24453230       33       0.08411733      -0.09598769      -0.05780124
I        6.32375166       9.34720416       3.07464052       34      -0.39951350       0.05423686      -0.02682884
Cs       6.26418957       6.22428072       6.34501605       35      -0.00112918      -0.01739916      -0.03526546
Pb       9.23510439       9.36115480       9.53410012       36       0.18056737       0.09798839      -0.39622224
I        9.28327021       9.33042621       6.39342804       37       0.05464058       0.08862244      -0.22961890
I        9.34222485       6.35401053       9.36783972       38       0.06968775      -0.68140398       0.02305584
Br       6.37258352       9.27434905       9.49391336       39      -0.22654559       0.05057646       0.07616401
40
Lattice="12.583502813277452 0.0 0.0 0.006150144631234978 12.505584678342627 0.0 -0.005614703771441228 0.001377570986258371 12.656903228702895" Properties=species:S:1:pos:R:3:spacegroup_kinds:I:1:forces:R:3 spacegroup="P 1" unit_cell=conventional occupancy="_JSON {\"0\": {\"Cs\": 1.0}, \"1\": {\"Pb\": 1.0}, \"2\": {\"I\": 1.0}, \"3\": {\"I\": 1.0}, \"4\": {\"I\": 1.0}, \"5\": {\"Cs\": 1.0}, \"6\": {\"Pb\": 1.0}, \"7\": {\"I\": 1.0}, \"8\": {\"I\": 1.0}, \"9\": {\"I\": 1.0}, \"10\": {\"Cs\": 1.0}, \"11\": {\"Pb\": 1.0}, \"12\": {\"Br\": 1.0}, \"13\": {\"Br\": 1.0}, \"14\": {\"I\": 1.0}, \"15\": {\"Cs\": 1.0}, \"16\": {\"Pb\": 1.0}, \"17\": {\"I\": 1.0}, \"18\": {\"Br\": 1.0}, \"19\": {\"I\": 1.0}, \"20\": {\"Cs\": 1.0}, \"21\": {\"Pb\": 1.0}, \"22\": {\"I\": 1.0}, \"23\": {\"I\": 1.0}, \"24\": {\"Br\": 1.0}, \"25\": {\"Cs\": 1.0}, \"26\": {\"Pb\": 1.0}, \"27\": {\"I\": 1.0}, \"28\": {\"I\": 1.0}, \"29\": {\"I\": 1.0}, \"30\": {\"Cs\": 1.0}, \"31\": {\"Pb\": 1.0}, \"32\": {\"I\": 1.0}, \"33\": {\"Br\": 1.0}, \"34\": {\"I\": 1.0}, \"35\": {\"Cs\": 1.0}, \"36\": {\"Pb\": 1.0}, \"37\": {\"I\": 1.0}, \"38\": {\"I\": 1.0}, \"39\": {\"Br\": 1.0}}" candidate_id=d52426d1f8ea9071 formula=FAPbBr0.25I0.753 config_index=3 rattle_stdev=0.08 method=PBE fidelity=phase2_force energy=-115.96966317332696 stress="-0.0015817544664217759 9.881330763187176e-05 1.878288535645531e-05 9.881330763187176e-05 -0.0009395346176011461 6.499285987988833e-05 1.878288535645531e-05 6.499285987988833e-05 -0.001560484763155472" pbc="T T T"
Cs      -0.05865176      12.62949832       0.01467698        0       0.02040311       0.05106422       0.02623097
Pb       3.23925339       3.25563816       3.23517603        1      -0.23237388      -0.23096772      -0.73076677
I        3.17955007       3.35149573      -0.05465559        2       0.00121362      -0.01020284      -0.07923958
I        3.32087956      12.48653047       2.99658936        3       0.00410851      -0.17978557       0.01373209
I       -0.05184543       3.15171496       3.07328040        4       0.13109038       0.03084275       0.03646154
Cs      -0.00315132      12.43334639       6.25229970        5      -0.03612509       0.02742357      -0.01437914
Pb       3.17716864       3.04402071       9.36558674        6      -0.04637918       0.36698996       0.45463525
I        3.16771246       3.07491589       6.22043764        7      -0.03355828      -0.02892256       0.43513885
I        3.28584163      12.39395977       9.51707962        8      -0.03400199       0.43022126       0.00202316
I       -0.11672584       3.07359687       9.66184218        9       0.52629059       0.01045614       0.00026912
Cs       0.00335975       6.34602037      -0.12273804       10       0.03253446      -0.08137923      -0.01291273
Pb       3.12360220       9.15945052       2.97338879       11       0.13218293       0.24762832      -0.02695016
Br       3.30520531       9.27444203      -0.04040639       12      -0.02904015      -0.07353009       0.39790808
Br       3.17612690       6.20087553       3.24397187       13      -0.01029333       0.23225517       0.00789817
I       -0.12909627       9.28410378       3.06148190       14       1.13522545      -0.04468448      -0.01793138
Cs      -0.02296754       6.27542750       6.25300841       15      -0.02853098      -0.02021711      -0.00261691
Pb       3.28372756       9.29910441       9.55861060       16      -0.09797939      -0.55808394       0.05891247
I        3.35708121       9.24064277       6.44062379       17      -0.03361608       0.03335294      -0.44409191
Br       3.24800746       6.30085714       9.49811668       18      -0.00387074      -0.21062428      -0.02665371
I        0.01285454       9.18209022       9.58385458       19      -0.11961133       0.04449334      -0.01304716
Cs       6.36236280      12.46734600      -0.03545448       20      -0.03821366       0.00569482      -0.00432723
Pb       9.17336381       3.12017860       3.13280801       21       0.28464684       0.28258264       0.05868483
I        9.31455323       3.26798136       0.06121633       22      -0.03673586      -0.03247227      -0.20967251
I        9.57231132      12.49228202       3.09668681       23      -0.06294612      -0.20696719       0.01293874
Br       6.25136986       3.27573931       3.20875192       24      -0.10580661      -0.00886986       0.03267445
Cs       6.30040866      12.54358442       6.34286335       25       0.01493027      -0.01861234       0.00612689
Pb       9.44651933       3.10489684       9.43732926       26      -0.17628124      -0.01712880       0.02677450
I        9.47606350       3.13163536       6.29136458       27       0.01225127      -0.00563220       0.10419942
I        9.39575488      12.63797539       9.38322550       28      -0.03534532      -1.09663465       0.04457579
I        6.25169121       3.16262191       9.52972831       29      -0.17170435      -0.03050160      -0.04883969
Cs       6.21557574       6.27519311       0.07859386       30      -0.02417709      -0.03996896      -0.05527447
Pb       9.46365628       9.24375486       3.21992867       31      -0.11830915      -0.17526120       0.25137538
I        9.38984221       9.27761555       0.05279694       32       0.03756511       0.01131673       0.03974113
Br       9.32753759       6.14751652       3.30750593       33       0.04951551       0.15935266       0.02197647
I        6.52091866       9.12835194       3.00796174       34      -1.18816862       0.01850549      -0.00254002
Cs       6.34840156       6.35222207       6.32478729       35       0.01956864      -0.01682882       0.00827355
Pb       9.30115314       9.31331768       9.64854700       36       0.06546113      -0.00782488      -0.28467609
I        9.34922783       9.29730092       6.43826844       37       0.01524143       0.02139489      -0.10759070
I        9.30248574       6.07757967       9.53404895       38      -0.02869860       1.10428463       0.00013538
Br       6.26135482       9.36241939       9.62554318       39       0.19407280       0.00698306       0.03593896
