Cs Sn I  Cs Sn I  Cs Sn Br I  Cs Sn I  Cs Sn I  Br Cs Sn I  Cs Sn I  Br I  Cs Sn I 
 1.0000000000000000
    13.3913296434670723    0.0000000000000000    0.0000000000000000
     0.0000000000000000   13.3913296434670723    0.0000000000000000
     0.0000000000000000    0.0000000000000000   13.3913296434670723
 Cs  Sn  I   Cs  Sn  I   Cs  Sn  Br  I   Cs  Sn  I   Cs  Sn  I   Br  Cs  Sn  I   Cs  Sn  I   Br  I   Cs  Sn  I  
   1   1   3   1   1   3   1   1   1   2   1   1   3   1   1   2   1   1   1   3   1   1   1   1   1   1   1   3
Cartesian
  0.0000000000000000  0.0000000000000000  0.0000000000000000
  3.3478324108667681  3.3478324108667681  3.3478324108667681
  3.3478324108667681  3.3478324108667681  0.0000000000000000
  3.3478324108667681  0.0000000000000000  3.3478324108667681
  0.0000000000000000  3.3478324108667681  3.3478324108667681
  0.0000000000000000  0.0000000000000000  6.6956648217335353
  3.3478324108667681  3.3478324108667681 10.0434972326003038
  3.3478324108667681  3.3478324108667681  6.6956648217335353
  3.3478324108667681  0.0000000000000000 10.0434972326003038
  0.0000000000000000  3.3478324108667681 10.0434972326003038
  0.0000000000000000  6.6956648217335353  0.0000000000000000
  3.3478324108667681 10.0434972326003038  3.3478324108667681
  3.3478324108667681 10.0434972326003038  0.0000000000000000
  3.3478324108667681  6.6956648217335353  3.3478324108667681
  0.0000000000000000 10.0434972326003038  3.3478324108667681
  0.0000000000000000  6.6956648217335353  6.6956648217335353
  3.3478324108667681 10.0434972326003038 10.0434972326003038
  3.3478324108667681 10.0434972326003038  6.6956648217335353
  3.3478324108667681  6.6956648217335353 10.0434972326003038
  0.0000000000000000 10.0434972326003038 10.0434972326003038
  6.6956648217335353  0.0000000000000000  0.0000000000000000
 10.0434972326003038  3.3478324108667681  3.3478324108667681
 10.0434972326003038  3.3478324108667681  0.0000000000000000
 10.0434972326003038  0.0000000000000000  3.3478324108667681
  6.6956648217335353  3.3478324108667681  3.3478324108667681
  6.6956648217335353  0.0000000000000000  6.6956648217335353
 10.0434972326003038  3.3478324108667681 10.0434972326003038
 10.0434972326003038  3.3478324108667681  6.6956648217335353
 10.0434972326003038  0.0000000000000000 10.0434972326003038
  6.6956648217335353  3.3478324108667681 10.0434972326003038
  6.6956648217335353  6.6956648217335353  0.0000000000000000
 10.0434972326003038 10.0434972326003038  3.3478324108667681
 10.0434972326003038 10.0434972326003038  0.0000000000000000
 10.0434972326003038  6.6956648217335353  3.3478324108667681
  6.6956648217335353 10.0434972326003038  3.3478324108667681
  6.6956648217335353  6.6956648217335353  6.6956648217335353
 10.0434972326003038 10.0434972326003038 10.0434972326003038
 10.0434972326003038 10.0434972326003038  6.6956648217335353
 10.0434972326003038  6.6956648217335353 10.0434972326003038
  6.6956648217335353 10.0434972326003038 10.0434972326003038
