Cs Pb I  Cs Pb I  Br I  Cs Pb Br I  Cs Pb I  Br I  Cs Pb I  Br Cs Pb I  Br Cs Pb I  Br Cs Pb I  Br
 1.0000000000000000
    13.1772177101237880    0.0000000000000000    0.0000000000000000
     0.0000000000000000   13.1772177101237880    0.0000000000000000
     0.0000000000000000    0.0000000000000000   13.1772177101237880
 Cs  Pb  I   Cs  Pb  I   Br  I   Cs  Pb  Br  I   Cs  Pb  I   Br  I   Cs  Pb  I   Br  Cs  Pb  I   Br  Cs  Pb  I   Br  Cs  Pb  I   Br 
   1   1   3   1   1   1   1   1   1   1   2   1   1   1   1   1   1   1   1   2   1   1   1   2   1   1   1   1   2   1   1   1   2
Cartesian
  0.0000000000000000  0.0000000000000000  0.0000000000000000
  3.2943044275309470  3.2943044275309470  3.2943044275309470
  3.2943044275309470  3.2943044275309470  0.0000000000000000
  3.2943044275309470  0.0000000000000000  3.2943044275309470
  0.0000000000000000  3.2943044275309470  3.2943044275309470
  0.0000000000000000  0.0000000000000000  6.5886088550618931
  3.2943044275309470  3.2943044275309470  9.8829132825928419
  3.2943044275309470  3.2943044275309470  6.5886088550618931
  3.2943044275309470  0.0000000000000000  9.8829132825928419
  0.0000000000000000  3.2943044275309470  9.8829132825928419
  0.0000000000000000  6.5886088550618931  0.0000000000000000
  3.2943044275309470  9.8829132825928419  3.2943044275309470
  3.2943044275309470  9.8829132825928419  0.0000000000000000
  3.2943044275309470  6.5886088550618931  3.2943044275309470
  0.0000000000000000  9.8829132825928419  3.2943044275309470
  0.0000000000000000  6.5886088550618931  6.5886088550618931
  3.2943044275309470  9.8829132825928419  9.8829132825928419
  3.2943044275309470  9.8829132825928419  6.5886088550618931
  3.2943044275309470  6.5886088550618931  9.8829132825928419
  0.0000000000000000  9.8829132825928419  9.8829132825928419
  6.5886088550618931  0.0000000000000000  0.0000000000000000
  9.8829132825928419  3.2943044275309470  3.2943044275309470
  9.8829132825928419  3.2943044275309470  0.0000000000000000
  9.8829132825928419  0.0000000000000000  3.2943044275309470
  6.5886088550618931  3.2943044275309470  3.2943044275309470
  6.5886088550618931  0.0000000000000000  6.5886088550618931
  9.8829132825928419  3.2943044275309470  9.8829132825928419
  9.8829132825928419  3.2943044275309470  6.5886088550618931
  9.8829132825928419  0.0000000000000000  9.8829132825928419
  6.5886088550618931  3.2943044275309470  9.8829132825928419
  6.5886088550618931  6.5886088550618931  0.0000000000000000
  9.8829132825928419  9.8829132825928419  3.2943044275309470
  9.8829132825928419  9.8829132825928419  0.0000000000000000
  9.8829132825928419  6.5886088550618931  3.2943044275309470
  6.5886088550618931  9.8829132825928419  3.2943044275309470
  6.5886088550618931  6.5886088550618931  6.5886088550618931
  9.8829132825928419  9.8829132825928419  9.8829132825928419
  9.8829132825928419  9.8829132825928419  6.5886088550618931
  9.8829132825928419  6.5886088550618931  9.8829132825928419
  6.5886088550618931  9.8829132825928419  9.8829132825928419
