Cs Sn Br Cs Sn Br Cs Sn Cl Br Cs Sn Br Cs Sn Br Cl Cs Sn Br Cs Sn Br Cl Br Cs Sn Br
 1.0000000000000000
    12.4849601713421574    0.0000000000000000    0.0000000000000000
     0.0000000000000000   12.4849601713421574    0.0000000000000000
     0.0000000000000000    0.0000000000000000   12.4849601713421574
 Cs  Sn  Br  Cs  Sn  Br  Cs  Sn  Cl  Br  Cs  Sn  Br  Cs  Sn  Br  Cl  Cs  Sn  Br  Cs  Sn  Br  Cl  Br  Cs  Sn  Br 
   1   1   3   1   1   3   1   1   1   2   1   1   3   1   1   2   1   1   1   3   1   1   1   1   1   1   1   3
Cartesian
  0.0000000000000000  0.0000000000000000  0.0000000000000000
  3.1212400428355394  3.1212400428355394  3.1212400428355394
  3.1212400428355394  3.1212400428355394  0.0000000000000000
  3.1212400428355394  0.0000000000000000  3.1212400428355394
  0.0000000000000000  3.1212400428355394  3.1212400428355394
  0.0000000000000000  0.0000000000000000  6.2424800856710778
  3.1212400428355394  3.1212400428355394  9.3637201285066176
  3.1212400428355394  3.1212400428355394  6.2424800856710778
  3.1212400428355394  0.0000000000000000  9.3637201285066176
  0.0000000000000000  3.1212400428355394  9.3637201285066176
  0.0000000000000000  6.2424800856710778  0.0000000000000000
  3.1212400428355394  9.3637201285066176  3.1212400428355394
  3.1212400428355394  9.3637201285066176  0.0000000000000000
  3.1212400428355394  6.2424800856710778  3.1212400428355394
  0.0000000000000000  9.3637201285066176  3.1212400428355394
  0.0000000000000000  6.2424800856710778  6.2424800856710778
  3.1212400428355394  9.3637201285066176  9.3637201285066176
  3.1212400428355394  9.3637201285066176  6.2424800856710778
  3.1212400428355394  6.2424800856710778  9.3637201285066176
  0.0000000000000000  9.3637201285066176  9.3637201285066176
  6.2424800856710778  0.0000000000000000  0.0000000000000000
  9.3637201285066176  3.1212400428355394  3.1212400428355394
  9.3637201285066176  3.1212400428355394  0.0000000000000000
  9.3637201285066176  0.0000000000000000  3.1212400428355394
  6.2424800856710778  3.1212400428355394  3.1212400428355394
  6.2424800856710778  0.0000000000000000  6.2424800856710778
  9.3637201285066176  3.1212400428355394  9.3637201285066176
  9.3637201285066176  3.1212400428355394  6.2424800856710778
  9.3637201285066176  0.0000000000000000  9.3637201285066176
  6.2424800856710778  3.1212400428355394  9.3637201285066176
  6.2424800856710778  6.2424800856710778  0.0000000000000000
  9.3637201285066176  9.3637201285066176  3.1212400428355394
  9.3637201285066176  9.3637201285066176  0.0000000000000000
  9.3637201285066176  6.2424800856710778  3.1212400428355394
  6.2424800856710778  9.3637201285066176  3.1212400428355394
  6.2424800856710778  6.2424800856710778  6.2424800856710778
  9.3637201285066176  9.3637201285066176  9.3637201285066176
  9.3637201285066176  9.3637201285066176  6.2424800856710778
  9.3637201285066176  6.2424800856710778  9.3637201285066176
  6.2424800856710778  9.3637201285066176  9.3637201285066176
