Cs Sn I  Cs Sn I  Cs Sn I  Cs Ge I  Cs Sn I  Cs Sn I  Cs Ge I  Cs Sn I 
 1.0000000000000000
    13.0326850840492572    0.0000000000000000    0.0000000000000000
     0.0000000000000000   13.0326850840492572    0.0000000000000000
     0.0000000000000000    0.0000000000000000   13.0326850840492572
 Cs  Sn  I   Cs  Sn  I   Cs  Sn  I   Cs  Ge  I   Cs  Sn  I   Cs  Sn  I   Cs  Ge  I   Cs  Sn  I  
   1   1   3   1   1   3   1   1   3   1   1   3   1   1   3   1   1   3   1   1   3   1   1   3
Cartesian
  0.0000000000000000  0.0000000000000000  0.0000000000000000
  3.2581712710123143  3.2581712710123143  3.2581712710123143
  3.2581712710123143  3.2581712710123143  0.0000000000000000
  3.2581712710123143  0.0000000000000000  3.2581712710123143
  0.0000000000000000  3.2581712710123143  3.2581712710123143
  0.0000000000000000  0.0000000000000000  6.5163425420246277
  3.2581712710123143  3.2581712710123143  9.7745138130369433
  3.2581712710123143  3.2581712710123143  6.5163425420246277
  3.2581712710123143  0.0000000000000000  9.7745138130369433
  0.0000000000000000  3.2581712710123143  9.7745138130369433
  0.0000000000000000  6.5163425420246277  0.0000000000000000
  3.2581712710123143  9.7745138130369433  3.2581712710123143
  3.2581712710123143  9.7745138130369433  0.0000000000000000
  3.2581712710123143  6.5163425420246277  3.2581712710123143
  0.0000000000000000  9.7745138130369433  3.2581712710123143
  0.0000000000000000  6.5163425420246277  6.5163425420246277
  3.2581712710123143  9.7745138130369433  9.7745138130369433
  3.2581712710123143  9.7745138130369433  6.5163425420246277
  3.2581712710123143  6.5163425420246277  9.7745138130369433
  0.0000000000000000  9.7745138130369433  9.7745138130369433
  6.5163425420246277  0.0000000000000000  0.0000000000000000
  9.7745138130369433  3.2581712710123143  3.2581712710123143
  9.7745138130369433  3.2581712710123143  0.0000000000000000
  9.7745138130369433  0.0000000000000000  3.2581712710123143
  6.5163425420246277  3.2581712710123143  3.2581712710123143
  6.5163425420246277  0.0000000000000000  6.5163425420246277
  9.7745138130369433  3.2581712710123143  9.7745138130369433
  9.7745138130369433  3.2581712710123143  6.5163425420246277
  9.7745138130369433  0.0000000000000000  9.7745138130369433
  6.5163425420246277  3.2581712710123143  9.7745138130369433
  6.5163425420246277  6.5163425420246277  0.0000000000000000
  9.7745138130369433  9.7745138130369433  3.2581712710123143
  9.7745138130369433  9.7745138130369433  0.0000000000000000
  9.7745138130369433  6.5163425420246277  3.2581712710123143
  6.5163425420246277  9.7745138130369433  3.2581712710123143
  6.5163425420246277  6.5163425420246277  6.5163425420246277
  9.7745138130369433  9.7745138130369433  9.7745138130369433
  9.7745138130369433  9.7745138130369433  6.5163425420246277
  9.7745138130369433  6.5163425420246277  9.7745138130369433
  6.5163425420246277  9.7745138130369433  9.7745138130369433
