40
Lattice="11.64859997051426 0.0 0.0 0.0 11.648361806059578 0.0 0.0 1.0675794815531743e-13 11.648361806059482" Properties=species:S:1:pos:R:3:spacegroup_kinds:I:1:forces:R:3 spacegroup="P 1" unit_cell=conventional occupancy="_JSON {\"0\": {\"Cs\": 1.0}, \"1\": {\"Pb\": 1.0}, \"2\": {\"Br\": 1.0}, \"3\": {\"Br\": 1.0}, \"4\": {\"Br\": 1.0}, \"5\": {\"Cs\": 1.0}, \"6\": {\"Pb\": 1.0}, \"7\": {\"Br\": 1.0}, \"8\": {\"Br\": 1.0}, \"9\": {\"Br\": 1.0}, \"10\": {\"Cs\": 1.0}, \"11\": {\"Ge\": 1.0}, \"12\": {\"Br\": 1.0}, \"13\": {\"Br\": 1.0}, \"14\": {\"Br\": 1.0}, \"15\": {\"Cs\": 1.0}, \"16\": {\"Ge\": 1.0}, \"17\": {\"Br\": 1.0}, \"18\": {\"Br\": 1.0}, \"19\": {\"Br\": 1.0}, \"20\": {\"Cs\": 1.0}, \"21\": {\"Ge\": 1.0}, \"22\": {\"Br\": 1.0}, \"23\": {\"Br\": 1.0}, \"24\": {\"Br\": 1.0}, \"25\": {\"Cs\": 1.0}, \"26\": {\"Pb\": 1.0}, \"27\": {\"Br\": 1.0}, \"28\": {\"Br\": 1.0}, \"29\": {\"Br\": 1.0}, \"30\": {\"Cs\": 1.0}, \"31\": {\"Ge\": 1.0}, \"32\": {\"Br\": 1.0}, \"33\": {\"Br\": 1.0}, \"34\": {\"Br\": 1.0}, \"35\": {\"Cs\": 1.0}, \"36\": {\"Pb\": 1.0}, \"37\": {\"Br\": 1.0}, \"38\": {\"Br\": 1.0}, \"39\": {\"Br\": 1.0}}" candidate_id=e7c6e3e6033fb032 formula=CsGe0.51Pb0.49Br3 config_index=0 rattle_stdev=0.0 method=PBE fidelity=phase2_force energy=-126.59342928696572 stress="0.0005874539316401496 1.0626436782918325e-15 1.0626436782918317e-15 1.0626436782918325e-15 0.0005558856996029126 -9.040053828899715e-18 1.0626436782918317e-15 -9.040053828899715e-18 0.0005558856996029222" pbc="T T T"
Cs       0.00000000      11.56721622       0.08114558        0       0.00000000       0.01552903      -0.01552903
Pb       2.91214999       2.91209045       2.91209045        1       0.00000000      -0.00000000      -0.00000000
Br       2.91214999       2.91209045       0.00070877        2      -0.00000000       0.00000000       0.08092886
Br       2.91214999      11.54505612       2.91209045        3      -0.00000000      -0.16113017       0.00000000
Br      11.53288457       2.91209045       2.91209045        4       0.03374876      -0.00000000      -0.00000000
Cs       0.00000000      11.56721622       5.74303532        5      -0.00000000       0.01552903       0.01552903
Pb       2.91214999       2.91209045       8.73627135        6       0.00000000       0.00000000       0.00000000
Br       2.91214999       2.91209045       5.82347214        7       0.00000000      -0.00000000      -0.08092886
Br       2.91214999      11.52368221       8.73627135        8       0.00000000      -0.01753927      -0.00000000
Br       0.00000000       2.91209045       8.73627135        9       0.00000000      -0.00000000       0.00000000
Cs       0.00000000       5.90532649       0.08114558       10       0.00000000      -0.01552903      -0.01552903
Ge       2.91214999       8.73627135       2.91209045       11      -0.00000000       0.00000000       0.00000000
Br       2.91214999       8.73627135      11.63049651       12      -0.00000000      -0.00000000       0.17809983
Br       2.91214999       5.92748659       2.91209045       13      -0.00000000       0.16113017      -0.00000000
Br      11.64859997       8.73627135       2.91209045       14       0.00000000       0.00000000      -0.00000000
Cs       0.00000000       5.90532649       5.74303532       15       0.00000000      -0.01552903       0.01552903
Ge       2.91214999       8.73627135       8.73627135       16      -0.00000000       0.00000000      -0.00000000
Br       2.91214999       8.73627135       5.84204620       17      -0.00000000       0.00000000      -0.17809983
Br       2.91214999       5.94886050       8.73627135       18       0.00000000       0.01753927       0.00000000
Br       0.11571540       8.73627135       8.73627135       19      -0.03374876       0.00000000       0.00000000
Cs       5.82429999      11.56721622       0.08114558       20       0.00000000       0.01552903      -0.01552903
Ge       8.73644998       2.91209045       2.91209045       21       0.00000000       0.00000000      -0.00000000
Br       8.73644998       2.91209045       0.12467959       22      -0.00000000       0.00000000       0.01753927
Br       8.73644998       0.01786530       2.91209045       23       0.00000000      -0.17809983       0.00000000
Br       5.94001538       2.91209045       2.91209045       24      -0.03374876      -0.00000000       0.00000000
Cs       5.82429999      11.56721622       5.74303532       25       0.00000000       0.01552903       0.01552903
Pb       8.73644998       2.91209045       8.73627135       26      -0.00000000      -0.00000000      -0.00000000
Br       8.73644998       2.91209045       5.69950131       27      -0.00000000      -0.00000000      -0.01753927
Br       8.73644998      11.64765304       8.73627135       28       0.00000000      -0.08092886      -0.00000000
Br       5.82429999       2.91209045       8.73627135       29       0.00000000      -0.00000000       0.00000000
Cs       5.82429999       5.90532649       0.08114558       30      -0.00000000      -0.01552903      -0.01552903
Ge       8.73644998       8.73627135       2.91209045       31       0.00000000      -0.00000000      -0.00000000
Br       8.73644998       8.73627135       0.10330569       32       0.00000000      -0.00000000       0.16113017
Br       8.73644998       5.80631561       2.91209045       33       0.00000000       0.17809983      -0.00000000
Br       5.82429999       8.73627135       2.91209045       34       0.00000000       0.00000000      -0.00000000
Cs       5.82429999       5.90532649       5.74303532       35       0.00000000      -0.01552903       0.01552903
Pb       8.73644998       8.73627135       8.73627135       36      -0.00000000       0.00000000       0.00000000
Br       8.73644998       8.73627135       5.72087521       37       0.00000000       0.00000000      -0.16113017
Br       8.73644998       5.82488967       8.73627135       38      -0.00000000       0.08092886       0.00000000
Br       5.70858459       8.73627135       8.73627135       39       0.03374876      -0.00000000       0.00000000
40
Lattice="11.64859997051426 0.0 0.0 0.0 11.648361806059578 0.0 0.0 1.0675794815531743e-13 11.648361806059482" Properties=species:S:1:pos:R:3:spacegroup_kinds:I:1:forces:R:3 spacegroup="P 1" unit_cell=conventional occupancy="_JSON {\"0\": {\"Cs\": 1.0}, \"1\": {\"Pb\": 1.0}, \"2\": {\"Br\": 1.0}, \"3\": {\"Br\": 1.0}, \"4\": {\"Br\": 1.0}, \"5\": {\"Cs\": 1.0}, \"6\": {\"Pb\": 1.0}, \"7\": {\"Br\": 1.0}, \"8\": {\"Br\": 1.0}, \"9\": {\"Br\": 1.0}, \"10\": {\"Cs\": 1.0}, \"11\": {\"Ge\": 1.0}, \"12\": {\"Br\": 1.0}, \"13\": {\"Br\": 1.0}, \"14\": {\"Br\": 1.0}, \"15\": {\"Cs\": 1.0}, \"16\": {\"Ge\": 1.0}, \"17\": {\"Br\": 1.0}, \"18\": {\"Br\": 1.0}, \"19\": {\"Br\": 1.0}, \"20\": {\"Cs\": 1.0}, \"21\": {\"Ge\": 1.0}, \"22\": {\"Br\": 1.0}, \"23\": {\"Br\": 1.0}, \"24\": {\"Br\": 1.0}, \"25\": {\"Cs\": 1.0}, \"26\": {\"Pb\": 1.0}, \"27\": {\"Br\": 1.0}, \"28\": {\"Br\": 1.0}, \"29\": {\"Br\": 1.0}, \"30\": {\"Cs\": 1.0}, \"31\": {\"Ge\": 1.0}, \"32\": {\"Br\": 1.0}, \"33\": {\"Br\": 1.0}, \"34\": {\"Br\": 1.0}, \"35\": {\"Cs\": 1.0}, \"36\": {\"Pb\": 1.0}, \"37\": {\"Br\": 1.0}, \"38\": {\"Br\": 1.0}, \"39\": {\"Br\": 1.0}}" candidate_id=e7c6e3e6033fb032 formula=CsGe0.51Pb0.49Br3 config_index=1 rattle_stdev=0.08 method=PBE fidelity=phase2_force energy=-126.1309852383681 stress="-0.001460038096625298 4.825798955539633e-05 -0.00021825058562780777 4.825798955539633e-05 -0.0008114094814374 -5.678634429873574e-05 -0.00021825058562780777 -5.678634429873574e-05 -0.002266779797823925" pbc="T T T"
Cs      -0.08691571      11.49553101       0.05664163        0       0.00886587       0.08047545       0.01507053
Pb       2.80495530       2.81556360       2.86075231        1       0.27160531       0.28305322       0.43026713
Br       3.01678564       3.05972729       0.06703796        2      -0.05611933      -0.01495050      -0.04871686
Br       2.91028609      11.52837100       2.83876087        3      -0.02614198      -0.15218704      -0.00043076
Br      11.44690516       2.90519897       3.00615753        4       0.51548978       0.01189712       0.01633888
Cs      -0.13080734      11.66547174       5.82914622        5       0.07436617       0.04623800      -0.05942222
Pb       2.94373182       2.88107439       8.78334350        6       0.04763999      -0.05113852      -0.08451640
Br       2.79748609       2.88620448       5.92371091        7       0.03439908       0.02620474      -0.40796634
Br       2.85369059      11.63796102       8.81184367        8      -0.00602341      -0.38498185      -0.02165331
Br      -0.02112022       2.89903339       8.65914277        9       0.25151443       0.00137934       0.02514823
Cs      -0.02741179       5.90923881       0.04117503       10      -0.00629928      -0.05088130       0.00257560
Ge       2.73519763       8.76105830       2.78491835       11       0.12693696      -0.24672741      -0.27280609
Br       2.97050636       8.72763925      11.57848279       12      -0.11249974       0.02815417       0.41249085
Br       2.77670547       5.89800867       2.78486071       13      -0.00115250       0.12765948       0.08486961
Br      11.76704044       8.77422657       2.98519956       14      -0.06348500       0.00750123      -0.04213843
Cs       0.07683762       5.91208989       5.88041379       15       0.00943279      -0.05955290      -0.04148221
Ge       2.98030141       8.67588053       8.55326101       16       0.31953520       0.02631128       0.04471205
Br       2.92088909       8.70025871       5.80900840       17      -0.00891619      -0.00070141       0.14103523
Br       2.93766869       5.90557186       8.81216467       18      -0.01359352       0.43979611      -0.09877348
Br       0.12783020       8.74242355       8.73151932       19       0.20518890       0.01211330      -0.02645880
Cs       5.81868889      11.52192430       0.10602601       20       0.02244124       0.05434296       0.01048425
Ge       8.79438668       2.95340645       2.99417291       21      -0.42107208      -0.22528407      -0.59837394
Br       8.77806219       2.84250337       0.24472480       22       0.06938360       0.03812584      -0.39782180
Br       8.82976775       0.05721846       2.85350947       23      -0.03774569      -0.21413917       0.15238448
Br       5.99443987       2.95281020       2.84508755       24      -0.40862396      -0.02831745       0.08358254
Cs       5.87611157      11.56821938       5.86780245       25      -0.05379204       0.03906803      -0.05862105
Pb       8.81921761       2.93910586       8.63206252       26      -0.38445341       0.35000301       0.31469505
Br       8.64696643       3.01685166       5.65804395       27       0.00540866      -0.04156341       0.45000210
Br       8.70500003      11.73109052       8.74224857       28       0.00189191      -0.29473989      -0.01792686
Br       5.83145495       2.91640304       8.76974711       29       0.04841320      -0.00476665      -0.01764101
Cs       5.72608158       5.81816316       0.10651553       30       0.04362805      -0.00684689       0.00654429
Ge       8.67401753       8.66778087       2.80650074       31      -0.45617702       0.02919671      -0.17483998
Br       8.77275251       8.81641334       0.21640446       32      -0.02928760      -0.06683526       0.13225844
Br       8.72123535       5.80872445       2.76221712       33       0.04293114       0.43139374       0.06621853
Br       5.81495783       8.72607213       2.98426519       34       0.55208043      -0.01196213      -0.06399445
Cs       5.71915021       5.89736243       5.75427931       35       0.01728907      -0.03817971      -0.01694681
Pb       8.94675445       8.87673366       8.52541953       36      -0.46402982      -0.48771545       0.87864166
Br       8.63351842       8.72253358       5.86491151       37       0.03666800       0.02648836      -0.85011153
Br       8.78514563       5.82741171       8.61895838       38       0.01422831       0.36113276       0.05182763
Br       5.73333985       8.82764878       8.69540382       39      -0.16965273      -0.03848961      -0.01588550
40
Lattice="11.64859997051426 0.0 0.0 0.0 11.648361806059578 0.0 0.0 1.0675794815531743e-13 11.648361806059482" Properties=species:S:1:pos:R:3:spacegroup_kinds:I:1:forces:R:3 spacegroup="P 1" unit_cell=conventional occupancy="_JSON {\"0\": {\"Cs\": 1.0}, \"1\": {\"Pb\": 1.0}, \"2\": {\"Br\": 1.0}, \"3\": {\"Br\": 1.0}, \"4\": {\"Br\": 1.0}, \"5\": {\"Cs\": 1.0}, \"6\": {\"Pb\": 1.0}, \"7\": {\"Br\": 1.0}, \"8\": {\"Br\": 1.0}, \"9\": {\"Br\": 1.0}, \"10\": {\"Cs\": 1.0}, \"11\": {\"Ge\": 1.0}, \"12\": {\"Br\": 1.0}, \"13\": {\"Br\": 1.0}, \"14\": {\"Br\": 1.0}, \"15\": {\"Cs\": 1.0}, \"16\": {\"Ge\": 1.0}, \"17\": {\"Br\": 1.0}, \"18\": {\"Br\": 1.0}, \"19\": {\"Br\": 1.0}, \"20\": {\"Cs\": 1.0}, \"21\": {\"Ge\": 1.0}, \"22\": {\"Br\": 1.0}, \"23\": {\"Br\": 1.0}, \"24\": {\"Br\": 1.0}, \"25\": {\"Cs\": 1.0}, \"26\": {\"Pb\": 1.0}, \"27\": {\"Br\": 1.0}, \"28\": {\"Br\": 1.0}, \"29\": {\"Br\": 1.0}, \"30\": {\"Cs\": 1.0}, \"31\": {\"Ge\": 1.0}, \"32\": {\"Br\": 1.0}, \"33\": {\"Br\": 1.0}, \"34\": {\"Br\": 1.0}, \"35\": {\"Cs\": 1.0}, \"36\": {\"Pb\": 1.0}, \"37\": {\"Br\": 1.0}, \"38\": {\"Br\": 1.0}, \"39\": {\"Br\": 1.0}}" candidate_id=e7c6e3e6033fb032 formula=CsGe0.51Pb0.49Br3 config_index=2 rattle_stdev=0.08 method=PBE fidelity=phase2_force energy=-126.0417129080502 stress="-0.0009455207169163446 1.4413028859994415e-05 -1.2320139510684787e-06 1.4413028859994415e-05 -0.0012680371835852805 -0.00012636240731510022 -1.2320139510684787e-06 -0.00012636240731510022 -0.000755864558801908" pbc="T T T"
Cs      -0.00901704      11.48109110       0.22394774        0       0.02902909       0.03215627      -0.12506288
Pb       2.79559133       2.88598479       2.81129873        1       0.62402162       0.30588323       0.32025874
Br       2.94221931       2.84183866      -0.02728930        2      -0.04581304       0.01823818      -0.03868168
Br       2.93588281      11.64112907       2.78657083        3      -0.03931421      -0.79600893       0.06835212
Br      11.68120687       2.95160740       2.90163354        4      -0.77687909      -0.00452655      -0.03748278
Cs      -0.03224966      11.48932324       5.70563798        5      -0.01336024       0.01031565       0.08996954
Pb       2.85471628       3.00980192       8.67409535        6       0.58571529       0.07084391       0.06482777
Br       2.86506794       2.90748094       5.82983853        7       0.01508193      -0.10450514      -0.28983886
Br       2.81749391      11.39978282       8.80925185        8       0.00418190       0.28631739      -0.01203821
Br       0.03301366       2.85642893       8.55316960        9      -0.23132660      -0.00763212       0.00206523
Cs      -0.06297932       5.82304515       0.08861023       10       0.04309808       0.00833930      -0.02767865
Ge       2.86981446       8.79869094       2.89602528       11       0.29505790      -0.21223769       0.01352551
Br       2.87370131       8.65345038      11.59027776       12       0.01329220       0.01296315       0.52613446
Br       2.97534121       5.85348678       3.08889328       13      -0.05708324       0.60479321      -0.12375591
Br      11.53658108       8.71714356       2.92947771       14       0.26152239      -0.02379874      -0.03154953
Cs      -0.02819082       5.91219653       5.75156748       15      -0.00098808      -0.00740459       0.03215891
Ge       2.89638750       8.84402606       8.76388527       16      -0.17638596      -0.27582593      -0.08819946
Br       2.95676155       8.68864854       5.90067277       17      -0.06346119       0.13599829      -0.44368826
Br       3.01865021       5.89045786       8.69741089       18      -0.04381710      -0.16425076       0.04424551
Br       0.20186854       8.52864276       8.74962561       19      -0.06579003       0.07190498      -0.00107438
Cs       5.90741676      11.42253031       0.14183686       20      -0.04823009       0.10717756      -0.08437379
Ge       8.69644095       2.72454700       2.90345704       21      -0.40523450       0.19660463       0.22053290
Br       8.61622696       2.95119274       0.08042531       22       0.10785098      -0.00052652       0.14940433
Br       8.82105058      -0.05168013       2.90608316       23      -0.03313151       0.18029315      -0.03475471
Br       5.93144299       3.07999621       2.88484742       24       0.41674561      -0.23551853      -0.01054540
Cs       5.78206758      11.46364688       5.76016324       25       0.02771810       0.05002875       0.05480896
Pb       8.82655154       2.94421332       8.79751818       26      -0.53318120      -0.10497927      -0.18188695
Br       8.62819978       2.95799913       5.68189034       27       0.08262304      -0.12647861      -0.16207158
Br       8.78806510      11.56727550       8.88825044       28       0.04177873       0.60464988       0.02470568
Br       5.84164885       2.95208808       8.68614407       29       0.09860019      -0.06716315      -0.00291896
Cs       5.74406925       5.84282167       0.09748780       30      -0.02036651      -0.04447253      -0.02357183
Ge       8.77933734       8.65027156       2.73466207       31      -0.20817971      -0.34168197       0.45493811
Br       8.78820440       8.71048449       0.08950055       32       0.01296687      -0.05726952       0.38687544
Br       8.55337623       5.79735210       2.98851556       33       0.19516798       0.41159192      -0.15734450
Br       5.86067904       8.90122555       2.91708729       34      -0.34536617      -0.06697386      -0.07751882
Cs       5.82452738       5.86904218       5.77291392       35       0.00042626      -0.02333615       0.02596394
Pb       8.67140070       8.72814675       8.77192841       36       0.13939937       0.11059856      -0.52434348
Br       8.63443969       8.74489790       5.78905417       37       0.08649454       0.06515837      -0.13819018
Br       8.72390181       5.91999521       8.61849028       38       0.06594955      -0.70094305       0.04225929
Br       5.77786785       8.66480019       8.69235371       39      -0.03824435       0.08496044       0.09542692
40
Lattice="11.64859997051426 0.0 0.0 0.0 11.648361806059578 0.0 0.0 1.0675794815531743e-13 11.648361806059482" Properties=species:S:1:pos:R:3:spacegroup_kinds:I:1:forces:R:3 spacegroup="P 1" unit_cell=conventional occupancy="_JSON {\"0\": {\"Cs\": 1.0}, \"1\": {\"Pb\": 1.0}, \"2\": {\"Br\": 1.0}, \"3\": {\"Br\": 1.0}, \"4\": {\"Br\": 1.0}, \"5\": {\"Cs\": 1.0}, \"6\": {\"Pb\": 1.0}, \"7\": {\"Br\": 1.0}, \"8\": {\"Br\": 1.0}, \"9\": {\"Br\": 1.0}, \"10\": {\"Cs\": 1.0}, \"11\": {\"Ge\": 1.0}, \"12\": {\"Br\": 1.0}, \"13\": {\"Br\": 1.0}, \"14\": {\"Br\": 1.0}, \"15\": {\"Cs\": 1.0}, \"16\": {\"Ge\": 1.0}, \"17\": {\"Br\": 1.0}, \"18\": {\"Br\": 1.0}, \"19\": {\"Br\": 1.0}, \"20\": {\"Cs\": 1.0}, \"21\": {\"Ge\": 1.0}, \"22\": {\"Br\": 1.0}, \"23\": {\"Br\": 1.0}, \"24\": {\"Br\": 1.0}, \"25\": {\"Cs\": 1.0}, \"26\": {\"Pb\": 1.0}, \"27\": {\"Br\": 1.0}, \"28\": {\"Br\": 1.0}, \"29\": {\"Br\": 1.0}, \"30\": {\"Cs\": 1.0}, \"31\": {\"Ge\": 1.0}, \"32\": {\"Br\": 1.0}, \"33\": {\"Br\": 1.0}, \"34\": {\"Br\": 1.0}, \"35\": {\"Cs\": 1.0}, \"36\": {\"Pb\": 1.0}, \"37\": {\"Br\": 1.0}, \"38\": {\"Br\": 1.0}, \"39\": {\"Br\": 1.0}}" candidate_id=e7c6e3e6033fb032 formula=CsGe0.51Pb0.49Br3 config_index=3 rattle_stdev=0.08 method=PBE fidelity=phase2_force energy=-125.76189725290848 stress="-0.0008984665977815088 0.00017654347187645692 -4.976520435825869e-06 0.00017654347187645692 -0.0017497353291298509 -0.00012373234118756267 -4.976520435825869e-06 -0.00012373234118756267 -0.0007799034165930618" pbc="T T T"
Cs      -0.10568348      11.72855645       0.08495074        0       0.06282989       0.04884007      -0.00799272
Pb       2.89313630       2.91882026       2.98885383        1      -0.29804350      -0.28760561      -1.03899629
Br       2.85762211       2.95441608      -0.06128469        2       0.03724234      -0.00420259      -0.01772073
Br       3.02454649      11.52708168       2.80761960        3      -0.00548217      -0.33964987       0.03128386
Br      11.47860175       2.78241579       2.80969257        4       0.27284894       0.08556102       0.06510290
Cs      -0.01794374      11.49917134       5.68257611        5      -0.03542490       0.03688061       0.00917984
Pb       2.93320366       2.70767501       8.60264868        6      -0.12956871       0.42732486       0.65768987
Br       2.85521118       2.71634840       5.72133735        7      -0.03676089      -0.05269317       0.46147346
Br       2.96523980      11.42137550       8.67303858        8      -0.03817341       0.48572136       0.01727484
Br      -0.12018966       2.81692725       8.91760657        9       0.71531902       0.01986986       0.01069074
Cs      -0.03814223       5.97705961      -0.06324948       10       0.04211414      -0.12882767       0.00010219
Ge       2.87285282       8.64031163       2.84767283       11      -0.05196297       0.31045494      -0.18988806
Br       3.02461548       8.71784610      11.57340079       12      -0.09745038      -0.05140499       0.74018408
Br       2.89914299       5.87317620       3.03321987       13      -0.01371197       0.48780364      -0.02014616
Br      11.50879414       8.78895372       2.88456115       14       0.76454184      -0.10563913       0.02304127
Cs      -0.06069585       5.91908859       5.69045204       15      -0.03958244      -0.03031060       0.04049338
Ge       2.95636563       8.76688001       8.70656813       16      -0.03712753      -0.64477287      -0.11003127
Br       3.03840151       8.75361515       5.93897353       17      -0.04912310       0.00966434      -0.41398800
Br       2.97066844       6.00278018       8.68984687       18      -0.01405984      -0.27703077      -0.04183608
Br       0.10776823       8.60948216       8.73029404       19      -0.25546023       0.05699037       0.00377109
Cs       5.92020469      11.54598241       0.02900162       20      -0.04948248       0.05051356       0.01045350
Ge       8.58472705       2.78886653       2.88066459       21       0.44132853       0.25809443      -0.02491418
Br       8.70329151       2.96897587       0.17608162       22      -0.09428532      -0.04901732      -0.09998753
Br       8.92823688       0.00428271       2.83101976       23      -0.22698289      -0.34126705       0.05643618
Br       5.90453089       2.97976863       2.95163917       24      -0.14758715      -0.07925499       0.03271189
Cs       5.84659105      11.60898350       5.76844465       25       0.03697801      -0.03768640      -0.00283933
Pb       8.75462089       2.88086321       8.67882995       26      -0.29016924      -0.00338788      -0.06048779
Br       8.85997887       2.84305484       5.67079510       27      -0.04348199      -0.02451021       0.14301474
Br       8.74315412      11.78199080       8.64192438       28      -0.03192630      -1.42638153       0.05745911
Br       5.79240181       2.87821931       8.78101830       29      -0.21984258      -0.03890764      -0.03820287
Cs       5.77812041       5.91102628       0.15052199       30       0.00488074      -0.07905611      -0.07281150
Ge       8.76964270       8.71817257       2.97253790       31      -0.24523928      -0.11633283       0.08415815
Br       8.75446037       8.70109111       0.15563203       32       0.02596497      -0.00216690       0.14845352
Br       8.66476012       5.69235971       3.05148918       33       0.08341596       0.32758154      -0.05115017
Br       6.05784603       8.68237333       2.85040851       34      -0.43807963       0.05373427       0.05618098
Cs       5.90873937       5.99698353       5.75268516       35       0.00369900      -0.01747542       0.05101159
Pb       8.73744945       8.68030964       8.88637528       36       0.09137550       0.04906964      -0.31576525
Br       8.70039731       8.71177261       5.83389456       37       0.02488842       0.02816351      -0.20291877
Br       8.68416270       5.64356434       8.78469951       38      -0.01362263       1.38178044       0.02161624
Br       5.66663915       8.75287054       8.82398352       39       0.29518427       0.01619645      -0.01417559
