Cs Sn I  Cs Sn I  Cs Ge I  Cs Ge I  Cs Ge I  Cs Sn I  Cs Ge I  Cs Sn I 
 1.0000000000000000
    12.6886069243238833    0.0000000000000000    0.0000000000000000
     0.0000000000000000   12.6886069243238833    0.0000000000000000
     0.0000000000000000    0.0000000000000000   12.6886069243238833
 Cs  Sn  I   Cs  Sn  I   Cs  Ge  I   Cs  Ge  I   Cs  Ge  I   Cs  Sn  I   Cs  Ge  I   Cs  Sn  I  
   1   1   3   1   1   3   1   1   3   1   1   3   1   1   3   1   1   3   1   1   3   1   1   3
Cartesian
  0.0000000000000000  0.0000000000000000  0.0000000000000000
  3.1721517310809708  3.1721517310809708  3.1721517310809708
  3.1721517310809708  3.1721517310809708  0.0000000000000000
  3.1721517310809708  0.0000000000000000  3.1721517310809708
  0.0000000000000000  3.1721517310809708  3.1721517310809708
  0.0000000000000000  0.0000000000000000  6.3443034621619407
  3.1721517310809708  3.1721517310809708  9.5164551932429120
  3.1721517310809708  3.1721517310809708  6.3443034621619407
  3.1721517310809708  0.0000000000000000  9.5164551932429120
  0.0000000000000000  3.1721517310809708  9.5164551932429120
  0.0000000000000000  6.3443034621619407  0.0000000000000000
  3.1721517310809708  9.5164551932429120  3.1721517310809708
  3.1721517310809708  9.5164551932429120  0.0000000000000000
  3.1721517310809708  6.3443034621619407  3.1721517310809708
  0.0000000000000000  9.5164551932429120  3.1721517310809708
  0.0000000000000000  6.3443034621619407  6.3443034621619407
  3.1721517310809708  9.5164551932429120  9.5164551932429120
  3.1721517310809708  9.5164551932429120  6.3443034621619407
  3.1721517310809708  6.3443034621619407  9.5164551932429120
  0.0000000000000000  9.5164551932429120  9.5164551932429120
  6.3443034621619407  0.0000000000000000  0.0000000000000000
  9.5164551932429120  3.1721517310809708  3.1721517310809708
  9.5164551932429120  3.1721517310809708  0.0000000000000000
  9.5164551932429120  0.0000000000000000  3.1721517310809708
  6.3443034621619407  3.1721517310809708  3.1721517310809708
  6.3443034621619407  0.0000000000000000  6.3443034621619407
  9.5164551932429120  3.1721517310809708  9.5164551932429120
  9.5164551932429120  3.1721517310809708  6.3443034621619407
  9.5164551932429120  0.0000000000000000  9.5164551932429120
  6.3443034621619407  3.1721517310809708  9.5164551932429120
  6.3443034621619407  6.3443034621619407  0.0000000000000000
  9.5164551932429120  9.5164551932429120  3.1721517310809708
  9.5164551932429120  9.5164551932429120  0.0000000000000000
  9.5164551932429120  6.3443034621619407  3.1721517310809708
  6.3443034621619407  9.5164551932429120  3.1721517310809708
  6.3443034621619407  6.3443034621619407  6.3443034621619407
  9.5164551932429120  9.5164551932429120  9.5164551932429120
  9.5164551932429120  9.5164551932429120  6.3443034621619407
  9.5164551932429120  6.3443034621619407  9.5164551932429120
  6.3443034621619407  9.5164551932429120  9.5164551932429120
