Cs Pb I  Cs Pb I  Cs Pb Br I  Cs Pb I  Br I  Cs Pb I  Br Cs Pb I  Cs Pb I  Br Cs Pb I  Br
 1.0000000000000000
    13.2951631212257020    0.0000000000000000    0.0000000000000000
     0.0000000000000000   13.2951631212257020    0.0000000000000000
     0.0000000000000000    0.0000000000000000   13.2951631212257020
 Cs  Pb  I   Cs  Pb  I   Cs  Pb  Br  I   Cs  Pb  I   Br  I   Cs  Pb  I   Br  Cs  Pb  I   Cs  Pb  I   Br  Cs  Pb  I   Br 
   1   1   3   1   1   3   1   1   2   1   1   1   1   1   1   1   1   2   1   1   1   3   1   1   1   2   1   1   2   1
Cartesian
  0.0000000000000000  0.0000000000000000  0.0000000000000000
  3.3237907803064255  3.3237907803064255  3.3237907803064255
  3.3237907803064255  3.3237907803064255  0.0000000000000000
  3.3237907803064255  0.0000000000000000  3.3237907803064255
  0.0000000000000000  3.3237907803064255  3.3237907803064255
  0.0000000000000000  0.0000000000000000  6.6475815606128501
  3.3237907803064255  3.3237907803064255  9.9713723409192774
  3.3237907803064255  3.3237907803064255  6.6475815606128501
  3.3237907803064255  0.0000000000000000  9.9713723409192774
  0.0000000000000000  3.3237907803064255  9.9713723409192774
  0.0000000000000000  6.6475815606128501  0.0000000000000000
  3.3237907803064255  9.9713723409192774  3.3237907803064255
  3.3237907803064255  9.9713723409192774  0.0000000000000000
  3.3237907803064255  6.6475815606128501  3.3237907803064255
  0.0000000000000000  9.9713723409192774  3.3237907803064255
  0.0000000000000000  6.6475815606128501  6.6475815606128501
  3.3237907803064255  9.9713723409192774  9.9713723409192774
  3.3237907803064255  9.9713723409192774  6.6475815606128501
  3.3237907803064255  6.6475815606128501  9.9713723409192774
  0.0000000000000000  9.9713723409192774  9.9713723409192774
  6.6475815606128501  0.0000000000000000  0.0000000000000000
  9.9713723409192774  3.3237907803064255  3.3237907803064255
  9.9713723409192774  3.3237907803064255  0.0000000000000000
  9.9713723409192774  0.0000000000000000  3.3237907803064255
  6.6475815606128501  3.3237907803064255  3.3237907803064255
  6.6475815606128501  0.0000000000000000  6.6475815606128501
  9.9713723409192774  3.3237907803064255  9.9713723409192774
  9.9713723409192774  3.3237907803064255  6.6475815606128501
  9.9713723409192774  0.0000000000000000  9.9713723409192774
  6.6475815606128501  3.3237907803064255  9.9713723409192774
  6.6475815606128501  6.6475815606128501  0.0000000000000000
  9.9713723409192774  9.9713723409192774  3.3237907803064255
  9.9713723409192774  9.9713723409192774  0.0000000000000000
  9.9713723409192774  6.6475815606128501  3.3237907803064255
  6.6475815606128501  9.9713723409192774  3.3237907803064255
  6.6475815606128501  6.6475815606128501  6.6475815606128501
  9.9713723409192774  9.9713723409192774  9.9713723409192774
  9.9713723409192774  9.9713723409192774  6.6475815606128501
  9.9713723409192774  6.6475815606128501  9.9713723409192774
  6.6475815606128501  9.9713723409192774  9.9713723409192774
