40
Lattice="12.608931665587432 0.0 0.0 0.0 12.608931665587692 0.0 0.0 1.1971055391094798e-14 12.60893166558745" Properties=species:S:1:pos:R:3:spacegroup_kinds:I:1:forces:R:3 spacegroup="P 1" unit_cell=conventional occupancy="_JSON {\"0\": {\"Cs\": 1.0}, \"1\": {\"Sn\": 1.0}, \"2\": {\"I\": 1.0}, \"3\": {\"I\": 1.0}, \"4\": {\"I\": 1.0}, \"5\": {\"Cs\": 1.0}, \"6\": {\"Pb\": 1.0}, \"7\": {\"I\": 1.0}, \"8\": {\"I\": 1.0}, \"9\": {\"I\": 1.0}, \"10\": {\"Cs\": 1.0}, \"11\": {\"Sn\": 1.0}, \"12\": {\"I\": 1.0}, \"13\": {\"I\": 1.0}, \"14\": {\"I\": 1.0}, \"15\": {\"Cs\": 1.0}, \"16\": {\"Sn\": 1.0}, \"17\": {\"I\": 1.0}, \"18\": {\"I\": 1.0}, \"19\": {\"I\": 1.0}, \"20\": {\"Cs\": 1.0}, \"21\": {\"Sn\": 1.0}, \"22\": {\"I\": 1.0}, \"23\": {\"I\": 1.0}, \"24\": {\"I\": 1.0}, \"25\": {\"Cs\": 1.0}, \"26\": {\"Sn\": 1.0}, \"27\": {\"I\": 1.0}, \"28\": {\"I\": 1.0}, \"29\": {\"I\": 1.0}, \"30\": {\"Cs\": 1.0}, \"31\": {\"Sn\": 1.0}, \"32\": {\"I\": 1.0}, \"33\": {\"I\": 1.0}, \"34\": {\"I\": 1.0}, \"35\": {\"Cs\": 1.0}, \"36\": {\"Sn\": 1.0}, \"37\": {\"I\": 1.0}, \"38\": {\"I\": 1.0}, \"39\": {\"I\": 1.0}}" candidate_id=b4c3df3686b2475a formula=CsPb0.067Sn0.93I3 config_index=0 rattle_stdev=0.0 method=PBE fidelity=phase2_force energy=-112.4915967895959 stress="0.0007728545588667691 -1.4997093124558196e-11 1.49970931245585e-11 -1.4997093124558196e-11 0.0007728545588667376 1.4997092390801744e-11 1.49970931245585e-11 1.4997092390801744e-11 0.0007728545588667669" pbc="T T T"
Cs      12.59107439      12.59107439       0.01785728        0       0.00267004       0.00267004      -0.00267004
Sn       3.15223292       3.15223292       3.15223292        1       0.00019952       0.00019952       0.00020750
I        3.15223292       3.15223292       0.06698231        2      -0.00000224      -0.00000224      -0.19877666
I        3.15223292      12.60186843       3.15223292        3      -0.00000309       0.01459390      -0.00000191
I       12.60186843       3.15223292       3.15223292        4       0.01459390      -0.00000309      -0.00000191
Cs      12.59107439      12.59107439       6.28660855        5       0.00267106       0.00267106       0.00267506
Pb       3.15223292       3.15223292       9.45669875        6       0.00016263       0.00016263      -0.00016263
I        3.15223292       3.15223292       6.23748352        7      -0.00000079      -0.00000079       0.19884026
I        3.15223292      12.54194936       9.45669875        8      -0.00000224       0.19877666       0.00000224
I       12.54194936       3.15223292       9.45669875        9       0.19877666      -0.00000224       0.00000224
Cs      12.59107439       6.32232311       0.01785728       10       0.00267106      -0.00267506      -0.00267106
Sn       3.15223292       9.45669875       3.15223292       11       0.00020394      -0.00020565       0.00020565
I        3.15223292       9.45669875       0.00706323       12      -0.00000309       0.00000191      -0.01459390
I        3.15223292       6.31152907       3.15223292       13      -0.00000145      -0.01459464      -0.00000100
I       12.60825421       9.45669875       3.15223292       14      -0.00781059       0.00000324      -0.00000324
Cs      12.59107439       6.32232311       6.28660855       15       0.00267127      -0.00267645       0.00267645
Sn       3.15223292       9.45669875       9.45669875       16       0.00019952      -0.00020750      -0.00019952
I        3.15223292       9.45669875       6.29740260       17      -0.00000145       0.00000100       0.01459464
I        3.15223292       6.37144814       9.45669875       18      -0.00000079      -0.19884026       0.00000079
I       12.60186843       9.45669875       9.45669875       19       0.01459390       0.00000191       0.00000309
Cs       6.32232311      12.59107439       0.01785728       20      -0.00267506       0.00267106      -0.00267106
Sn       9.45669875       3.15223292       3.15223292       21      -0.00020565       0.00020394       0.00020565
I        9.45669875       3.15223292       0.00706323       22       0.00000191      -0.00000309      -0.01459390
I        9.45669875      12.60825421       3.15223292       23       0.00000324      -0.00781059      -0.00000324
I        6.31152907       3.15223292       3.15223292       24      -0.01459464      -0.00000145      -0.00000100
Cs       6.32232311      12.59107439       6.28660855       25      -0.00267645       0.00267127       0.00267645
Sn       9.45669875       3.15223292       9.45669875       26      -0.00020750       0.00019952      -0.00019952
I        9.45669875       3.15223292       6.29740260       27       0.00000100      -0.00000145       0.01459464
I        9.45669875      12.60186843       9.45669875       28       0.00000191       0.01459390       0.00000309
I        6.37144814       3.15223292       9.45669875       29      -0.19884026      -0.00000079       0.00000079
Cs       6.32232311       6.32232311       0.01785728       30      -0.00267645      -0.00267645      -0.00267127
Sn       9.45669875       9.45669875       3.15223292       31      -0.00020184      -0.00020184       0.00020184
I        9.45669875       9.45669875       0.00067745       32       0.00000324       0.00000324       0.00781059
I        9.45669875       6.30514328       3.15223292       33       0.00000144       0.00781005      -0.00000144
I        6.30514328       9.45669875       3.15223292       34       0.00781005       0.00000144      -0.00000144
Cs       6.32232311       6.32232311       6.28660855       35      -0.00267687      -0.00267687       0.00267687
Sn       9.45669875       9.45669875       9.45669875       36      -0.00020565      -0.00020565      -0.00020394
I        9.45669875       9.45669875       6.30378838       37       0.00000144       0.00000144      -0.00781005
I        9.45669875       6.31152907       9.45669875       38       0.00000100      -0.01459464       0.00000145
I        6.31152907       9.45669875       9.45669875       39      -0.01459464       0.00000100       0.00000145
40
Lattice="12.608931665587432 0.0 0.0 0.0 12.608931665587692 0.0 0.0 1.1971055391094798e-14 12.60893166558745" Properties=species:S:1:pos:R:3:spacegroup_kinds:I:1:forces:R:3 spacegroup="P 1" unit_cell=conventional occupancy="_JSON {\"0\": {\"Cs\": 1.0}, \"1\": {\"Sn\": 1.0}, \"2\": {\"I\": 1.0}, \"3\": {\"I\": 1.0}, \"4\": {\"I\": 1.0}, \"5\": {\"Cs\": 1.0}, \"6\": {\"Pb\": 1.0}, \"7\": {\"I\": 1.0}, \"8\": {\"I\": 1.0}, \"9\": {\"I\": 1.0}, \"10\": {\"Cs\": 1.0}, \"11\": {\"Sn\": 1.0}, \"12\": {\"I\": 1.0}, \"13\": {\"I\": 1.0}, \"14\": {\"I\": 1.0}, \"15\": {\"Cs\": 1.0}, \"16\": {\"Sn\": 1.0}, \"17\": {\"I\": 1.0}, \"18\": {\"I\": 1.0}, \"19\": {\"I\": 1.0}, \"20\": {\"Cs\": 1.0}, \"21\": {\"Sn\": 1.0}, \"22\": {\"I\": 1.0}, \"23\": {\"I\": 1.0}, \"24\": {\"I\": 1.0}, \"25\": {\"Cs\": 1.0}, \"26\": {\"Sn\": 1.0}, \"27\": {\"I\": 1.0}, \"28\": {\"I\": 1.0}, \"29\": {\"I\": 1.0}, \"30\": {\"Cs\": 1.0}, \"31\": {\"Sn\": 1.0}, \"32\": {\"I\": 1.0}, \"33\": {\"I\": 1.0}, \"34\": {\"I\": 1.0}, \"35\": {\"Cs\": 1.0}, \"36\": {\"Sn\": 1.0}, \"37\": {\"I\": 1.0}, \"38\": {\"I\": 1.0}, \"39\": {\"I\": 1.0}}" candidate_id=b4c3df3686b2475a formula=CsPb0.067Sn0.93I3 config_index=1 rattle_stdev=0.08 method=PBE fidelity=phase2_force energy=-112.07657393537215 stress="-0.0009306439538204645 1.427011048299924e-05 -2.609653161290406e-06 1.427011048299924e-05 -6.640718214797229e-05 -5.7045800692100445e-05 -2.609653161290406e-06 -5.7045800692100445e-05 -0.0012899886532865207" pbc="T T T"
Cs      12.50415868      12.51938917      -0.00664667        0      -0.01935625       0.03065564       0.02412257
Sn       3.04503822       3.05570607       3.10089477        1       0.21728449       0.22622687       0.27114814
I        3.25686857       3.29986975       0.13331150        2      -0.06297097      -0.04275606      -0.27058727
I        3.15036901      12.58518331       3.07890334        3       0.00124790       0.04825369      -0.00553176
I       12.51588902       3.14534144       3.24630000        4       0.44924067      -0.00197009       0.00074864
Cs      12.46026705      12.68932990       6.37271945        5       0.04198455       0.03505123      -0.03692758
Pb       3.18381475       3.12121685       9.50377089        6       0.09957380      -0.01621829      -0.16141609
I        3.03756901       3.12634694       6.33772230        7       0.03703758       0.02277741       0.01117909
I        3.09377351      12.65622816       9.53227106        8      -0.01860302      -0.26654231       0.00868819
I       12.52082913       3.13917585       9.37957017        9       0.31688119       0.00785383       0.02493298
Cs      12.56366260       6.32623544      -0.02211328       10      -0.00948005      -0.02488742       0.01632523
Sn       2.97528056       9.48148570       3.02506081       11       0.59860708      -0.24531069      -0.11939525
I        3.21058928       9.44806665      -0.04495048       12      -0.05507549       0.02008132       0.04232001
I        3.01678840       6.28205114       3.02500318       13       0.00227000       0.03263751       0.07430726
I       12.72669468       9.49465397       3.22534202       14      -0.65967822       0.01154935       0.02307581
Cs      12.66791201       6.32908652       6.42398703       15       0.02103708      -0.04034596      -0.02339347
Sn       3.22038433       9.39630792       9.27368840       16       0.25693725       0.12672846       0.19355436
I        3.16097201       9.42068610       6.26436480       17       0.00362629      -0.01362450      -0.00354703
I        3.17775162       6.32815950       9.53259207       18      -0.02212910       0.15479094      -0.04108644
I       12.61398323       9.46285094       9.45194672       19       0.24313787       0.01819057      -0.01488263
Cs       6.31671202      12.54578246       0.04273771       20       0.01778203       0.01844969       0.01895766
Sn       9.51463545       3.19354892       3.23431537       21      -0.37498424      -0.22233801      -0.46760272
I        9.49831096       3.08264583       0.12710845       22       0.04540354       0.02867318      -0.32995334
I        9.55001652      12.64760737       3.09365194       23      -0.01515773      -0.10391731       0.10644748
I        6.36595356       3.19295266       3.08523002       24      -0.28085607      -0.01600245       0.06443020
Cs       6.37413470      12.59207754       6.41137568       25      -0.03315941       0.01444345      -0.02523725
Sn       9.53946638       3.17924833       9.35248992       26      -0.22796094       0.24905747       0.25385469
I        9.36721521       3.25699413       6.25594524       27      -0.00403941      -0.03595615       0.40820815
I        9.42524881      12.68530591       9.46267597       28       0.04348220      -0.14982070      -0.04580090
I        6.37860310       3.15654551       9.49017451       29      -0.21508245       0.00206888      -0.00151061
Cs       6.22410471       6.23515979       0.04322723       30       0.01820244      -0.00534240       0.02285428
Sn       9.39426631       9.38820827       3.04664320       31      -0.20572644       0.19355897       0.04696027
I        9.49300128       9.53684074       0.11377623       32      -0.00085867      -0.02300273      -0.13462915
I        9.44148412       6.30755213       3.00235958       33       0.03146551       0.12442898       0.02279116
I        6.29580113       9.44649952       3.22440766       34       0.29602813      -0.00577335      -0.01114603
Cs       6.21717334       6.31435905       6.29785254       35      -0.00816976      -0.01901472      -0.01406205
Sn       9.66700322       9.59716106       9.24584692       36      -0.43588098      -0.24054495       0.70513142
I        9.35376719       9.44296097       6.44782468       37       0.05362551       0.03748020      -0.70159554
I        9.50539440       6.31405111       9.33938577       38       0.01990283       0.08538876       0.05587396
I        6.33628433       9.54807618       9.41583122       39      -0.16727007      -0.01626810       0.01639850
40
Lattice="12.608931665587432 0.0 0.0 0.0 12.608931665587692 0.0 0.0 1.1971055391094798e-14 12.60893166558745" Properties=species:S:1:pos:R:3:spacegroup_kinds:I:1:forces:R:3 spacegroup="P 1" unit_cell=conventional occupancy="_JSON {\"0\": {\"Cs\": 1.0}, \"1\": {\"Sn\": 1.0}, \"2\": {\"I\": 1.0}, \"3\": {\"I\": 1.0}, \"4\": {\"I\": 1.0}, \"5\": {\"Cs\": 1.0}, \"6\": {\"Pb\": 1.0}, \"7\": {\"I\": 1.0}, \"8\": {\"I\": 1.0}, \"9\": {\"I\": 1.0}, \"10\": {\"Cs\": 1.0}, \"11\": {\"Sn\": 1.0}, \"12\": {\"I\": 1.0}, \"13\": {\"I\": 1.0}, \"14\": {\"I\": 1.0}, \"15\": {\"Cs\": 1.0}, \"16\": {\"Sn\": 1.0}, \"17\": {\"I\": 1.0}, \"18\": {\"I\": 1.0}, \"19\": {\"I\": 1.0}, \"20\": {\"Cs\": 1.0}, \"21\": {\"Sn\": 1.0}, \"22\": {\"I\": 1.0}, \"23\": {\"I\": 1.0}, \"24\": {\"I\": 1.0}, \"25\": {\"Cs\": 1.0}, \"26\": {\"Sn\": 1.0}, \"27\": {\"I\": 1.0}, \"28\": {\"I\": 1.0}, \"29\": {\"I\": 1.0}, \"30\": {\"Cs\": 1.0}, \"31\": {\"Sn\": 1.0}, \"32\": {\"I\": 1.0}, \"33\": {\"I\": 1.0}, \"34\": {\"I\": 1.0}, \"35\": {\"Cs\": 1.0}, \"36\": {\"Sn\": 1.0}, \"37\": {\"I\": 1.0}, \"38\": {\"I\": 1.0}, \"39\": {\"I\": 1.0}}" candidate_id=b4c3df3686b2475a formula=CsPb0.067Sn0.93I3 config_index=2 rattle_stdev=0.08 method=PBE fidelity=phase2_force energy=-112.0512183519604 stress="-0.00027647159337414694 4.1025979143662364e-05 1.3334881057933352e-05 4.1025979143662364e-05 -0.0006545479017497658 -1.2588887595807903e-06 1.3334881057933352e-05 -1.2588887595807903e-06 -7.446818795605634e-05" pbc="T T T"
Cs      12.58205734      12.50494927       0.16065944        0       0.02149857      -0.00373069      -0.05543774
Sn       3.03567425       3.12612725       3.05144120        1       0.51450077       0.23156841       0.18505000
I        3.18230224       3.08198113       0.03898425        2      -0.03776957       0.04120343      -0.24045162
I        3.17596573      12.69794139       3.02671330        3      -0.02238573      -0.48796020       0.04562169
I       12.75019073       3.19174986       3.14177600        4      -0.70537610       0.00929905      -0.03542749
Cs      12.55882472      12.51318140       6.24921121        5      -0.01155409      -0.00863268       0.04868177
Pb       3.09479920       3.24994438       9.39452275        6       0.31653386       0.00726284      -0.04933555
I        3.10515086       3.14762341       6.24384992        7       0.01806537      -0.09014104       0.12363460
I        3.05757683      12.41804996       9.52967924        8      -0.00298269       0.71937802       0.00034116
I       12.57496302       3.09657140       9.27359700        9       0.09022214       0.00927319       0.03369076
Cs      12.52809506       6.24004178       0.02532193       10       0.02253965       0.01925931      -0.02055824
Sn       3.10989738       9.51911834       3.13616774       11       0.20873230      -0.17735706       0.04776784
I        3.11378423       9.37387778      -0.03315552       12       0.01379656      -0.02949606       0.31864195
I        3.21542413       6.23752926       3.32903574       13      -0.03531221       0.39601303      -0.08242618
I       12.49623532       9.43757096       3.16962017       14       0.45209634      -0.00834068       0.01804700
Cs      12.56288356       6.32919316       6.29514071       15       0.00077434       0.00827028       0.01596037
Sn       3.13647042       9.56445346       9.48431267       16      -0.09737342      -0.51675051      -0.10133982
I        3.19684447       9.40907594       6.35602917       17      -0.02543053       0.07567776      -0.27321064
I        3.25873313       6.31304551       9.41783829       18      -0.01861891      -0.19906384       0.03238003
I       12.68802157       9.24907016       9.47005300       19      -0.03375180       0.02789855      -0.00960640
Cs       6.40543988      12.44638848       0.07854856       20      -0.02419499       0.03972904      -0.02546598
Sn       9.41668972       2.96468946       3.14359950       21      -0.25120246       0.31302029       0.15396968
I        9.33647574       3.19133521      -0.03719105       22       0.08569253       0.02182985       0.09470914
I        9.54129935      12.53870878       3.14622563       23      -0.00009108       0.13455310      -0.00697793
I        6.30295667       3.32013868       3.12498988       24       0.34069903      -0.15077396      -0.00881223
Cs       6.28009070      12.48750504       6.30373647       25       0.01847802       0.01308952       0.01745344
Sn       9.54680032       3.18435578       9.51794557       26      -0.39484474      -0.05520295      -0.16920364
I        9.34844855       3.19814160       6.27979163       27       0.05447704      -0.08273864      -0.08994987
I        9.50831387      12.52149089       9.60867783       28       0.02293790       0.38997945      -0.00351311
I        6.38879701       3.19223055       9.40657146       29      -0.11217256      -0.05756322       0.00690726
Cs       6.24209238       6.25981830       0.03419950       30      -0.01759509      -0.03501014       0.00323094
Sn       9.49958611       9.37069895       2.97480454       31      -0.33225971      -0.22668841       0.41724267
I        9.50845317       9.43091189      -0.01312768       32       0.00565288      -0.03711704       0.08879467
I        9.27362500       6.29617978       3.22865802       33       0.10381947       0.01517379      -0.06882913
I        6.34152234       9.62165295       3.15722975       34      -0.31884361       0.01159469      -0.04353776
Cs       6.32255051       6.28603881       6.31648715       35       0.00067185      -0.01815544      -0.00435649
Sn       9.39164947       9.44857415       9.49235581       36       0.14981633       0.07173510      -0.43054879
I        9.35468846       9.46532529       6.37196733       37       0.06471236       0.06647512      -0.08094483
I        9.44415058       6.40663461       9.33891768       38       0.05074934      -0.48738973       0.06461764
I        6.38081233       9.38522759       9.41278110       39      -0.11954792       0.05175877       0.08086114
40
Lattice="12.608931665587432 0.0 0.0 0.0 12.608931665587692 0.0 0.0 1.1971055391094798e-14 12.60893166558745" Properties=species:S:1:pos:R:3:spacegroup_kinds:I:1:forces:R:3 spacegroup="P 1" unit_cell=conventional occupancy="_JSON {\"0\": {\"Cs\": 1.0}, \"1\": {\"Sn\": 1.0}, \"2\": {\"I\": 1.0}, \"3\": {\"I\": 1.0}, \"4\": {\"I\": 1.0}, \"5\": {\"Cs\": 1.0}, \"6\": {\"Pb\": 1.0}, \"7\": {\"I\": 1.0}, \"8\": {\"I\": 1.0}, \"9\": {\"I\": 1.0}, \"10\": {\"Cs\": 1.0}, \"11\": {\"Sn\": 1.0}, \"12\": {\"I\": 1.0}, \"13\": {\"I\": 1.0}, \"14\": {\"I\": 1.0}, \"15\": {\"Cs\": 1.0}, \"16\": {\"Sn\": 1.0}, \"17\": {\"I\": 1.0}, \"18\": {\"I\": 1.0}, \"19\": {\"I\": 1.0}, \"20\": {\"Cs\": 1.0}, \"21\": {\"Sn\": 1.0}, \"22\": {\"I\": 1.0}, \"23\": {\"I\": 1.0}, \"24\": {\"I\": 1.0}, \"25\": {\"Cs\": 1.0}, \"26\": {\"Sn\": 1.0}, \"27\": {\"I\": 1.0}, \"28\": {\"I\": 1.0}, \"29\": {\"I\": 1.0}, \"30\": {\"Cs\": 1.0}, \"31\": {\"Sn\": 1.0}, \"32\": {\"I\": 1.0}, \"33\": {\"I\": 1.0}, \"34\": {\"I\": 1.0}, \"35\": {\"Cs\": 1.0}, \"36\": {\"Sn\": 1.0}, \"37\": {\"I\": 1.0}, \"38\": {\"I\": 1.0}, \"39\": {\"I\": 1.0}}" candidate_id=b4c3df3686b2475a formula=CsPb0.067Sn0.93I3 config_index=3 rattle_stdev=0.08 method=PBE fidelity=phase2_force energy=-111.80527943029988 stress="-0.0005728679110343011 7.784559976381623e-05 1.9913261503336137e-05 7.784559976381623e-05 -0.0006715245356936516 5.399453270261421e-05 1.9913261503336137e-05 5.399453270261421e-05 -3.87301268695472e-05" pbc="T T T"
Cs      12.48539090      12.75241462       0.02166244        0       0.03555934       0.03929416       0.02214799
Sn       3.13321922       3.15896273       3.22899630        1      -0.24447689      -0.24978063      -0.72628960
I        3.09770504       3.19455855       0.00498885        2       0.02468753      -0.00498323      -0.24549215
I        3.26462941      12.58389399       3.04776206        3       0.01208335      -0.13380253       0.00803113
I       12.54758561       3.02255825       3.04983503        4       0.15492228       0.05665698       0.04548532
Cs      12.57313065      12.52302950       6.22614934        5      -0.02372433       0.00986097      -0.01765902
Pb       3.17328658       2.94781747       9.32307608        6       0.04436238       0.37473284       0.42575988
I        3.09529410       2.95649087       6.13534874        7      -0.03513896      -0.02844583       0.61681386
I        3.20532272      12.43964264       9.39346597        8      -0.03310883       0.72558872       0.01358197
I       12.42175969       3.05706972       9.63803396        9       0.61560086       0.03018393      -0.01834232
Cs      12.55293216       6.39405623      -0.12653778       10       0.02403589      -0.06755522      -0.00773069
Sn       3.11293575       9.36073902       3.08781529       11       0.01551392       0.27484269      -0.01408347
I        3.26469841       9.43827350      -0.05003249       12      -0.04515613      -0.04158158       0.43525857
I        3.13922591       6.25721867       3.27336233       13      -0.01896242       0.17145665       0.00903263
I       12.46844839       9.50938112       3.12470362       14       0.95459005      -0.06478100       0.01342182
Cs      12.53037853       6.33608522       6.23402527       15      -0.02648584      -0.00069392       0.00986850
Sn       3.19644855       9.48730741       9.42699552       16      -0.09526251      -0.61906720       0.00480746
I        3.27848443       9.47404255       6.39432993       17      -0.01306276       0.01282851      -0.42601647
I        3.21075136       6.42536783       9.41027426       18      -0.01726108      -0.45401719      -0.03194204
I       12.59392126       9.32990956       9.45072144       19      -0.12169260       0.02630236       0.01118242
Cs       6.41822782      12.56984057      -0.03428669       20      -0.03546075       0.01864479       0.00702293
Sn       9.30497582       3.02900900       3.12080706       21       0.32810835       0.26915922      -0.00427589
I        9.42354028       3.20911834       0.05846527       22      -0.06107291      -0.03635608      -0.11909504
I        9.64848565      12.59467163       3.07116222       23      -0.11180012      -0.22814891       0.01991940
I        6.27604457       3.21991109       3.19178164       24      -0.11778115      -0.04497749       0.02212237
Cs       6.34461417      12.63284166       6.31201789       25       0.01278087      -0.03244216       0.00002068
Sn       9.47486966       3.12100568       9.39925734       26      -0.17094765      -0.05407486      -0.02018507
I        9.58022764       3.08319731       6.26869639       27      -0.01593368      -0.00284786       0.14876761
I        9.46340290      12.73620619       9.36235177       28      -0.02788774      -0.73696689       0.06759571
I        6.33954997       3.11836177       9.50144570       29      -0.39955127      -0.03710904      -0.05341855
Cs       6.27614354       6.32802290       0.08723369       30      -0.01171068      -0.03228219      -0.03366962
Sn       9.48989147       9.43859997       3.21268037       31      -0.15400138      -0.18354896       0.16525338
I        9.47470914       9.42151851       0.05300380       32       0.02356068      -0.00287936       0.01801527
I        9.38500889       6.19118739       3.29163165       33       0.06915616       0.21380246      -0.01042332
I        6.53868933       9.40280073       3.09055098       34      -0.83023613       0.03006547       0.01138876
Cs       6.40676250       6.41398015       6.29625840       35       0.00935014       0.01818472       0.02148846
Sn       9.45769822       9.40073703       9.60680268       36       0.07000276      -0.00578448      -0.25510994
I        9.42064608       9.43220001       6.41680773       37       0.00960045       0.01262707      -0.11261015
I        9.40441147       6.13020374       9.50512691       38      -0.00080185       0.76351529      -0.00347992
I        6.26958363       9.47329793       9.54441092       39       0.20472973       0.01056772       0.00173931
