40
Lattice="12.487356835047523 0.0 0.0 0.0 12.48648077935501 0.0 0.0 4.789802319240316e-14 12.486480779355166" Properties=species:S:1:pos:R:3:spacegroup_kinds:I:1:forces:R:3 spacegroup="P 1" unit_cell=conventional occupancy="_JSON {\"0\": {\"Cs\": 1.0}, \"1\": {\"Sn\": 1.0}, \"2\": {\"I\": 1.0}, \"3\": {\"I\": 1.0}, \"4\": {\"I\": 1.0}, \"5\": {\"Cs\": 1.0}, \"6\": {\"Sn\": 1.0}, \"7\": {\"I\": 1.0}, \"8\": {\"I\": 1.0}, \"9\": {\"I\": 1.0}, \"10\": {\"K\": 1.0}, \"11\": {\"Sn\": 1.0}, \"12\": {\"I\": 1.0}, \"13\": {\"I\": 1.0}, \"14\": {\"I\": 1.0}, \"15\": {\"K\": 1.0}, \"16\": {\"Sn\": 1.0}, \"17\": {\"I\": 1.0}, \"18\": {\"I\": 1.0}, \"19\": {\"I\": 1.0}, \"20\": {\"K\": 1.0}, \"21\": {\"Sn\": 1.0}, \"22\": {\"I\": 1.0}, \"23\": {\"I\": 1.0}, \"24\": {\"I\": 1.0}, \"25\": {\"Cs\": 1.0}, \"26\": {\"Sn\": 1.0}, \"27\": {\"I\": 1.0}, \"28\": {\"I\": 1.0}, \"29\": {\"I\": 1.0}, \"30\": {\"K\": 1.0}, \"31\": {\"Sn\": 1.0}, \"32\": {\"I\": 1.0}, \"33\": {\"I\": 1.0}, \"34\": {\"I\": 1.0}, \"35\": {\"Cs\": 1.0}, \"36\": {\"Sn\": 1.0}, \"37\": {\"I\": 1.0}, \"38\": {\"I\": 1.0}, \"39\": {\"I\": 1.0}}" candidate_id=ac345a58d14d2d47 formula=FA0.46K0.54SnI3 config_index=0 rattle_stdev=0.0 method=PBE fidelity=phase2_force energy=-111.74687416316087 stress="-0.00010170781042862812 0.0 0.0 0.0 -0.00010269553596585257 3.939391130590532e-19 0.0 3.939391130590532e-19 -0.00010234497618281925" pbc="T T T"
Cs       0.00000000       0.00000000       0.00000000        0       0.00000000       0.00000000       0.00000000
Sn       3.12183921       3.13643138       3.10680901        1       0.00021813      -0.02395687       0.02435945
I        3.14280327       3.17919732       0.00000000        2      -0.00731704      -0.00674708       0.00000000
I        3.15737757       0.00000000       3.05848898        3      -0.00329245       0.00000000       0.01177056
I        0.00000000       3.20986370       3.08922294        4      -0.00000000      -0.01448222       0.00385626
Cs       0.00000000       0.00000000       6.24324039        5       0.00000000       0.00000000       0.00000000
Sn       3.12183921       3.13643138       9.37967177        6       0.00021813      -0.02395687      -0.02435945
I        3.08630085       3.18475141       6.24324039        7       0.00327511      -0.01177939       0.00000000
I        3.15737757       0.00000000       9.42799180        8      -0.00329245      -0.00000000      -0.01177056
I        0.00000000       3.20986370       9.39725784        9       0.00000000      -0.01448222      -0.00385626
K       12.48735684       6.24324039      12.48648078       10       0.00000000       0.00000000       0.00000000
Sn       3.12183921       9.35004940       3.10680901       11       0.00021813       0.02395687       0.02435945
I        3.14280327       9.30728346       0.00000000       12      -0.00731704       0.00674708       0.00000000
I        3.10087515       6.24324039       3.06404307       13       0.00731958       0.00000000       0.00674011
I        0.00000000       9.27661708       3.08922294       14      -0.00000000       0.01448222       0.00385626
K       12.48735684       6.24324039       6.24324039       15       0.00000000       0.00000000       0.00000000
Sn       3.12183921       9.35004940       9.37967177       16       0.00021813       0.02395687      -0.02435945
I        3.08630085       9.30172937       6.24324039       17       0.00327511       0.01177939       0.00000000
I        3.10087515       6.24324039       9.42243771       18       0.00731958      -0.00000000      -0.00674011
I        0.00000000       9.27661708       9.39725784       19      -0.00000000       0.01448222      -0.00385626
K        6.24367842      12.48648078      12.48648078       20       0.00000000       0.00000000       0.00000000
Sn       9.36551763       3.13643138       3.10680901       21      -0.00021813      -0.02395687       0.02435945
I        9.34455357       3.17919732       0.00000000       22       0.00731704      -0.00674708       0.00000000
I        9.32997927       0.00000000       3.05848898       23       0.00329245       0.00000000       0.01177056
I        6.24367842       3.15401745       3.03337669       24      -0.00000000      -0.00385416       0.01447498
Cs       6.24367842       0.00000000       6.24324039       25       0.00000000       0.00000000       0.00000000
Sn       9.36551763       3.13643138       9.37967177       26      -0.00021813      -0.02395687      -0.02435945
I        9.40105598       3.18475141       6.24324039       27      -0.00327511      -0.01177939       0.00000000
I        9.32997927       0.00000000       9.42799180       28       0.00329245      -0.00000000      -0.01177056
I        6.24367842       3.15401745       9.45310409       29      -0.00000000      -0.00385416      -0.01447498
K        6.24367842       6.24324039      12.48648078       30       0.00000000       0.00000000       0.00000000
Sn       9.36551763       9.35004940       3.10680901       31      -0.00021813       0.02395687       0.02435945
I        9.34455357       9.30728346       0.00000000       32       0.00731704       0.00674708       0.00000000
I        9.38648169       6.24324039       3.06404307       33      -0.00731958       0.00000000       0.00674011
I        6.24367842       9.33246333       3.03337669       34       0.00000000       0.00385416       0.01447498
Cs       6.24367842       6.24324039       6.24324039       35      -0.00000000      -0.00000000       0.00000000
Sn       9.36551763       9.35004940       9.37967177       36      -0.00021813       0.02395687      -0.02435945
I        9.40105598       9.30172937       6.24324039       37      -0.00327511       0.01177939       0.00000000
I        9.38648169       6.24324039       9.42243771       38      -0.00731958      -0.00000000      -0.00674011
I        6.24367842       9.33246333       9.45310409       39       0.00000000       0.00385416      -0.01447498
40
Lattice="12.487356835047523 0.0 0.0 0.0 12.48648077935501 0.0 0.0 4.789802319240316e-14 12.486480779355166" Properties=species:S:1:pos:R:3:spacegroup_kinds:I:1:forces:R:3 spacegroup="P 1" unit_cell=conventional occupancy="_JSON {\"0\": {\"Cs\": 1.0}, \"1\": {\"Sn\": 1.0}, \"2\": {\"I\": 1.0}, \"3\": {\"I\": 1.0}, \"4\": {\"I\": 1.0}, \"5\": {\"Cs\": 1.0}, \"6\": {\"Sn\": 1.0}, \"7\": {\"I\": 1.0}, \"8\": {\"I\": 1.0}, \"9\": {\"I\": 1.0}, \"10\": {\"K\": 1.0}, \"11\": {\"Sn\": 1.0}, \"12\": {\"I\": 1.0}, \"13\": {\"I\": 1.0}, \"14\": {\"I\": 1.0}, \"15\": {\"K\": 1.0}, \"16\": {\"Sn\": 1.0}, \"17\": {\"I\": 1.0}, \"18\": {\"I\": 1.0}, \"19\": {\"I\": 1.0}, \"20\": {\"K\": 1.0}, \"21\": {\"Sn\": 1.0}, \"22\": {\"I\": 1.0}, \"23\": {\"I\": 1.0}, \"24\": {\"I\": 1.0}, \"25\": {\"Cs\": 1.0}, \"26\": {\"Sn\": 1.0}, \"27\": {\"I\": 1.0}, \"28\": {\"I\": 1.0}, \"29\": {\"I\": 1.0}, \"30\": {\"K\": 1.0}, \"31\": {\"Sn\": 1.0}, \"32\": {\"I\": 1.0}, \"33\": {\"I\": 1.0}, \"34\": {\"I\": 1.0}, \"35\": {\"Cs\": 1.0}, \"36\": {\"Sn\": 1.0}, \"37\": {\"I\": 1.0}, \"38\": {\"I\": 1.0}, \"39\": {\"I\": 1.0}}" candidate_id=ac345a58d14d2d47 formula=FA0.46K0.54SnI3 config_index=1 rattle_stdev=0.08 method=PBE fidelity=phase2_force energy=-111.2487314185455 stress="-0.001850571757611023 7.725893798126384e-05 5.0549975985629866e-05 7.725893798126384e-05 -0.0011189036866514747 -8.762742144081936e-05 5.0549975985629866e-05 -8.762742144081936e-05 -0.002356212295227621" pbc="T T T"
Cs      -0.08691571      -0.07168521      -0.02450395        0      -0.01329736       0.03473191       0.02747365
Sn       3.01464452       3.03990453       3.05547087        1       0.27424334       0.23676240       0.19453311
I        3.24743892       3.32683415       0.06632920        2      -0.06803886      -0.05644782      -0.04889377
I        3.15551366      -0.01668512       2.98515940        3       0.00364465       0.02765742      -0.01459537
I       -0.08597941       3.20297222       3.18329003        4       0.46682070      -0.02293134       0.00747817
Cs      -0.13080734       0.09825552       6.32935129        5       0.03617823       0.03467153      -0.03674197
Sn       3.15342104       3.10541531       9.42674391        6       0.09953356      -0.03084042      -0.16435020
I        2.97163695       3.15886544       6.34347916        7       0.05813433       0.01321830      -0.14520616
I        3.09891816       0.11427881       9.50356411        8      -0.00610373      -0.42638211      -0.00205351
I       -0.02112022       3.19680663       9.32012926        9       0.08076674      -0.00344968       0.03190887
K       12.45994505       6.24715271      12.44651022       10      -0.00181117      -0.02967471       0.01835374
Sn       2.94488685       9.37483635       2.97963691       11       0.72372247      -0.22595695      -0.08783262
I        3.20115964       9.29865136      -0.05201372       12      -0.04220081       0.03844264       0.01398413
I        2.96543063       6.21376247       2.93681334       13       0.01471740       0.04629233       0.07498986
I        0.11844047       9.31457230       3.16233205       14      -0.80542933       0.02817946       0.03723100
K       12.56419446       6.25000380       6.38061886       15       0.03765303      -0.04779105       0.02448238
Sn       3.18999063       9.28965858       9.19666142       16       0.23878370       0.06945207       0.24897872
I        3.09503995       9.26571672       6.21020259       17       0.00366430      -0.01694943      -0.06255423
I        3.12639385       6.19995175       9.49833102       18      -0.01045329       0.40108045      -0.06033357
I        0.01211480       9.28276928       9.39250581       19       0.27904336       0.01590445      -0.01266741
K        6.23806732      12.44118886      12.51136121       20       0.00823676       0.00757270       0.02413886
Sn       9.42345433       3.17774738       3.18889147       21      -0.42278823      -0.26325015      -0.44102277
I        9.38616577       3.10961023       0.12004521       22       0.05940849       0.02007373      -0.40597722
I        9.42329704       0.03935316       2.99990800       23      -0.01178988      -0.09468073       0.12208913
I        6.29810291       3.19473720       2.96637379       24      -0.30495957      -0.01067475       0.07742957
Cs       6.29549001       0.00100316       6.36800752       25      -0.02796387       0.01299979      -0.02583540
Sn       9.44828526       3.16344679       9.27546293       26      -0.16420507       0.22207708       0.28576930
I        9.31157244       3.28951262       6.20178303       27      -0.02126174      -0.04586239       0.40548294
I        9.29852933       0.08343748       9.43396902       28       0.04627971      -0.17695331      -0.06748858
I        6.25083338       3.15833004       9.48657985       29      -0.03966273      -0.00144757      -0.02552249
K        6.14546001       6.15607707      12.51185073       30      -0.03209275      -0.04910623       0.04104707
Sn       9.30308518       9.28155892       3.00121930       31      -0.19879404       0.23619643       0.17320986
I        9.38085610       9.38742545       0.11309877       32       0.01096109       0.00082048      -0.30508771
I        9.37126706       6.24564923       2.91416974       33       0.02196144       0.10184684       0.00954023
I        6.23433626       9.32226410       3.10555144       34       0.26091553      -0.00150463       0.01357469
Cs       6.13852864       6.23527633       6.25448438       35      -0.01005569      -0.02149664      -0.01370929
Sn       9.57582210       9.49051171       9.16881994       36      -0.48987395      -0.22242127       0.78589809
I        9.29812442       9.28799159       6.38727669       37       0.03568205       0.04342659      -0.79662132
I        9.43517734       6.24576243       9.30512473       38       0.01515717       0.14917856       0.05537261
I        6.26843368       9.42384076       9.41223655       39      -0.09952998       0.00064984      -0.00613346
40
Lattice="12.487356835047523 0.0 0.0 0.0 12.48648077935501 0.0 0.0 4.789802319240316e-14 12.486480779355166" Properties=species:S:1:pos:R:3:spacegroup_kinds:I:1:forces:R:3 spacegroup="P 1" unit_cell=conventional occupancy="_JSON {\"0\": {\"Cs\": 1.0}, \"1\": {\"Sn\": 1.0}, \"2\": {\"I\": 1.0}, \"3\": {\"I\": 1.0}, \"4\": {\"I\": 1.0}, \"5\": {\"Cs\": 1.0}, \"6\": {\"Sn\": 1.0}, \"7\": {\"I\": 1.0}, \"8\": {\"I\": 1.0}, \"9\": {\"I\": 1.0}, \"10\": {\"K\": 1.0}, \"11\": {\"Sn\": 1.0}, \"12\": {\"I\": 1.0}, \"13\": {\"I\": 1.0}, \"14\": {\"I\": 1.0}, \"15\": {\"K\": 1.0}, \"16\": {\"Sn\": 1.0}, \"17\": {\"I\": 1.0}, \"18\": {\"I\": 1.0}, \"19\": {\"I\": 1.0}, \"20\": {\"K\": 1.0}, \"21\": {\"Sn\": 1.0}, \"22\": {\"I\": 1.0}, \"23\": {\"I\": 1.0}, \"24\": {\"I\": 1.0}, \"25\": {\"Cs\": 1.0}, \"26\": {\"Sn\": 1.0}, \"27\": {\"I\": 1.0}, \"28\": {\"I\": 1.0}, \"29\": {\"I\": 1.0}, \"30\": {\"K\": 1.0}, \"31\": {\"Sn\": 1.0}, \"32\": {\"I\": 1.0}, \"33\": {\"I\": 1.0}, \"34\": {\"I\": 1.0}, \"35\": {\"Cs\": 1.0}, \"36\": {\"Sn\": 1.0}, \"37\": {\"I\": 1.0}, \"38\": {\"I\": 1.0}, \"39\": {\"I\": 1.0}}" candidate_id=ac345a58d14d2d47 formula=FA0.46K0.54SnI3 config_index=2 rattle_stdev=0.08 method=PBE fidelity=phase2_force energy=-111.28468377813884 stress="-0.0013834989863969 2.3158517292461474e-05 -2.7343537289613322e-05 2.3158517292461474e-05 -0.001463713312527653 -3.5208040917322935e-05 -2.7343537289613322e-05 -3.5208040917322935e-05 -0.0010919865102169178" pbc="T T T"
Cs      -0.00901704      -0.08612512       0.14280215        0       0.02238906      -0.00636843      -0.06504659
Sn       3.00528054       3.11032571       3.00601730        1       0.64319987       0.20780219       0.13110309
I        3.17287259       3.10894553      -0.02799806        2      -0.05470042       0.05022212      -0.00603927
I        3.18111038       0.09607295       2.93296936        3      -0.01854990      -0.53175770       0.04399209
I        0.14832230       3.24938064       3.07876603        4      -0.87822833       0.01750063      -0.04263943
Cs      -0.03224966      -0.07789298       6.20584305        5      -0.01355452      -0.01230487       0.04982870
Sn       3.06440549       3.23414284       9.31749576        6       0.35392379      -0.08306605      -0.05810761
I        3.03921880       3.18014190       6.24960678        7       0.02522562      -0.08820092      -0.05476835
I        3.06272148      -0.12389940       9.50097229        8      -0.00203332       0.38403861      -0.01785665
I        0.03301366       3.15420218       9.21415609        9      -0.14193982       0.02038500       0.04684894
K       12.42437751       6.16095906      12.49394543       10       0.01054564       0.02442471      -0.02222393
Sn       3.07950368       9.41246899       3.09074384       11       0.20897632      -0.18441653       0.04609846
I        3.10435458       9.22446249      -0.04021875       12       0.01263832      -0.05426382       0.36748396
I        3.16406636       6.16924058       3.24084590       13      -0.01201553       0.48079048      -0.05408791
I       -0.11201889       9.25748929       3.10661020       14       0.53092829      -0.00358625       0.03092827
K       12.45916601       6.25011043       6.25177255       15      -0.00190847       0.01271866       0.02878117
Sn       3.10607671       9.45780411       9.40728568       16      -0.08076503      -0.29461640      -0.13560385
I        3.13091241       9.25410656       6.30186696       17      -0.02291404       0.08346480      -0.28904893
I        3.20737536       6.18483775       9.38357724       18      -0.00104630      -0.00440787       0.03304989
I        0.08615314       9.06898849       9.41061209       19      -0.07953687       0.02489729      -0.01558396
K        6.32679519      12.34179487      12.54717205       20      -0.00622905      -0.00174179       0.00167514
Sn       9.32550860       2.94888792       3.09817560       21      -0.22553487       0.34539038       0.14503622
I        9.22433055       3.21829961      -0.04425428       22       0.09136435       0.04034369       0.16249280
I        9.41457987      -0.06954543       3.05248169       23       0.00414652       0.12617345       0.00080536
I        6.23510602       3.32192321       3.00613366       24       0.34682325      -0.13690334       0.00772992
Cs       6.20144601      -0.10356935       6.26036831       25       0.01903187       0.00752877       0.01862900
Sn       9.45561919       3.16855424       9.44091859       26      -0.36043351      -0.07816421      -0.23587583
I        9.29280579       3.23066009       6.22562942       27       0.04429417      -0.09356846      -0.09546212
I        9.38159439      -0.08037754       9.57997089       28       0.01708195       0.40640424      -0.00443014
I        6.26102728       3.19401508       9.40297680       29       0.05766299      -0.05822741      -0.01951194
K        6.16344768       6.18073557      12.50282300       30      -0.02739824      -0.06603676       0.01163726
Sn       9.40840499       9.26404961       2.92938063       31      -0.36328787      -0.19170629       0.51986178
I        9.39630798       9.28149660      -0.01380513       32       0.01923300      -0.03307928       0.03521468
I        9.20340794       6.23427688       3.14046818       33       0.08330677      -0.05350386      -0.04937221
I        6.28005747       9.49741753       3.03837353       34      -0.36223421       0.05068697      -0.04341815
Cs       6.24390581       6.20695608       6.27311899       35       0.00570474      -0.01744652      -0.01160507
Sn       9.30046835       9.34192480       9.41532882       36       0.21069795       0.12916195      -0.46366217
I        9.29904569       9.31035591       6.31141934       37       0.05001013       0.08539083      -0.10785656
I        9.37393352       6.33834593       9.30465664       38       0.05331877      -0.55127967       0.04390737
I        6.31296168       9.26099217       9.40918644       39      -0.15900865       0.04554528       0.06474890
40
Lattice="12.487356835047523 0.0 0.0 0.0 12.48648077935501 0.0 0.0 4.789802319240316e-14 12.486480779355166" Properties=species:S:1:pos:R:3:spacegroup_kinds:I:1:forces:R:3 spacegroup="P 1" unit_cell=conventional occupancy="_JSON {\"0\": {\"Cs\": 1.0}, \"1\": {\"Sn\": 1.0}, \"2\": {\"I\": 1.0}, \"3\": {\"I\": 1.0}, \"4\": {\"I\": 1.0}, \"5\": {\"Cs\": 1.0}, \"6\": {\"Sn\": 1.0}, \"7\": {\"I\": 1.0}, \"8\": {\"I\": 1.0}, \"9\": {\"I\": 1.0}, \"10\": {\"K\": 1.0}, \"11\": {\"Sn\": 1.0}, \"12\": {\"I\": 1.0}, \"13\": {\"I\": 1.0}, \"14\": {\"I\": 1.0}, \"15\": {\"K\": 1.0}, \"16\": {\"Sn\": 1.0}, \"17\": {\"I\": 1.0}, \"18\": {\"I\": 1.0}, \"19\": {\"I\": 1.0}, \"20\": {\"K\": 1.0}, \"21\": {\"Sn\": 1.0}, \"22\": {\"I\": 1.0}, \"23\": {\"I\": 1.0}, \"24\": {\"I\": 1.0}, \"25\": {\"Cs\": 1.0}, \"26\": {\"Sn\": 1.0}, \"27\": {\"I\": 1.0}, \"28\": {\"I\": 1.0}, \"29\": {\"I\": 1.0}, \"30\": {\"K\": 1.0}, \"31\": {\"Sn\": 1.0}, \"32\": {\"I\": 1.0}, \"33\": {\"I\": 1.0}, \"34\": {\"I\": 1.0}, \"35\": {\"Cs\": 1.0}, \"36\": {\"Sn\": 1.0}, \"37\": {\"I\": 1.0}, \"38\": {\"I\": 1.0}, \"39\": {\"I\": 1.0}}" candidate_id=ac345a58d14d2d47 formula=FA0.46K0.54SnI3 config_index=3 rattle_stdev=0.08 method=PBE fidelity=phase2_force energy=-111.09669824854659 stress="-0.0014078414148937708 9.729480003649901e-05 8.078342189365338e-05 9.729480003649901e-05 -0.0014582967695789695 6.670419431959735e-05 8.078342189365338e-05 6.670419431959735e-05 -0.0009192293295044106" pbc="T T T"
Cs      -0.10568348       0.16134023       0.00380516        0       0.04011808       0.03443500       0.01746714
Sn       3.10282552       3.14316119       3.18357239        1      -0.26323551      -0.32889449      -0.58088685
I        3.08827539       3.22152295      -0.06199346        2       0.01747755      -0.00682507      -0.08720158
I        3.26977406      -0.01797444       2.95401812        3       0.01809430      -0.13177974       0.01276575
I       -0.05428282       3.08018903       2.98682506        4       0.13259677       0.03150548       0.04411814
Cs      -0.01794374      -0.06804488       6.18278118        5      -0.02290458       0.00923786      -0.01873001
Sn       3.14289287       2.93201593       9.24604909        6       0.03426182       0.40023851       0.45527144
I        3.02936204       2.98900936       6.14110560        7      -0.02211012      -0.01919670       0.32527237
I        3.21046737      -0.10230672       9.36475902        8      -0.03106714       0.45597625       0.01098056
I       -0.12018966       3.11470050       9.57859305        9       0.37184145       0.01092809      -0.03607673
K       12.44921461       6.31497351      12.34208572       10       0.01039761      -0.04596005      -0.05775489
Sn       3.08254204       9.25408968       3.04239139       11       0.02167159       0.29702015       0.00201379
I        3.25526876       9.28885821      -0.05709572       12      -0.05162826      -0.04848939       0.49504943
I        3.08786814       6.18893000       3.18517249       13      -0.02519241       0.20599822       0.02859881
I       -0.13980583       9.32929945       3.06169364       14       1.05445050      -0.05735571       0.01134975
K       12.42666098       6.25700249       6.19065711       15      -0.04349565       0.01215157      -0.00684475
Sn       3.16605485       9.38065806       9.34996854       16      -0.14395038      -0.53585666      -0.01894285
I        3.21255237       9.31907317       6.34016772       17      -0.00693211       0.03232097      -0.47577373
I        3.15939359       6.29716008       9.37601322       18      -0.01258517      -0.28569248      -0.04931998
I       -0.00794717       9.14982789       9.39128052       19      -0.11505645       0.01091722       0.02345988
K        6.33958313      12.46524696      12.43433681       20      -0.02585495       0.00236602      -0.00519403
Sn       9.21379470       3.01320746       3.07538316       21       0.35382130       0.25424519       0.02657413
I        9.31139510       3.23608274       0.05140203       22      -0.06389257      -0.04495498      -0.13720060
I        9.52176617      -0.01358259       2.97741828       23      -0.09791379      -0.24263337       0.02626765
I        6.20819392       3.22169562       3.07292541       24      -0.12177097      -0.03458350       0.03307603
Cs       6.26596948       0.04176727       6.26864973       25       0.00756646      -0.02896459      -0.00402392
Sn       9.38368854       3.10520414       9.32223036       26      -0.08544217      -0.09617848      -0.02579990
I        9.52458488       3.11571580       6.21453418       27      -0.01097856      -0.01002196       0.14259389
I        9.33668342       0.13433776       9.33364482       28      -0.01825260      -0.81882424       0.06365230
I        6.21178025       3.12014630       9.49785103       29      -0.21668423      -0.05211182      -0.07521901
K        6.19749884       6.24894018      12.55585719       30      -0.01793630      -0.01744504      -0.02082631
Sn       9.39871034       9.33195062       3.16725646       31      -0.14997872      -0.17383187       0.21381851
I        9.36256396       9.27210322       0.05232634       32       0.05037845      -0.01163002       0.04028087
I        9.31479183       6.12928450       3.20344180       33       0.07339125       0.24767181       0.02356500
I        6.47722447       9.27856531       2.97169475       34      -0.96106522       0.01959632       0.00949631
Cs       6.32811780       6.33489743       6.25289023       35       0.00860382       0.00945287       0.01704079
Sn       9.36651710       9.29408769       9.52977570       36       0.07498058       0.00156780      -0.29562628
I        9.36500331       9.27723062       6.35625974       37       0.00706825       0.01954477      -0.12188996
I        9.33419441       6.06191506       9.47086586       38      -0.01710907       0.90478641       0.00050257
I        6.20173298       9.34906251       9.54081625       39       0.24874315       0.02078578      -0.01019713
