Rb Sn I  Rb Sn I  Rb Ge I  Rb Ge I  Rb Ge I  Rb Sn I  Rb Ge I  Rb Ge I 
 1.0000000000000000
    12.4193406620480467    0.0000000000000000    0.0000000000000000
     0.0000000000000000   12.4193406620480467    0.0000000000000000
     0.0000000000000000    0.0000000000000000   12.4193406620480467
 Rb  Sn  I   Rb  Sn  I   Rb  Ge  I   Rb  Ge  I   Rb  Ge  I   Rb  Sn  I   Rb  Ge  I   Rb  Ge  I  
   1   1   3   1   1   3   1   1   3   1   1   3   1   1   3   1   1   3   1   1   3   1   1   3
Cartesian
  0.0000000000000000  0.0000000000000000  0.0000000000000000
  3.1048351655120117  3.1048351655120117  3.1048351655120117
  3.1048351655120117  3.1048351655120117  0.0000000000000000
  3.1048351655120117  0.0000000000000000  3.1048351655120117
  0.0000000000000000  3.1048351655120117  3.1048351655120117
  0.0000000000000000  0.0000000000000000  6.2096703310240224
  3.1048351655120117  3.1048351655120117  9.3145054965360359
  3.1048351655120117  3.1048351655120117  6.2096703310240224
  3.1048351655120117  0.0000000000000000  9.3145054965360359
  0.0000000000000000  3.1048351655120117  9.3145054965360359
  0.0000000000000000  6.2096703310240224  0.0000000000000000
  3.1048351655120117  9.3145054965360359  3.1048351655120117
  3.1048351655120117  9.3145054965360359  0.0000000000000000
  3.1048351655120117  6.2096703310240224  3.1048351655120117
  0.0000000000000000  9.3145054965360359  3.1048351655120117
  0.0000000000000000  6.2096703310240224  6.2096703310240224
  3.1048351655120117  9.3145054965360359  9.3145054965360359
  3.1048351655120117  9.3145054965360359  6.2096703310240224
  3.1048351655120117  6.2096703310240224  9.3145054965360359
  0.0000000000000000  9.3145054965360359  9.3145054965360359
  6.2096703310240224  0.0000000000000000  0.0000000000000000
  9.3145054965360359  3.1048351655120117  3.1048351655120117
  9.3145054965360359  3.1048351655120117  0.0000000000000000
  9.3145054965360359  0.0000000000000000  3.1048351655120117
  6.2096703310240224  3.1048351655120117  3.1048351655120117
  6.2096703310240224  0.0000000000000000  6.2096703310240224
  9.3145054965360359  3.1048351655120117  9.3145054965360359
  9.3145054965360359  3.1048351655120117  6.2096703310240224
  9.3145054965360359  0.0000000000000000  9.3145054965360359
  6.2096703310240224  3.1048351655120117  9.3145054965360359
  6.2096703310240224  6.2096703310240224  0.0000000000000000
  9.3145054965360359  9.3145054965360359  3.1048351655120117
  9.3145054965360359  9.3145054965360359  0.0000000000000000
  9.3145054965360359  6.2096703310240224  3.1048351655120117
  6.2096703310240224  9.3145054965360359  3.1048351655120117
  6.2096703310240224  6.2096703310240224  6.2096703310240224
  9.3145054965360359  9.3145054965360359  9.3145054965360359
  9.3145054965360359  9.3145054965360359  6.2096703310240224
  9.3145054965360359  6.2096703310240224  9.3145054965360359
  6.2096703310240224  9.3145054965360359  9.3145054965360359
