Cs Pb Cl Cs Pb Cl Cs Pb Cl Cs Ge Cl Cs Pb Cl Cs Pb Cl Cs Ge Cl Cs Pb Cl
 1.0000000000000000
    11.5399826689644556    0.0000000000000000    0.0000000000000000
     0.0000000000000000   11.5399826689644556    0.0000000000000000
     0.0000000000000000    0.0000000000000000   11.5399826689644556
 Cs  Pb  Cl  Cs  Pb  Cl  Cs  Pb  Cl  Cs  Ge  Cl  Cs  Pb  Cl  Cs  Pb  Cl  Cs  Ge  Cl  Cs  Pb  Cl 
   1   1   3   1   1   3   1   1   3   1   1   3   1   1   3   1   1   3   1   1   3   1   1   3
Cartesian
  0.0000000000000000  0.0000000000000000  0.0000000000000000
  2.8849956672411139  2.8849956672411139  2.8849956672411139
  2.8849956672411139  2.8849956672411139  0.0000000000000000
  2.8849956672411139  0.0000000000000000  2.8849956672411139
  0.0000000000000000  2.8849956672411139  2.8849956672411139
  0.0000000000000000  0.0000000000000000  5.7699913344822269
  2.8849956672411139  2.8849956672411139  8.6549870017233417
  2.8849956672411139  2.8849956672411139  5.7699913344822269
  2.8849956672411139  0.0000000000000000  8.6549870017233417
  0.0000000000000000  2.8849956672411139  8.6549870017233417
  0.0000000000000000  5.7699913344822269  0.0000000000000000
  2.8849956672411139  8.6549870017233417  2.8849956672411139
  2.8849956672411139  8.6549870017233417  0.0000000000000000
  2.8849956672411139  5.7699913344822269  2.8849956672411139
  0.0000000000000000  8.6549870017233417  2.8849956672411139
  0.0000000000000000  5.7699913344822269  5.7699913344822269
  2.8849956672411139  8.6549870017233417  8.6549870017233417
  2.8849956672411139  8.6549870017233417  5.7699913344822269
  2.8849956672411139  5.7699913344822269  8.6549870017233417
  0.0000000000000000  8.6549870017233417  8.6549870017233417
  5.7699913344822269  0.0000000000000000  0.0000000000000000
  8.6549870017233417  2.8849956672411139  2.8849956672411139
  8.6549870017233417  2.8849956672411139  0.0000000000000000
  8.6549870017233417  0.0000000000000000  2.8849956672411139
  5.7699913344822269  2.8849956672411139  2.8849956672411139
  5.7699913344822269  0.0000000000000000  5.7699913344822269
  8.6549870017233417  2.8849956672411139  8.6549870017233417
  8.6549870017233417  2.8849956672411139  5.7699913344822269
  8.6549870017233417  0.0000000000000000  8.6549870017233417
  5.7699913344822269  2.8849956672411139  8.6549870017233417
  5.7699913344822269  5.7699913344822269  0.0000000000000000
  8.6549870017233417  8.6549870017233417  2.8849956672411139
  8.6549870017233417  8.6549870017233417  0.0000000000000000
  8.6549870017233417  5.7699913344822269  2.8849956672411139
  5.7699913344822269  8.6549870017233417  2.8849956672411139
  5.7699913344822269  5.7699913344822269  5.7699913344822269
  8.6549870017233417  8.6549870017233417  8.6549870017233417
  8.6549870017233417  8.6549870017233417  5.7699913344822269
  8.6549870017233417  5.7699913344822269  8.6549870017233417
  5.7699913344822269  8.6549870017233417  8.6549870017233417
