Rb Pb I  Rb Pb I  Rb Ge I  Rb Ge I  Rb Ge I  Rb Pb I  Rb Ge I  Rb Ge I 
 1.0000000000000000
    12.4566759000946945    0.0000000000000000    0.0000000000000000
     0.0000000000000000   12.4566759000946945    0.0000000000000000
     0.0000000000000000    0.0000000000000000   12.4566759000946945
 Rb  Pb  I   Rb  Pb  I   Rb  Ge  I   Rb  Ge  I   Rb  Ge  I   Rb  Pb  I   Rb  Ge  I   Rb  Ge  I  
   1   1   3   1   1   3   1   1   3   1   1   3   1   1   3   1   1   3   1   1   3   1   1   3
Cartesian
  0.0000000000000000  0.0000000000000000  0.0000000000000000
  3.1141689750236736  3.1141689750236736  3.1141689750236736
  3.1141689750236736  3.1141689750236736  0.0000000000000000
  3.1141689750236736  0.0000000000000000  3.1141689750236736
  0.0000000000000000  3.1141689750236736  3.1141689750236736
  0.0000000000000000  0.0000000000000000  6.2283379500473464
  3.1141689750236736  3.1141689750236736  9.3425069250710209
  3.1141689750236736  3.1141689750236736  6.2283379500473464
  3.1141689750236736  0.0000000000000000  9.3425069250710209
  0.0000000000000000  3.1141689750236736  9.3425069250710209
  0.0000000000000000  6.2283379500473464  0.0000000000000000
  3.1141689750236736  9.3425069250710209  3.1141689750236736
  3.1141689750236736  9.3425069250710209  0.0000000000000000
  3.1141689750236736  6.2283379500473464  3.1141689750236736
  0.0000000000000000  9.3425069250710209  3.1141689750236736
  0.0000000000000000  6.2283379500473464  6.2283379500473464
  3.1141689750236736  9.3425069250710209  9.3425069250710209
  3.1141689750236736  9.3425069250710209  6.2283379500473464
  3.1141689750236736  6.2283379500473464  9.3425069250710209
  0.0000000000000000  9.3425069250710209  9.3425069250710209
  6.2283379500473464  0.0000000000000000  0.0000000000000000
  9.3425069250710209  3.1141689750236736  3.1141689750236736
  9.3425069250710209  3.1141689750236736  0.0000000000000000
  9.3425069250710209  0.0000000000000000  3.1141689750236736
  6.2283379500473464  3.1141689750236736  3.1141689750236736
  6.2283379500473464  0.0000000000000000  6.2283379500473464
  9.3425069250710209  3.1141689750236736  9.3425069250710209
  9.3425069250710209  3.1141689750236736  6.2283379500473464
  9.3425069250710209  0.0000000000000000  9.3425069250710209
  6.2283379500473464  3.1141689750236736  9.3425069250710209
  6.2283379500473464  6.2283379500473464  0.0000000000000000
  9.3425069250710209  9.3425069250710209  3.1141689750236736
  9.3425069250710209  9.3425069250710209  0.0000000000000000
  9.3425069250710209  6.2283379500473464  3.1141689750236736
  6.2283379500473464  9.3425069250710209  3.1141689750236736
  6.2283379500473464  6.2283379500473464  6.2283379500473464
  9.3425069250710209  9.3425069250710209  9.3425069250710209
  9.3425069250710209  9.3425069250710209  6.2283379500473464
  9.3425069250710209  6.2283379500473464  9.3425069250710209
  6.2283379500473464  9.3425069250710209  9.3425069250710209
