Cs Pb I  Cs Pb I  Cs Sn I  Cs Sn I  Cs Sn I  Cs Pb I  Cs Sn I  Cs Pb I 
 1.0000000000000000
    13.5399634888724840    0.0000000000000000    0.0000000000000000
     0.0000000000000000   13.5399634888724840    0.0000000000000000
     0.0000000000000000    0.0000000000000000   13.5399634888724840
 Cs  Pb  I   Cs  Pb  I   Cs  Sn  I   Cs  Sn  I   Cs  Sn  I   Cs  Pb  I   Cs  Sn  I   Cs  Pb  I  
   1   1   3   1   1   3   1   1   3   1   1   3   1   1   3   1   1   3   1   1   3   1   1   3
Cartesian
  0.0000000000000000  0.0000000000000000  0.0000000000000000
  3.3849908722181210  3.3849908722181210  3.3849908722181210
  3.3849908722181210  3.3849908722181210  0.0000000000000000
  3.3849908722181210  0.0000000000000000  3.3849908722181210
  0.0000000000000000  3.3849908722181210  3.3849908722181210
  0.0000000000000000  0.0000000000000000  6.7699817444362411
  3.3849908722181210  3.3849908722181210 10.1549726166543621
  3.3849908722181210  3.3849908722181210  6.7699817444362411
  3.3849908722181210  0.0000000000000000 10.1549726166543621
  0.0000000000000000  3.3849908722181210 10.1549726166543621
  0.0000000000000000  6.7699817444362411  0.0000000000000000
  3.3849908722181210 10.1549726166543621  3.3849908722181210
  3.3849908722181210 10.1549726166543621  0.0000000000000000
  3.3849908722181210  6.7699817444362411  3.3849908722181210
  0.0000000000000000 10.1549726166543621  3.3849908722181210
  0.0000000000000000  6.7699817444362411  6.7699817444362411
  3.3849908722181210 10.1549726166543621 10.1549726166543621
  3.3849908722181210 10.1549726166543621  6.7699817444362411
  3.3849908722181210  6.7699817444362411 10.1549726166543621
  0.0000000000000000 10.1549726166543621 10.1549726166543621
  6.7699817444362411  0.0000000000000000  0.0000000000000000
 10.1549726166543621  3.3849908722181210  3.3849908722181210
 10.1549726166543621  3.3849908722181210  0.0000000000000000
 10.1549726166543621  0.0000000000000000  3.3849908722181210
  6.7699817444362411  3.3849908722181210  3.3849908722181210
  6.7699817444362411  0.0000000000000000  6.7699817444362411
 10.1549726166543621  3.3849908722181210 10.1549726166543621
 10.1549726166543621  3.3849908722181210  6.7699817444362411
 10.1549726166543621  0.0000000000000000 10.1549726166543621
  6.7699817444362411  3.3849908722181210 10.1549726166543621
  6.7699817444362411  6.7699817444362411  0.0000000000000000
 10.1549726166543621 10.1549726166543621  3.3849908722181210
 10.1549726166543621 10.1549726166543621  0.0000000000000000
 10.1549726166543621  6.7699817444362411  3.3849908722181210
  6.7699817444362411 10.1549726166543621  3.3849908722181210
  6.7699817444362411  6.7699817444362411  6.7699817444362411
 10.1549726166543621 10.1549726166543621 10.1549726166543621
 10.1549726166543621 10.1549726166543621  6.7699817444362411
 10.1549726166543621  6.7699817444362411 10.1549726166543621
  6.7699817444362411 10.1549726166543621 10.1549726166543621
