40
Lattice="11.942734640542257 0.0 0.0 -0.005492504576297092 11.786724369285928 0.0 0.0007379868987782909 -0.0069903947130450315 12.098021058487449" Properties=species:S:1:pos:R:3:spacegroup_kinds:I:1:forces:R:3 spacegroup="P 1" unit_cell=conventional candidate_id=ef8bdab15faa2db3 formula=FAPbBr0.25Cl0.5I0.253 config_index=0 rattle_stdev=0.0 method=PBE fidelity=phase2_force energy=-130.27797859776518 stress="0.0004821596718176834 -1.9002388003931165e-05 1.674222582205215e-06 -1.9002388003931165e-05 0.0010133303863805103 2.3536814786193542e-05 1.674222582205215e-06 2.3536814786193542e-05 -0.00015199954991725718" pbc="T T T"
Cs      11.91182267       0.07344703       0.03533335        0      -0.02827175      -0.01692805       0.00515146
Pb       3.07952076       3.03306261       3.19758683        1       0.03069699       0.03262180       0.00373878
I        3.00804070       2.94754361       0.00872657        2      -0.01219099      -0.01518564      -0.02594810
Br       3.15293410       0.00282312       3.00809162        3      -0.00352660       0.04221787       0.00645897
Br      11.93894161       3.07356688       3.19239377        4      -0.02731736      -0.01279099       0.00723465
Cs       0.06990968       0.08499724       6.00398417        5      -0.01620663      -0.01091549      -0.00602339
Pb       3.10667994       2.98635520       8.91868567        6       0.04436235       0.01629641      -0.00542621
Cl       3.08140961       3.01000872       6.05296545        7      -0.02376361      -0.01218204       0.01989291
Cl       3.25021361       0.00097490       9.09256475        8       0.00403262       0.02058550      -0.00393630
Br       0.00290839       3.05520798       8.91048801        9       0.04466272       0.00209953      -0.00741888
Cs      11.91947163       5.75634210      12.07598569       10      -0.01760717       0.01057488       0.00174053
Pb       3.17369753       8.73970449       2.85823060       11      -0.01220691      -0.02132383      -0.00683828
Cl       3.29356593       8.77214725      12.09558021       12       0.02126577       0.01339231      -0.03057053
Cl       3.21382938       5.87756343       2.98853749       13      -0.00551393      -0.03616110      -0.00824590
I       11.93068804       8.77645723       2.96389818       14       0.02415760      -0.00727021      -0.01091112
Cs      11.92611339       5.73322969       6.06330269       15      -0.03131037       0.02391476      -0.00080506
Pb       3.18745147       8.82990003       9.21345184       16       0.02567464       0.00545153       0.01019393
I        3.19470604       8.81886071       6.03885069       17      -0.01444268       0.00131489       0.03376777
Cl       3.19894844       5.86969049       9.10891262       18      -0.00935509      -0.04410302       0.00397780
I        0.00933452       8.68643049       9.13894377       19       0.07401460       0.00664084       0.01646310
Cs       5.87204487      11.74276303       0.02726856       20      -0.00042940      -0.04923287      -0.00462712
Pb       8.83553897       3.04810741       3.12119894       21      -0.02981173       0.02221616       0.02491032
Br       8.83944582       3.11077446       0.00296980       22       0.01874366       0.00640647       0.04324881
Br       8.78709586      11.78446663       3.13484258       23      -0.00217439       0.11386796       0.00693982
Cl       5.95743200       3.04926380       3.28015381       24       0.02318992      -0.03161325       0.01524339
Cs       5.88892639       0.17411247       5.99313799       25       0.01474657       0.01682647      -0.00114388
Pb       8.86227330       3.11993905       8.96749479       26      -0.02131012       0.02161292      -0.00624096
Cl       8.85604557       3.15354243       6.05740751       27       0.02649465      -0.00870091      -0.04352661
I        8.81040831       0.01167249       8.95733547       28       0.01015073       0.05846023       0.00660895
Cl       5.98110995       3.08825719       8.83392714       29      -0.05675051      -0.00898235      -0.01136428
Cs       5.87961661       5.88015281      12.04540841       30      -0.00941784       0.03684161      -0.01102982
Pb       8.74208924       8.74160790       3.14181344       31       0.02133148       0.00205139       0.00140367
I        8.77983424       8.70823487       0.01184288       32       0.03748023       0.00630783       0.03535417
Cl       8.72637490       5.88786721       3.18776523       33       0.00446306      -0.09751577       0.01041024
Cl       5.95783398       8.74001333       2.92952978       34      -0.01541927       0.01612271      -0.01556311
Cs       5.99887989       5.69845019       6.05482679       35       0.02167275       0.01783428       0.00181456
Pb       8.75830023       8.66439518       8.98245407       36       0.03513226       0.00875246       0.00606115
Br       8.80512509       8.73800597       6.06766514       37      -0.01610666      -0.01303527      -0.06132617
Cl       8.73651642       5.89809895       8.92789071       38      -0.00740460      -0.10281101      -0.02049964
Cl       5.98750505       8.66018260       9.17095313       39      -0.12034231      -0.01489623       0.02078564
40
Lattice="11.942734640542257 0.0 0.0 -0.005492504576297092 11.786724369285928 0.0 0.0007379868987782909 -0.0069903947130450315 12.098021058487449" Properties=species:S:1:pos:R:3:spacegroup_kinds:I:1:forces:R:3 spacegroup="P 1" unit_cell=conventional candidate_id=ef8bdab15faa2db3 formula=FAPbBr0.25Cl0.5I0.253 config_index=1 rattle_stdev=0.08 method=PBE fidelity=phase2_force energy=-129.51509703952422 stress="-0.0011155966171170768 -1.710962020930022e-05 -0.0001368167877794326 -1.710962020930022e-05 -1.7007756432144246e-05 -0.00015895506490176404 -0.0001368167877794326 -0.00015895506490176404 -0.0036179473124294753" pbc="T T T"
Cs      11.82490696       0.00176182       0.01082940        0      -0.05336927       0.03848890       0.04144921
Pb       2.97232606       2.93653576       3.14624868        1       0.28992806       0.32265246       0.26223979
I        3.11267635       3.09518044       0.07505577        2      -0.15296656      -0.15589538      -0.10075374
Br       3.15107020      -0.01386200       2.93476204        3      -0.01771954       0.05538291       0.00449810
Br      11.85296220       3.06667540       3.28646085        4       0.40447051      -0.01296322       0.02116551
Cs      -0.06089766       0.18325276       6.09009507        5       0.03559987       0.01864314      -0.05909987
Pb       3.13826177       2.95533913       8.96575781        6       0.10540178      -0.07701236      -0.12497808
Cl       2.96674570       2.98412275       6.15320422        7       0.01781321      -0.00770781      -0.14530199
Cl       3.19175420       0.11525371       9.16813706        8       0.01460654      -0.22599401      -0.04699380
Br      -0.01821183       3.04215091       8.83335942        9       0.10216798      -0.00531328       0.03259153
Cs      11.89205984       5.76025442      12.03601513       10      -0.03395848      -0.02462325       0.04527774
Pb       2.99674517       8.76449144       2.73105849       11       0.95875120      -0.28662144      -0.09386783
Cl       3.35192230       8.76351515      12.04356649       12      -0.06111466       0.02740163      -0.04118958
Cl       3.07838486       5.84808551       2.86130776       13      -0.04137045      -0.00266336       0.05075060
I       12.04912851       8.81441245       3.03700728       14      -0.91296359       0.00417400       0.05141273
Cs      12.00295101       5.73999310       6.20068117       15       0.00806945      -0.00621629      -0.05535504
Pb       3.25560289       8.76950920       9.03044149       16       0.22924683       0.02499926       0.48065406
I        3.20344514       8.78284806       6.00581290       17      -0.01745528       0.01362336      -0.18821351
Cl       3.22446714       5.82640185       9.18480594       18      -0.03832862       0.29482481      -0.06866203
I        0.02144932       8.69258268       9.13419174       19       0.42236663       0.01094344       0.03556052
Cs       5.86643378      11.69747111       0.05214899       20       0.01134358      -0.02813177       0.01464050
Pb       8.89347568       3.08942341       3.20328139       21      -0.40936502      -0.23311478      -0.44998656
Br       8.88105803       3.04118738       0.12301501       22       0.08628157       0.03459865      -0.23632033
Br       8.88041363      11.82381979       3.07626161       23       0.00764704      -0.04575836       0.10064788
Cl       6.01185648       3.08998355       3.21315092       24      -0.30869752      -0.05333703       0.07991189
Cs       5.94073798       0.17511562       6.11790512       25      -0.03967067       0.03071051      -0.07306988
Pb       8.94504093       3.14695446       8.86328596       26      -0.22363226       0.37553631       0.25539940
Cl       8.76656202       3.25830364       6.01595015       27       0.06240316      -0.05714142       0.32803102
I        8.77895837       0.09510997       8.96331269       28       0.01936819      -0.15365041       0.01586036
Cl       5.98826491       3.09256978       8.86740289       29      -0.07466402      -0.02909814      -0.04635613
Cs       5.78139821       5.79298948      12.07077836       30       0.12259955       0.12645263       0.02836412
Pb       8.67965679       8.67311742       3.03622373       31      -0.06972723       0.23254260       0.43425250
I        8.81613677       8.78837686       0.12494166       32       0.04925076      -0.00125862      -0.61291932
Cl       8.71116027       5.89027606       3.03789189       33       0.03078429       0.03735876       0.02557777
Cl       5.94849182       8.72981410       3.00170452       34       0.09350998       0.01266344       0.00665699
Cs       5.89373012       5.69048614       6.06607078       35       0.03606733      -0.01584406      -0.02348473
Pb       8.96860471       8.80485749       8.77160225       36      -0.55778173      -0.40983231       1.72839601
Br       8.70219353       8.72426819       6.21170143       37      -0.10131699      -0.00616473      -1.69650561
Cl       8.78521207       5.90062100       8.81057773       38       0.05303795       0.15934069       0.01476379
Cl       6.01226031       8.75156003       9.13008560       39      -0.04524315       0.01806909       0.00229851
40
Lattice="11.942734640542257 0.0 0.0 -0.005492504576297092 11.786724369285928 0.0 0.0007379868987782909 -0.0069903947130450315 12.098021058487449" Properties=species:S:1:pos:R:3:spacegroup_kinds:I:1:forces:R:3 spacegroup="P 1" unit_cell=conventional candidate_id=ef8bdab15faa2db3 formula=FAPbBr0.25Cl0.5I0.253 config_index=2 rattle_stdev=0.08 method=PBE fidelity=phase2_force energy=-129.62008409832669 stress="-0.0006228859117154224 -2.34313257697046e-05 6.166256895773334e-05 -2.34313257697046e-05 -0.0004190688444453444 2.9012374099422863e-05 6.166256895773334e-05 2.9012374099422863e-05 -0.0010686502389653818" pbc="T T T"
Cs      11.90280562      -0.01267809       0.17813550        0       0.01063405      -0.01962783      -0.06863797
Pb       2.96296209       3.00695695       3.09679511        1       0.64364218       0.36028957       0.29050922
I        3.03811002       2.87729182      -0.01927149        2      -0.07492675       0.02292645      -0.11123121
Br       3.17666692       0.09889607       2.88257200        3      -0.03809886      -0.61245839       0.03318104
Br      12.08726390       3.11308382       3.18193686        4      -0.76437943      -0.02741369      -0.02840057
Cs       0.03766002       0.00710426       5.96658683        5      -0.02125552      -0.01844541       0.06628291
Pb       3.04924622       3.08406666       8.85650967        6       0.39693660       0.02457740      -0.03369606
Cl       3.03432756       3.00539921       6.05933184        7      -0.03022082      -0.07203297      -0.06872182
Cl       3.15555752      -0.12292450       9.16554524        8       0.01691402       0.23641078       0.00199712
Br       0.03592205       2.99954646       8.72738625        9      -0.10200144       0.03708152       0.05853683
Cs      11.85649230       5.67406076      12.08345034       10       0.02201256       0.03079770      -0.00939374
Pb       3.13136199       8.80212408       2.84216542       11       0.26786925      -0.24464479       0.15186904
Cl       3.25511725       8.68932628      12.05536146       12       0.03129232       0.01078333       0.34953872
Cl       3.27702060       5.80356362       3.16534032       13      -0.08548950       0.45334710      -0.12102603
I       11.81866915       8.75732944       2.98128543       14       0.72792317      -0.00709539       0.01291753
Cs      11.89792257       5.74009974       6.07183485       15      -0.03938845       0.04163064      -0.01163438
Pb       3.17168898       8.93765473       9.24106576       16       0.02905026      -0.22055204      -0.09264424
I        3.23931760       8.77123789       6.09747727       17      -0.06995970       0.06318701      -0.36296821
Cl       3.30544866       5.81128785       9.07005216       18      -0.07821434      -0.10260571       0.01182321
I        0.09548766       8.47880189       9.15229803       19      -0.07863750       0.02172369       0.03271515
Cs       5.95516164      11.59807712       0.08795983       20      -0.04906572       0.00918055      -0.02827402
Pb       8.79552995       2.86056395       3.11256552       21      -0.37974976       0.58055747       0.24370130
Br       8.71922281       3.14987676      -0.04128449       22       0.10761330       0.00216541       0.13902022
Br       8.87169646      11.71492120       3.12883530       23       0.01199253       0.24497729      -0.01527320
Cl       5.94885960       3.21716956       3.25291078       24       0.39586402      -0.26999366      -0.05695367
Cs       5.84669398       0.07054312       6.01026591       25       0.05719251       0.04140475       0.02740316
Pb       8.95237487       3.15206191       9.02874161       26      -0.44994207      -0.08059245      -0.26637784
Cl       8.74779537       3.19945111       6.03979653       27       0.14570632      -0.15621818      -0.12098475
I        8.86202343      -0.06870506       9.10931455       28       0.05130481       0.74566597       0.01217864
Cl       5.99845881       3.12825483       8.78379985       29       0.05508770      -0.08651914       0.04006161
Cs       5.79938588       5.81764799      12.06175063       30      -0.00510008       0.00497111       0.00528007
Pb       8.78497660       8.65560810       2.96438506       31      -0.49768161      -0.27937133       0.87599877
I        8.83158866       8.68244801      -0.00196225       32       0.04374059      -0.05119981      -0.00387101
Cl       8.54330116       5.87890371       3.26419033       33       0.14716104      -0.16037460      -0.10753447
Cl       5.99421303       8.90496752       2.93452661       34      -0.45711615       0.09717241      -0.09645563
Cs       5.99910729       5.66216589       6.08470539       35       0.01903411       0.02196113      -0.02968601
Pb       8.69325096       8.65627058       9.01811113       36       0.47095487       0.10719019      -0.47547148
Br       8.70311480       8.74663252       6.13584409       37       0.02455091       0.07978308      -0.36301566
Cl       8.72396825       5.99320449       8.81010964       38       0.06983312      -0.85427636       0.01818351
Cl       6.05678832       8.58871144       9.12703548       39      -0.52690617       0.02517196       0.10151811
40
Lattice="11.942734640542257 0.0 0.0 -0.005492504576297092 11.786724369285928 0.0 0.0007379868987782909 -0.0069903947130450315 12.098021058487449" Properties=species:S:1:pos:R:3:spacegroup_kinds:I:1:forces:R:3 spacegroup="P 1" unit_cell=conventional candidate_id=ef8bdab15faa2db3 formula=FAPbBr0.25Cl0.5I0.253 config_index=3 rattle_stdev=0.08 method=PBE fidelity=phase2_force energy=-129.48695014040624 stress="-0.0012793910541368035 0.00012565427595233664 1.8917293931533185e-05 0.00012565427595233664 -0.00048544498112623556 0.00014905125008085607 1.8917293931533185e-05 0.00014905125008085607 -0.0010970432310721295" pbc="T T T"
Cs      11.80613918       0.23478726       0.03913850        0      -0.02141438       0.05581387       0.03777934
Pb       3.06050706       3.03979242       3.27435021        1      -0.22485372      -0.29065486      -0.78503032
I        2.95351282       2.98986924      -0.05326689        2       0.04340693      -0.03276212      -0.12079293
Br       3.26533060      -0.01515132       2.90362076        3       0.01061275      -0.16007632       0.03512316
Br      11.88465879       2.94389221       3.08999589        4       0.10424334       0.03451656       0.07511757
Cs       0.05196594       0.01695235       5.94352496        5      -0.06813458       0.02517790      -0.03017702
Pb       3.12773360       2.78193975       8.78506299        6       0.09522128       0.39171931       0.61852430
Cl       3.02447079       2.81426667       5.95083066        7      -0.04225198      -0.05908234       0.42906486
Cl       3.30330341      -0.10133182       9.02933197        8       0.02499816       0.49183998      -0.03711912
Br      -0.11728128       2.96004478       9.09182322        9       0.39528692       0.02670056      -0.08287897
Cs      11.88132940       5.82807522      11.93159063       10      -0.00136542      -0.11935335       0.01733226
Pb       3.13440036       8.64374476       2.79381297       11       0.09713868       0.33507262       0.09032132
Cl       3.40603142       8.75372199      12.03848449       12      -0.02185585      -0.03410910       0.46495263
Cl       3.20082238       5.82325304       3.10966691       13      -0.01728044       0.23156707       0.00367861
I       11.79088221       8.82913960       2.93636888       14       1.21540477      -0.06373237      -0.04958152
Cs      11.86541754       5.74699180       6.01071941       15      -0.09207287      -0.02517535      -0.00574250
Pb       3.23166711       8.86050869       9.18374861       16      -0.21641251      -0.50122820       0.15816540
I        3.32095756       8.83620451       6.13577802       17      -0.03336270       0.01473672      -0.66641887
Cl       3.25746689       5.92361017       9.06248813       18      -0.03444137      -0.23947400      -0.05075128
I        0.00138735       8.55964130       9.13296646       19      -0.03728260       0.05023236      -0.03686221
Cs       5.96794958      11.72152921      -0.02487541       20      -0.06091873      -0.01988286      -0.00442759
Pb       8.68381605       2.92488349       3.08977308       21       0.41926617       0.38414492       0.00745305
Br       8.80628735       3.16765989       0.05437183       22      -0.03334699      -0.05341971      -0.01945541
Br       8.97888277      11.77088404       3.05377189       23      -0.09846989      -0.14676356       0.02243069
Cl       5.92194750       3.11694198       3.31970254       24      -0.13920078      -0.08976851       0.07313895
Cs       5.91121745       0.21587974       6.01854733       25       0.03897577      -0.03107795      -0.01640588
Pb       8.88044421       3.08871181       8.91005338       26      -0.02623547       0.01853078       0.04282247
Cl       8.97957446       3.08450682       6.02870130       27      -0.02760570      -0.01285053       0.03893470
I        8.81711246       0.14601025       8.86298849       28      -0.02860791      -1.26356900       0.05964715
Cl       5.94921178       3.05438605       8.87867408       29      -0.33450287      -0.09451318      -0.12387802
Cs       5.83343704       5.88585260      12.11478482       30       0.00078368      -0.01677810      -0.07500039
Pb       8.77528195       8.72350912       3.20226089       31       0.02919159      -0.24316410       0.31134573
I        8.79784463       8.67305463       0.06416923       32       0.05837741       0.00770458       0.13679442
Cl       8.65468504       5.77391132       3.32716396       33       0.06981657       0.17426928       0.00547896
Cl       6.19138002       8.68611531       2.86784784       34      -1.29846999       0.01874959      -0.06925780
Cs       6.08331928       5.79010723       6.06447664       35       0.04572097       0.00798943       0.03995987
Pb       8.75929971       8.60843346       9.13255800       36       0.05257387       0.05498586      -0.37003600
Br       8.76907242       8.71350723       6.18068448       37      -0.02033485      -0.00350156      -0.15981124
Cl       8.68422914       5.71677363       8.97631886       38      -0.04622532       1.14625699      -0.00452061
Cl       5.94555961       8.67678178       9.25866530       39       0.22352040       0.01087119       0.03643739
