Cs Sn I  Cs Sn I  Cs Sn I  Cs Sn I  Cs Sn I  Cs Sn I  Cs Ge I  Cs Sn I 
 1.0000000000000000
    13.3464990735398459    0.0000000000000000    0.0000000000000000
     0.0000000000000000   13.3464990735398459    0.0000000000000000
     0.0000000000000000    0.0000000000000000   13.3464990735398459
 Cs  Sn  I   Cs  Sn  I   Cs  Sn  I   Cs  Sn  I   Cs  Sn  I   Cs  Sn  I   Cs  Ge  I   Cs  Sn  I  
   1   1   3   1   1   3   1   1   3   1   1   3   1   1   3   1   1   3   1   1   3   1   1   3
Cartesian
  0.0000000000000000  0.0000000000000000  0.0000000000000000
  3.3366247683849606  3.3366247683849606  3.3366247683849606
  3.3366247683849606  3.3366247683849606  0.0000000000000000
  3.3366247683849606  0.0000000000000000  3.3366247683849606
  0.0000000000000000  3.3366247683849606  3.3366247683849606
  0.0000000000000000  0.0000000000000000  6.6732495367699221
  3.3366247683849606  3.3366247683849606 10.0098743051548844
  3.3366247683849606  3.3366247683849606  6.6732495367699221
  3.3366247683849606  0.0000000000000000 10.0098743051548844
  0.0000000000000000  3.3366247683849606 10.0098743051548844
  0.0000000000000000  6.6732495367699221  0.0000000000000000
  3.3366247683849606 10.0098743051548844  3.3366247683849606
  3.3366247683849606 10.0098743051548844  0.0000000000000000
  3.3366247683849606  6.6732495367699221  3.3366247683849606
  0.0000000000000000 10.0098743051548844  3.3366247683849606
  0.0000000000000000  6.6732495367699221  6.6732495367699221
  3.3366247683849606 10.0098743051548844 10.0098743051548844
  3.3366247683849606 10.0098743051548844  6.6732495367699221
  3.3366247683849606  6.6732495367699221 10.0098743051548844
  0.0000000000000000 10.0098743051548844 10.0098743051548844
  6.6732495367699221  0.0000000000000000  0.0000000000000000
 10.0098743051548844  3.3366247683849606  3.3366247683849606
 10.0098743051548844  3.3366247683849606  0.0000000000000000
 10.0098743051548844  0.0000000000000000  3.3366247683849606
  6.6732495367699221  3.3366247683849606  3.3366247683849606
  6.6732495367699221  0.0000000000000000  6.6732495367699221
 10.0098743051548844  3.3366247683849606 10.0098743051548844
 10.0098743051548844  3.3366247683849606  6.6732495367699221
 10.0098743051548844  0.0000000000000000 10.0098743051548844
  6.6732495367699221  3.3366247683849606 10.0098743051548844
  6.6732495367699221  6.6732495367699221  0.0000000000000000
 10.0098743051548844 10.0098743051548844  3.3366247683849606
 10.0098743051548844 10.0098743051548844  0.0000000000000000
 10.0098743051548844  6.6732495367699221  3.3366247683849606
  6.6732495367699221 10.0098743051548844  3.3366247683849606
  6.6732495367699221  6.6732495367699221  6.6732495367699221
 10.0098743051548844 10.0098743051548844 10.0098743051548844
 10.0098743051548844 10.0098743051548844  6.6732495367699221
 10.0098743051548844  6.6732495367699221 10.0098743051548844
  6.6732495367699221 10.0098743051548844 10.0098743051548844
