40
Lattice="11.456414350569563 0.0 0.0 0.0 11.456414350569883 0.0 0.0 -1.7105341930101145e-14 11.456414350569522" Properties=species:S:1:pos:R:3:spacegroup_kinds:I:1:forces:R:3 spacegroup="P 1" unit_cell=conventional candidate_id=24f88dd9663a6ba0 formula=FA0.5MA0.5PbCl3 config_index=0 rattle_stdev=0.0 method=PBE fidelity=phase2_force energy=-140.88884787350517 stress="0.001334046120604499 0.0 0.0 0.0 0.0013340461206044242 1.991837441033976e-18 0.0 1.991837441033976e-18 0.0013340461206045081" pbc="T T T"
Cs      11.45641435       0.00000000       0.00000000        0       0.00000000      -0.00000000       0.00000000
Pb       2.86410359       2.86410359       2.86410359        1      -0.00000000      -0.00000000      -0.00000000
Cl       2.86410359       2.86410359      11.45641435        2      -0.00000000      -0.00000000       0.00000000
Cl       2.86410359      11.45641435       2.86410359        3      -0.00000000       0.00000000      -0.00000000
Cl      11.45641435       2.86410359       2.86410359        4      -0.00000000      -0.00000000      -0.00000000
Cs      11.45641435      11.45641435       5.72820718        5       0.00000000      -0.00000000       0.00000000
Pb       2.86410359       2.86410359       8.59231076        6      -0.00000000      -0.00000000       0.00000000
Cl       2.86410359       2.86410359       5.72820718        7       0.00000000       0.00000000      -0.00000000
Cl       2.86410359      11.45641435       8.59231076        8      -0.00000000      -0.00000000       0.00000000
Cl      11.45641435       2.86410359       8.59231076        9      -0.00000000      -0.00000000       0.00000000
Cs       0.00000000       5.72820718      11.45641435       10       0.00000000       0.00000000       0.00000000
Pb       2.86410359       8.59231076       2.86410359       11      -0.00000000       0.00000000      -0.00000000
Cl       2.86410359       8.59231076      11.45641435       12      -0.00000000       0.00000000       0.00000000
Cl       2.86410359       5.72820718       2.86410359       13       0.00000000      -0.00000000       0.00000000
Cl      11.45641435       8.59231076       2.86410359       14      -0.00000000       0.00000000      -0.00000000
Cs       0.00000000       5.72820718       5.72820718       15      -0.00000000      -0.00000000       0.00000000
Pb       2.86410359       8.59231076       8.59231076       16      -0.00000000       0.00000000       0.00000000
Cl       2.86410359       8.59231076       5.72820718       17       0.00000000      -0.00000000      -0.00000000
Cl       2.86410359       5.72820718       8.59231076       18       0.00000000       0.00000000      -0.00000000
Cl      11.45641435       8.59231076       8.59231076       19      -0.00000000       0.00000000       0.00000000
Cs       5.72820718      11.45641435      11.45641435       20       0.00000000      -0.00000000       0.00000000
Pb       8.59231076       2.86410359       2.86410359       21       0.00000000      -0.00000000      -0.00000000
Cl       8.59231076       2.86410359      11.45641435       22       0.00000000      -0.00000000       0.00000000
Cl       8.59231076      11.45641435       2.86410359       23       0.00000000       0.00000000      -0.00000000
Cl       5.72820718       2.86410359       2.86410359       24       0.00000000       0.00000000       0.00000000
Cs       5.72820718      11.45641435       5.72820718       25      -0.00000000       0.00000000       0.00000000
Pb       8.59231076       2.86410359       8.59231076       26       0.00000000      -0.00000000       0.00000000
Cl       8.59231076       2.86410359       5.72820718       27      -0.00000000       0.00000000       0.00000000
Cl       8.59231076      11.45641435       8.59231076       28       0.00000000      -0.00000000       0.00000000
Cl       5.72820718       2.86410359       8.59231076       29       0.00000000       0.00000000      -0.00000000
Cs       5.72820718       5.72820718      11.45641435       30      -0.00000000      -0.00000000      -0.00000000
Pb       8.59231076       8.59231076       2.86410359       31       0.00000000       0.00000000      -0.00000000
Cl       8.59231076       8.59231076      11.45641435       32       0.00000000       0.00000000       0.00000000
Cl       8.59231076       5.72820718       2.86410359       33      -0.00000000      -0.00000000       0.00000000
Cl       5.72820718       8.59231076       2.86410359       34      -0.00000000      -0.00000000       0.00000000
Cs       5.72820718       5.72820718       5.72820718       35      -0.00000000       0.00000000      -0.00000000
Pb       8.59231076       8.59231076       8.59231076       36       0.00000000       0.00000000       0.00000000
Cl       8.59231076       8.59231076       5.72820718       37      -0.00000000      -0.00000000       0.00000000
Cl       8.59231076       5.72820718       8.59231076       38      -0.00000000       0.00000000      -0.00000000
Cl       5.72820718       8.59231076       8.59231076       39       0.00000000      -0.00000000      -0.00000000
40
Lattice="11.456414350569563 0.0 0.0 0.0 11.456414350569883 0.0 0.0 -1.7105341930101145e-14 11.456414350569522" Properties=species:S:1:pos:R:3:spacegroup_kinds:I:1:forces:R:3 spacegroup="P 1" unit_cell=conventional candidate_id=24f88dd9663a6ba0 formula=FA0.5MA0.5PbCl3 config_index=1 rattle_stdev=0.08 method=PBE fidelity=phase2_force energy=-140.10102028180975 stress="-0.001357942228443249 7.424100761192765e-05 -5.467930377158849e-05 7.424100761192765e-05 -2.5352045290626718e-05 -0.00012560308324266112 -5.467930377158849e-05 -0.00012560308324266112 -0.0021048967595118976" pbc="T T T"
Cs      11.36949864      -0.07168521      -0.02450395        0      -0.04781793       0.04683905       0.03792813
Pb       2.75690889       2.76757674       2.81276544        1       0.38201788       0.39309984       0.26844819
Cl       2.96873924       3.01174042      11.52274355        2      -0.10019420      -0.07709279      -0.03130695
Cl       2.86223968      11.43972923       2.79077401        3      -0.04606600       0.02016034      -0.03495402
Cl      11.37043494       2.85721211       2.95817067        4       0.59867637      -0.02192311       0.01558826
Cs      11.32560701      11.55466987       5.81431808        5       0.08261007       0.05372238      -0.08250375
Pb       2.89568542       2.83308752       8.63938290        6       0.08352103       0.08416549      -0.10224370
Cl       2.74943968       2.83821761       5.82844595        7       0.03000369       0.01193369      -0.20676232
Cl       2.80564418      11.57069316       8.66788307        8      -0.02037514      -0.58537587      -0.02116856
Cl      11.43529413       2.85104652       8.51518218        9       0.12355551      -0.00324975      -0.00172574
Cs      -0.02741179       5.73211950      11.41644379       10      -0.01030024      -0.04057833       0.02642831
Pb       2.68715123       8.61709771       2.73693149       11       1.07429277      -0.31482833      -0.02966403
Cl       2.92245995       8.58367866      11.40440063       12      -0.08811941       0.02469166      -0.09673953
Cl       2.72865907       5.69872925       2.73687385       13      -0.04539255      -0.00368932       0.06258198
Cl      11.57485482       8.63026598       2.93721269       14      -1.02776028       0.01666411       0.04111315
Cs       0.07683762       5.73497058       5.86558565       15       0.02371733      -0.06290278      -0.05262584
Pb       2.93225501       8.53191994       8.40930042       16       0.24561050       0.15337563       0.51976205
Cl       2.87284268       8.55629811       5.69516938       17      -0.03096222      -0.02962462      -0.13394621
Cl       2.88962229       5.68491854       8.66820408       18      -0.03288617       0.41961354      -0.10014595
Cl      11.46852915       8.59846296       8.58755873       19       0.43995935       0.01296505      -0.07011645
Cs       5.72259608      11.41112243      11.48129478       20       0.03848510       0.02700099       0.02869569
Pb       8.65024747       2.90541959       2.94618604       21      -0.55910664      -0.23660593      -0.63535205
Cl       8.63392297       2.79451650      11.57645956       22       0.09003150       0.03327124      -0.46132727
Cl       8.68562853      11.49576751       2.80552261       23       0.01356067      -0.21143248       0.11654241
Cl       5.78263166       2.90482334       2.79710069       24      -0.40586246      -0.02148741       0.07799693
Cs       5.78001876      11.45741751       5.85297430       25      -0.04261791       0.01139689      -0.05696933
Pb       8.67507839       2.89111900       8.48810193       26      -0.33528202       0.31026446       0.48287204
Cl       8.50282722       2.96886480       5.68674982       27       0.01238693      -0.05122257       0.54116437
Cl       8.56086082      11.53985183       8.59828798       28       0.08428233      -0.17107292      -0.12282513
Cl       5.73536214       2.86841618       8.62578652       29       0.00270321      -0.01874671      -0.05643259
Cs       5.62998877       5.64104385      11.48178430       30       0.02420693      -0.01644488       0.03756691
Pb       8.52987832       8.52382028       2.75851388       31      -0.15252849       0.28971552       0.29005809
Cl       8.62861330       8.67245275      11.56951313       32       0.03894767      -0.00732831      -0.31747325
Cl       8.57709613       5.73061602       2.71423025       33       0.04830323       0.16611590      -0.00451845
Cl       5.71886502       8.58211154       2.93627833       34       0.25272423      -0.00812554      -0.02236203
Cs       5.62305740       5.72024312       5.73945116       35       0.01862062      -0.02223529      -0.03730769
Pb       8.80261524       8.73277307       8.38145894       36      -0.78062650      -0.39245328       1.24226967
Cl       8.48937920       8.57857299       5.87224347       37       0.03311813       0.03324816      -1.06040762
Cl       8.64100641       5.73072922       8.47499779       38       0.08038324       0.18203936       0.00346163
Cl       5.75296244       8.68368819       8.55144323       39      -0.08968997       0.00479483      -0.05184771
40
Lattice="11.456414350569563 0.0 0.0 0.0 11.456414350569883 0.0 0.0 -1.7105341930101145e-14 11.456414350569522" Properties=species:S:1:pos:R:3:spacegroup_kinds:I:1:forces:R:3 spacegroup="P 1" unit_cell=conventional candidate_id=24f88dd9663a6ba0 formula=FA0.5MA0.5PbCl3 config_index=2 rattle_stdev=0.08 method=PBE fidelity=phase2_force energy=-140.1572402672551 stress="-0.00039034681339409407 -1.1518322397296668e-05 1.700166799665637e-05 -1.1518322397296668e-05 -0.0006571076483175538 -7.056496062898417e-05 1.700166799665637e-05 -7.056496062898417e-05 9.215801741769544e-05" pbc="T T T"
Cs      11.44739731      -0.08612512       0.14280215        0       0.04125974      -0.00816781      -0.11633423
Pb       2.74754492       2.83799792       2.76331187        1       0.99515541       0.37457380       0.26054100
Cl       2.89417291       2.79385180      11.42841629        2      -0.10199611       0.06436122      -0.06236674
Cl       2.88783640      11.55248730       2.73858397        3      -0.05741408      -0.73256151       0.02887540
Cl      11.60473665       2.90362053       2.85364667        4      -1.14242507      -0.01131368      -0.05123092
Cs      11.42416469      11.37852137       5.69080983        5      -0.02013411      -0.00658872       0.09356344
Pb       2.80666987       2.96181505       8.53013476        6       0.49993939      -0.21347197      -0.03008257
Cl       2.81702154       2.85949408       5.73457357        7      -0.02243441      -0.09358088      -0.08669363
Cl       2.76944750      11.33251495       8.66529126        8      -0.02281309       0.60683356      -0.00817750
Cl      11.48942801       2.80844207       8.40920901        9      -0.19817201       0.04827505       0.05766517
Cs      -0.06297932       5.64592584      11.46387900       10       0.04076413       0.05039381      -0.04307763
Pb       2.82176805       8.65473035       2.84803841       11       0.30447658      -0.31160828       0.13639302
Cl       2.82565490       8.50948979      11.41619560       12      -0.00361474      -0.00975360       0.50223883
Cl       2.92729480       5.65420737       3.04090641       13      -0.08194443       0.58737142      -0.11221986
Cl      11.34439546       8.57318297       2.88149084       14       0.66291614       0.02041532      -0.00509465
Cs      -0.02819082       5.73507722       5.73673933       15       0.00000562       0.01934078       0.02523329
Pb       2.84834109       8.70006547       8.61992468       16       0.02642972      -0.62824803      -0.16724720
Cl       2.90871514       8.54468795       5.78683375       17      -0.05227754       0.12824227      -0.44112555
Cl       2.97060380       5.66980454       8.55345030       18      -0.05787861       0.05545238       0.05158819
Cl      11.54256749       8.38468217       8.60566502       19      -0.14100915       0.02420776       0.00541645
Cs       5.81132395      11.31172844      11.51710563       20      -0.05523616       0.07309763      -0.05254898
Pb       8.55230174       2.67656013       2.85547017       21      -0.29270725       0.64344426       0.21445726
Cl       8.47208775       2.90320588      11.41216007       22       0.10238711       0.01213408       0.22669331
Cl       8.67691136      11.38686892       2.85809630       23       0.02616413       0.06771066      -0.04026826
Cl       5.71963478       3.03200935       2.83686055       24       0.41904689      -0.19880361      -0.03196357
Cs       5.68597477      11.35284500       5.74533510       25       0.03100476       0.01181379       0.03241488
Pb       8.68241233       2.89622646       8.65355759       26      -0.50741882      -0.07632425      -0.39853366
Cl       8.48406057       2.91001227       5.71059621       27       0.07783874      -0.12259951      -0.08698155
Cl       8.64392588      11.37603681       8.74428985       28       0.02696976       0.55158386       0.02692092
Cl       5.74555604       2.90410122       8.54218348       29       0.10608654      -0.05035410       0.02063468
Cs       5.64797644       5.66570236      11.47275657       30      -0.02440677      -0.07081328       0.00348393
Pb       8.63519812       8.50631097       2.68667521       31      -0.55271485      -0.22717979       0.78138770
Cl       8.64406518       8.56652390      11.44260922       32       0.01666851      -0.02870018       0.04282326
Cl       8.40923702       5.71924367       2.94052869       33       0.13943837      -0.14823251      -0.11470987
Cl       5.76458623       8.75726496       2.86910042       34      -0.42383343       0.05267436      -0.09111824
Cs       5.72843457       5.69192287       5.75808578       35       0.01131795      -0.02460107      -0.01964036
Pb       8.52726148       8.58418616       8.62796782       36       0.31099949       0.03665011      -0.53906803
Cl       8.49030047       8.60093731       5.79638613       37       0.07592293       0.08913087      -0.21125202
Cl       8.57976260       5.82331272       8.47452969       38       0.06838676      -0.62733314       0.09826385
Cl       5.79749044       8.52083960       8.54839311       39      -0.22031705       0.07594638       0.10055985
40
Lattice="11.456414350569563 0.0 0.0 0.0 11.456414350569883 0.0 0.0 -1.7105341930101145e-14 11.456414350569522" Properties=species:S:1:pos:R:3:spacegroup_kinds:I:1:forces:R:3 spacegroup="P 1" unit_cell=conventional candidate_id=24f88dd9663a6ba0 formula=FA0.5MA0.5PbCl3 config_index=3 rattle_stdev=0.08 method=PBE fidelity=phase2_force energy=-140.0300787014501 stress="-0.0006428766825536747 0.0001908643215442862 1.440049308362347e-05 0.0001908643215442862 -0.0007272120478646728 7.856828622002676e-05 1.440049308362347e-05 7.856828622002676e-05 0.00016850725676453255" pbc="T T T"
Cs      11.35073087       0.16134023       0.00380516        0       0.04298220       0.07580707       0.04969298
Pb       2.84508989       2.87083340       2.94086697        1      -0.29996255      -0.34315705      -0.84065857
Cl       2.80957571       2.90642922      11.39442089        2       0.05201907      -0.03854366      -0.12104942
Cl       2.97650008      11.43843991       2.75963273        3       0.01532044      -0.24907993       0.03840848
Cl      11.40213153       2.73442892       2.76170570        4       0.13437278       0.05053290       0.06840573
Cs      11.43847061      11.38836947       5.66774797        5      -0.05756588       0.02967018      -0.02643468
Pb       2.88515725       2.65968814       8.45868809        6      -0.04566124       0.65797688       0.63455675
Cl       2.80716477       2.66836154       5.62607239        7      -0.01822566      -0.05196924       0.41605027
Cl       2.91719339      11.35410763       8.52907799        8       0.00307106       0.54648916      -0.01544054
Cl      11.33622469       2.76894039       8.77364597        9       0.52033162      -0.00321467      -0.06234208
Cs      -0.03814223       5.79994030      11.31201929       10       0.02934518      -0.13066817      -0.02066378
Pb       2.82480642       8.49635104       2.79968596       11       0.10740240       0.40418445       0.03152447
Cl       2.97656908       8.57388551      11.39931863       12      -0.04114139      -0.05562135       0.59757378
Cl       2.85109658       5.67389678       2.98523300       13      -0.02485742       0.31142802       0.02857815
Cl      11.31660852       8.64499313       2.83657429       14       1.25731153      -0.07219545       0.00146680
Cs      -0.06069585       5.74196928       5.67562389       15      -0.04594875      -0.02222935       0.02346040
Pb       2.90831922       8.62291942       8.56260753       16      -0.19746198      -0.69550626       0.11396179
Cl       2.99035510       8.60965456       5.82513451       17      -0.00972564       0.01976384      -0.70928452
Cl       2.92262203       5.78212686       8.54588627       18      -0.01619662      -0.36189959      -0.06910347
Cl      11.44846718       8.46552157       8.58633345       19      -0.20173377       0.01933194       0.01899381
Cs       5.82411188      11.43518053      11.40427038       20      -0.06239770       0.02278715       0.01449489
Pb       8.44058783       2.74087967       2.83267773       21       0.54234137       0.41435641       0.04522012
Cl       8.55915230       2.92098901      11.50781638       22      -0.06888815      -0.05710082      -0.19712692
Cl       8.78409767      11.44283176       2.78303289       23      -0.10619925      -0.33516858       0.00359358
Cl       5.69272268       2.93178176       2.90365231       24      -0.23568216      -0.03825542       0.04672480
Cs       5.75049824      11.49818163       5.75361651       25       0.02228806      -0.05516389       0.00186448
Pb       8.61048167       2.83287635       8.53486936       26      -0.17639523      -0.00059451       0.10483247
Cl       8.71583966       2.79506798       5.69950097       27      -0.01184836      -0.01572067       0.08560470
Cl       8.59901491      11.59075211       8.49796379       28      -0.02687362      -1.05902204       0.08068141
Cl       5.69630900       2.83023244       8.63705771       29      -0.28517866      -0.09358885      -0.08726659
Cs       5.68202760       5.73390697      11.52579076       30      -0.00695520      -0.06456349      -0.05970215
Pb       8.62550348       8.57421198       2.92455104       31      -0.13594540      -0.23961015       0.17439008
Cl       8.61032115       8.55713052      11.50874069       32       0.02506075       0.00380321       0.04774990
Cl       8.52062090       5.61425128       3.00350232       33       0.05681619       0.25354442       0.00713202
Cl       5.96175322       8.53841274       2.80242165       34      -1.18855269       0.01885712      -0.01870581
Cs       5.81264656       5.81986422       5.73785702       35       0.01813441       0.01678606       0.02720221
Pb       8.59331024       8.53634905       8.74241469       36       0.04346640       0.01834546      -0.40928774
Cl       8.55625809       8.56781202       5.84122652       37       0.00911020       0.00769474      -0.04138081
Cl       8.54002348       5.54688185       8.64073892       38       0.00958001       1.07141661       0.00483374
Cl       5.68626173       8.60890995       8.68002293       39       0.35164585       0.03031059       0.01459723
