40
Lattice="11.729928013411238 0.0 0.0 0.0 11.730273547843348 0.0 0.0 -9.700303724699164e-15 11.730273547843273" Properties=species:S:1:pos:R:3:spacegroup_kinds:I:1:forces:R:3 spacegroup="P 1" unit_cell=conventional occupancy="_JSON {\"0\": {\"Cs\": 1.0}, \"1\": {\"Sn\": 1.0}, \"2\": {\"Br\": 1.0}, \"3\": {\"Br\": 1.0}, \"4\": {\"Br\": 1.0}, \"5\": {\"Cs\": 1.0}, \"6\": {\"Sn\": 1.0}, \"7\": {\"Br\": 1.0}, \"8\": {\"Br\": 1.0}, \"9\": {\"Br\": 1.0}, \"10\": {\"Rb\": 1.0}, \"11\": {\"Sn\": 1.0}, \"12\": {\"Br\": 1.0}, \"13\": {\"Br\": 1.0}, \"14\": {\"Br\": 1.0}, \"15\": {\"Rb\": 1.0}, \"16\": {\"Sn\": 1.0}, \"17\": {\"Br\": 1.0}, \"18\": {\"Br\": 1.0}, \"19\": {\"Br\": 1.0}, \"20\": {\"Rb\": 1.0}, \"21\": {\"Sn\": 1.0}, \"22\": {\"Br\": 1.0}, \"23\": {\"Br\": 1.0}, \"24\": {\"Br\": 1.0}, \"25\": {\"Cs\": 1.0}, \"26\": {\"Sn\": 1.0}, \"27\": {\"Br\": 1.0}, \"28\": {\"Br\": 1.0}, \"29\": {\"Br\": 1.0}, \"30\": {\"Rb\": 1.0}, \"31\": {\"Sn\": 1.0}, \"32\": {\"Br\": 1.0}, \"33\": {\"Br\": 1.0}, \"34\": {\"Br\": 1.0}, \"35\": {\"Cs\": 1.0}, \"36\": {\"Sn\": 1.0}, \"37\": {\"Br\": 1.0}, \"38\": {\"Br\": 1.0}, \"39\": {\"Br\": 1.0}}" candidate_id=513b99817477500b formula=Cs0.53Rb0.47SnBr3 config_index=0 rattle_stdev=0.0 method=PBE fidelity=phase2_force energy=-126.0154659578619 stress="5.9544094008949635e-06 0.0 0.0 0.0 1.7278447456688884e-06 1.4288344388365594e-21 0.0 1.4288344388365594e-21 1.7278447288081082e-06" pbc="T T T"
Cs       0.00000000       0.00000000       0.00000000        0       0.00000000       0.00000000       0.00000000
Sn       2.93248200       2.94426276       2.92087401        1      -0.00000000      -0.00589568       0.00589568
Br       2.94261163       2.97723316      11.73027355        2      -0.00171561      -0.00790238       0.00000000
Br       2.94937407      11.73027355       2.88534623        3       0.00039150      -0.00000000       0.01140167
Br      11.72992801       2.99171396       2.90000561        4       0.00000000      -0.01037839       0.00887766
Cs       0.00000000       0.00000000       5.86513677        5       0.00000000      -0.00000000       0.00000000
Sn       2.93248200       2.94426276       8.80939954        6      -0.00000000      -0.00589568      -0.00589568
Br       2.91558993       2.97979055       5.86513677        7      -0.00039150      -0.01140167       0.00000000
Br       2.94937407      11.73027355       8.84492732        8       0.00039150       0.00000000      -0.01140167
Br      11.72992801       2.99171396       8.83026794        9       0.00000000      -0.01037839      -0.00887766
Rb       0.00000000       5.86513677       0.00000000       10       0.00000000      -0.00000000       0.00000000
Sn       2.93248200       8.78601079       2.92087401       11      -0.00000000       0.00589568       0.00589568
Br       2.94261163       8.75304039      11.73027355       12      -0.00171561       0.00790238       0.00000000
Br       2.92235237       5.86513677       2.88790361       13       0.00171561      -0.00000000       0.00790238
Br      11.72992801       8.73855958       2.90000561       14       0.00000000       0.01037839       0.00887766
Rb      11.72992801       5.86513677       5.86513677       15      -0.00000000       0.00000000       0.00000000
Sn       2.93248200       8.78601079       8.80939954       16      -0.00000000       0.00589568      -0.00589568
Br       2.91558993       8.75048300       5.86513677       17      -0.00039150       0.01140167       0.00000000
Br       2.92235237       5.86513677       8.84236994       18       0.00171561       0.00000000      -0.00790238
Br      11.72992801       8.73855958       8.83026794       19       0.00000000       0.01037839      -0.00887766
Rb       5.86496401       0.00000000       0.00000000       20       0.00000000       0.00000000       0.00000000
Sn       8.79744601       2.94426276       2.92087401       21       0.00000000      -0.00589568       0.00589568
Br       8.78731638       2.97723316      11.73027355       22       0.00171561      -0.00790238       0.00000000
Br       8.78055394      11.73027355       2.88534623       23      -0.00039150      -0.00000000       0.01140167
Br       5.86496401       2.96513117       2.87342281       24       0.00000000      -0.00887766       0.01037839
Cs       5.86496401       0.00000000       5.86513677       25      -0.00000000       0.00000000       0.00000000
Sn       8.79744601       2.94426276       8.80939954       26       0.00000000      -0.00589568      -0.00589568
Br       8.81433808       2.97979055       5.86513677       27       0.00039150      -0.01140167       0.00000000
Br       8.78055394      11.73027355       8.84492732       28      -0.00039150       0.00000000      -0.01140167
Br       5.86496401       2.96513117       8.85685074       29       0.00000000      -0.00887766      -0.01037839
Rb       5.86496401       5.86513677       0.00000000       30       0.00000000       0.00000000       0.00000000
Sn       8.79744601       8.78601079       2.92087401       31       0.00000000       0.00589568       0.00589568
Br       8.78731638       8.75304039      11.73027355       32       0.00171561       0.00790238       0.00000000
Br       8.80757564       5.86513677       2.88790361       33      -0.00171561      -0.00000000       0.00790238
Br       5.86496401       8.76514238       2.87342281       34      -0.00000000       0.00887766       0.01037839
Cs       5.86496401       5.86513677       5.86513677       35      -0.00000000       0.00000000       0.00000000
Sn       8.79744601       8.78601079       8.80939954       36       0.00000000       0.00589568      -0.00589568
Br       8.81433808       8.75048300       5.86513677       37       0.00039150       0.01140167       0.00000000
Br       8.80757564       5.86513677       8.84236994       38      -0.00171561       0.00000000      -0.00790238
Br       5.86496401       8.76514238       8.85685074       39      -0.00000000       0.00887766      -0.01037839
40
Lattice="11.729928013411238 0.0 0.0 0.0 11.730273547843348 0.0 0.0 -9.700303724699164e-15 11.730273547843273" Properties=species:S:1:pos:R:3:spacegroup_kinds:I:1:forces:R:3 spacegroup="P 1" unit_cell=conventional occupancy="_JSON {\"0\": {\"Cs\": 1.0}, \"1\": {\"Sn\": 1.0}, \"2\": {\"Br\": 1.0}, \"3\": {\"Br\": 1.0}, \"4\": {\"Br\": 1.0}, \"5\": {\"Cs\": 1.0}, \"6\": {\"Sn\": 1.0}, \"7\": {\"Br\": 1.0}, \"8\": {\"Br\": 1.0}, \"9\": {\"Br\": 1.0}, \"10\": {\"Rb\": 1.0}, \"11\": {\"Sn\": 1.0}, \"12\": {\"Br\": 1.0}, \"13\": {\"Br\": 1.0}, \"14\": {\"Br\": 1.0}, \"15\": {\"Rb\": 1.0}, \"16\": {\"Sn\": 1.0}, \"17\": {\"Br\": 1.0}, \"18\": {\"Br\": 1.0}, \"19\": {\"Br\": 1.0}, \"20\": {\"Rb\": 1.0}, \"21\": {\"Sn\": 1.0}, \"22\": {\"Br\": 1.0}, \"23\": {\"Br\": 1.0}, \"24\": {\"Br\": 1.0}, \"25\": {\"Cs\": 1.0}, \"26\": {\"Sn\": 1.0}, \"27\": {\"Br\": 1.0}, \"28\": {\"Br\": 1.0}, \"29\": {\"Br\": 1.0}, \"30\": {\"Rb\": 1.0}, \"31\": {\"Sn\": 1.0}, \"32\": {\"Br\": 1.0}, \"33\": {\"Br\": 1.0}, \"34\": {\"Br\": 1.0}, \"35\": {\"Cs\": 1.0}, \"36\": {\"Sn\": 1.0}, \"37\": {\"Br\": 1.0}, \"38\": {\"Br\": 1.0}, \"39\": {\"Br\": 1.0}}" candidate_id=513b99817477500b formula=Cs0.53Rb0.47SnBr3 config_index=1 rattle_stdev=0.08 method=PBE fidelity=phase2_force energy=-125.4272483545708 stress="-0.0022772086750296196 8.854813254967732e-05 3.0773733074835446e-05 8.854813254967732e-05 -0.0012786225502777152 -0.0001283038879276253 3.0773733074835446e-05 -0.0001283038879276253 -0.0027638053524314393" pbc="T T T"
Cs      -0.08691571      -0.07168521      -0.02450395        0      -0.02321787       0.05153865       0.03476106
Sn       2.82528731       2.84773592       2.86953587        1       0.34892205       0.33801626       0.19318562
Br       3.04724728       3.12487000      11.79660274        2      -0.09635260      -0.09287538       0.00810617
Br       2.94751017      11.71358843       2.81201665        3      -0.03038573       0.03360399      -0.02765193
Br      11.64394861       2.98482248       2.99407269        4       0.49954004      -0.02314596       0.00351334
Cs      -0.13080734       0.09825552       5.95124767        5       0.06450200       0.04401106      -0.06379519
Sn       2.96406383       2.91324670       8.85647168        6       0.10632043      -0.00583349      -0.17473231
Br       2.80092603       2.95390457       5.96537555        7       0.05054001       0.00315519      -0.12168040
Br       2.89091467      11.84455235       8.92049963        8      -0.00111111      -0.43527514      -0.02645934
Br      11.70880779       2.97865690       8.75313936        9       0.07120787      -0.00290274       0.00892116
Rb      -0.02741179       5.86904910      -0.03997056       10      -0.00625635      -0.03828156       0.02057512
Sn       2.75552964       8.81079773       2.79370191       11       0.84127185      -0.29091260      -0.08528873
Br       3.00096800       8.74440829      11.67825983       12      -0.07535897       0.03797245       0.00596658
Br       2.78690785       5.83565885       2.76067388       13      -0.02097813       0.02744760       0.07978089
Br      11.84836848       8.77651480       2.97311471       14      -0.81026967       0.01964182       0.02064152
Rb      11.80676563       5.87190018       6.00251525       15       0.03384273      -0.05729786      -0.00812414
Sn       3.00063342       8.72561996       8.62638919       16       0.27968026       0.08539642       0.35709930
Br       2.92432903       8.71447035       5.83209898       17      -0.01996926      -0.02231784      -0.05179657
Br       2.94787108       5.82184814       8.91826325       18      -0.02096293       0.43043276      -0.09955745
Br      11.74204282       8.74471178       8.82551591       19       0.30366931       0.01300208      -0.07232387
Rb       5.85935291      -0.04529192       0.02488043       20       0.02414623       0.01721384       0.02780090
Sn       8.85538271       2.98557876       3.00295647       21      -0.50160631      -0.27380081      -0.59286093
Br       8.82892859       2.90764608      11.85031876       22       0.07488099       0.02578591      -0.37593437
Br       8.87387171      11.76962671       2.82676525       23      -0.01556192      -0.11350051       0.12372968
Br       5.91938849       3.00585091       2.80641991       24      -0.32665417      -0.02987203       0.08469978
Cs       5.91677560       0.00100316       5.98990390       25      -0.04327561       0.01875119      -0.05018876
Sn       8.88021364       2.97127818       8.70519070       26      -0.22831106       0.28842259       0.38132851
Br       8.72485454       3.08455176       5.82367941       27       0.01043545      -0.05638644       0.47664564
Br       8.74910400      11.81371103       8.85090454       28       0.07220354      -0.16632323      -0.11719844
Br       5.87211897       2.96944375       8.89032650       29      -0.04730103      -0.02086148      -0.04831992
Rb       5.76674560       5.77797345       0.02536995       30      -0.00049503      -0.02800148       0.03867744
Sn       8.73501357       8.71752030       2.81528430       31      -0.23581323       0.25455878       0.13317907
Br       8.82361891       8.83318237      11.84337232       32       0.00371600      -0.01143879      -0.20286332
Br       8.79236101       5.86754562       2.73803028       33       0.03150524       0.13201503       0.00303401
Br       5.85562185       8.75494316       2.94559755       34       0.32486150       0.00082288      -0.02249722
Cs       5.75981423       5.85717272       5.87638076       35      -0.00329058      -0.02769898      -0.02862332
Sn       9.00775049       8.92647309       8.59854771       36      -0.63204039      -0.33317745       0.91012036
Br       8.71140652       8.73674523       6.00917307       37       0.06884829       0.05252118      -0.76341112
Br       8.85627129       5.86765882       8.72505696       38       0.05482568       0.15121423       0.02149932
Br       5.88971927       8.85651981       8.81598320       39      -0.12482427      -0.00061227      -0.03832856
40
Lattice="11.729928013411238 0.0 0.0 0.0 11.730273547843348 0.0 0.0 -9.700303724699164e-15 11.730273547843273" Properties=species:S:1:pos:R:3:spacegroup_kinds:I:1:forces:R:3 spacegroup="P 1" unit_cell=conventional occupancy="_JSON {\"0\": {\"Cs\": 1.0}, \"1\": {\"Sn\": 1.0}, \"2\": {\"Br\": 1.0}, \"3\": {\"Br\": 1.0}, \"4\": {\"Br\": 1.0}, \"5\": {\"Cs\": 1.0}, \"6\": {\"Sn\": 1.0}, \"7\": {\"Br\": 1.0}, \"8\": {\"Br\": 1.0}, \"9\": {\"Br\": 1.0}, \"10\": {\"Rb\": 1.0}, \"11\": {\"Sn\": 1.0}, \"12\": {\"Br\": 1.0}, \"13\": {\"Br\": 1.0}, \"14\": {\"Br\": 1.0}, \"15\": {\"Rb\": 1.0}, \"16\": {\"Sn\": 1.0}, \"17\": {\"Br\": 1.0}, \"18\": {\"Br\": 1.0}, \"19\": {\"Br\": 1.0}, \"20\": {\"Rb\": 1.0}, \"21\": {\"Sn\": 1.0}, \"22\": {\"Br\": 1.0}, \"23\": {\"Br\": 1.0}, \"24\": {\"Br\": 1.0}, \"25\": {\"Cs\": 1.0}, \"26\": {\"Sn\": 1.0}, \"27\": {\"Br\": 1.0}, \"28\": {\"Br\": 1.0}, \"29\": {\"Br\": 1.0}, \"30\": {\"Rb\": 1.0}, \"31\": {\"Sn\": 1.0}, \"32\": {\"Br\": 1.0}, \"33\": {\"Br\": 1.0}, \"34\": {\"Br\": 1.0}, \"35\": {\"Cs\": 1.0}, \"36\": {\"Sn\": 1.0}, \"37\": {\"Br\": 1.0}, \"38\": {\"Br\": 1.0}, \"39\": {\"Br\": 1.0}}" candidate_id=513b99817477500b formula=Cs0.53Rb0.47SnBr3 config_index=2 rattle_stdev=0.08 method=PBE fidelity=phase2_force energy=-125.44482001556688 stress="-0.0015919370109506758 2.407564618009189e-05 -2.3627476878961395e-05 2.407564618009189e-05 -0.001679060282876328 -3.370385149561412e-05 -2.3627476878961395e-05 -3.370385149561412e-05 -0.001236205942015092" pbc="T T T"
Cs      -0.00901704      -0.08612512       0.14280215        0       0.03047245      -0.00023623      -0.10186663
Sn       2.81592334       2.91815710       2.82008229        1       0.76448762       0.29051830       0.18839712
Br       2.97268095       2.90698137      11.70227549        2      -0.09406567       0.06739895       0.00142949
Br       2.97310689      11.82634650       2.75982661        3      -0.04113275      -0.59464835       0.04800890
Br      11.87825031       3.03123091       2.88954869        4      -0.89998686       0.00354251      -0.05022421
Cs      -0.03224966      -0.07789298       5.82773943        5      -0.01656064      -0.01099662       0.07352522
Sn       2.87504829       3.04197423       8.74722354        6       0.43030813      -0.08122731      -0.08683309
Br       2.86850788       2.97518104       5.87150316        7      -0.00979683      -0.08847073      -0.02610603
Br       2.85471799      11.60637415       8.91790781        8      -0.01162021       0.37860282      -0.02573324
Br      11.76294167       2.93605244       8.64716619        9      -0.13428614       0.04957904       0.05616382
Rb      -0.06297932       5.78285544       0.00746465       10       0.02526381       0.03488605      -0.02982031
Sn       2.89014647       8.84843037       2.90480884       11       0.27825228      -0.25862979       0.08209971
Br       2.90416295       8.67021942      11.69005480       12       0.01020931      -0.02185254       0.41190339
Br       2.98554359       5.79113696       3.06470644       13      -0.06366013       0.50949778      -0.09058117
Br      11.61790912       8.71943179       2.91739286       14       0.55609378      -0.00423096       0.01274678
Rb      11.70173719       5.87200682       5.87366893       15      -0.00231336       0.01629116       0.02589898
Sn       2.91671951       8.89376549       8.83701345       16      -0.08657324      -0.38499366      -0.15922723
Br       2.96020149       8.70286019       5.92376335       17      -0.04914353       0.12623352      -0.32937416
Br       3.02885259       5.80673414       8.80350947       18      -0.04823661      -0.06335126       0.03468501
Br      11.81608115       8.53093099       8.84362219       19      -0.05041294       0.05040756      -0.01961963
Rb       5.94808078      -0.14468591       0.06069128       20      -0.02772265       0.03342526      -0.02231409
Sn       8.75743699       2.75671931       2.91224060       21      -0.31643902       0.49406943       0.19790309
Br       8.66709337       3.01633545      11.68601927       22       0.10295689       0.02151114       0.16901325
Br       8.86515454      11.66072812       2.87933894       23      -0.00671088       0.12643746      -0.01299772
Br       5.85639161       3.13303693       2.84617978       24       0.43081830      -0.20442145      -0.00400903
Cs       5.82273160      -0.10356935       5.88226470       25       0.02577718       0.02012404       0.02593879
Sn       8.88754758       2.97638563       8.87064636       26      -0.46647596      -0.07324562      -0.30466747
Br       8.70608788       3.02569923       5.84752580       27       0.06447534      -0.12856911      -0.11227049
Br       8.83216906      11.64989600       8.99690640       28       0.00582636       0.44687697      -0.00408727
Br       5.88231287       3.00512880       8.80672345       29       0.08455222      -0.06241186      -0.00559667
Rb       5.78473327       5.80263196       0.01634222       30      -0.02452744      -0.06464709       0.00929173
Sn       8.84033337       8.70001099       2.74344563       31      -0.44812373      -0.23563527       0.63936044
Br       8.83907080       8.72725352      11.71646841       32       0.00400542      -0.04247702       0.06346120
Br       8.62450189       5.85617327       2.96432872       33       0.12716331      -0.06830001      -0.09046144
Br       5.90134306       8.93009658       2.87841965       34      -0.39999295       0.05300524      -0.07366325
Cs       5.86519140       5.82885247       5.89501537       35       0.00740823      -0.02006303      -0.01683950
Sn       8.73239673       8.77788618       8.84505659       36       0.21597104       0.07803113      -0.55462977
Br       8.71232779       8.75910955       5.93331572       37       0.06489121       0.09401922      -0.09515300
Br       8.79502747       5.96024231       8.72458886       38       0.06129846      -0.55646644       0.07535431
Br       5.93424727       8.69367122       8.81293309       39      -0.10840618       0.08043024       0.08846827
40
Lattice="11.729928013411238 0.0 0.0 0.0 11.730273547843348 0.0 0.0 -9.700303724699164e-15 11.730273547843273" Properties=species:S:1:pos:R:3:spacegroup_kinds:I:1:forces:R:3 spacegroup="P 1" unit_cell=conventional occupancy="_JSON {\"0\": {\"Cs\": 1.0}, \"1\": {\"Sn\": 1.0}, \"2\": {\"Br\": 1.0}, \"3\": {\"Br\": 1.0}, \"4\": {\"Br\": 1.0}, \"5\": {\"Cs\": 1.0}, \"6\": {\"Sn\": 1.0}, \"7\": {\"Br\": 1.0}, \"8\": {\"Br\": 1.0}, \"9\": {\"Br\": 1.0}, \"10\": {\"Rb\": 1.0}, \"11\": {\"Sn\": 1.0}, \"12\": {\"Br\": 1.0}, \"13\": {\"Br\": 1.0}, \"14\": {\"Br\": 1.0}, \"15\": {\"Rb\": 1.0}, \"16\": {\"Sn\": 1.0}, \"17\": {\"Br\": 1.0}, \"18\": {\"Br\": 1.0}, \"19\": {\"Br\": 1.0}, \"20\": {\"Rb\": 1.0}, \"21\": {\"Sn\": 1.0}, \"22\": {\"Br\": 1.0}, \"23\": {\"Br\": 1.0}, \"24\": {\"Br\": 1.0}, \"25\": {\"Cs\": 1.0}, \"26\": {\"Sn\": 1.0}, \"27\": {\"Br\": 1.0}, \"28\": {\"Br\": 1.0}, \"29\": {\"Br\": 1.0}, \"30\": {\"Rb\": 1.0}, \"31\": {\"Sn\": 1.0}, \"32\": {\"Br\": 1.0}, \"33\": {\"Br\": 1.0}, \"34\": {\"Br\": 1.0}, \"35\": {\"Cs\": 1.0}, \"36\": {\"Sn\": 1.0}, \"37\": {\"Br\": 1.0}, \"38\": {\"Br\": 1.0}, \"39\": {\"Br\": 1.0}}" candidate_id=513b99817477500b formula=Cs0.53Rb0.47SnBr3 config_index=3 rattle_stdev=0.08 method=PBE fidelity=phase2_force energy=-125.27039175476698 stress="-0.0016115958421459148 0.00015325492476353533 8.14834902637211e-05 0.00015325492476353533 -0.0017163033569194055 9.024057692220524e-05 8.14834902637211e-05 9.024057692220524e-05 -0.0010215955381127927" pbc="T T T"
Cs      -0.10568348       0.16134023       0.00380516        0       0.05848560       0.03914342       0.02563124
Sn       2.91346831       2.95099258       2.99763739        1      -0.29018607      -0.35366017      -0.70918988
Br       2.88808375       3.01955879      11.66828009        2       0.04459828      -0.03353869      -0.12904894
Br       3.06177057      11.71229911       2.78087537        3       0.01744910      -0.16608808       0.03313710
Br      11.67564520       2.86203930       2.79760773        4       0.11720453       0.05094802       0.07739024
Cs      -0.01794374      -0.06804488       5.80467757        5      -0.03639975       0.01574025      -0.02186661
Sn       2.95353567       2.73984732       8.67577686        6       0.04006664       0.53380093       0.60284365
Br       2.85865112       2.78404850       5.76300199        7      -0.01213272      -0.02582990       0.32122941
Br       3.00246388      11.62796683       8.78169454        8      -0.00568040       0.51618567      -0.00090998
Br      11.60973835       2.89655077       9.01160315        9       0.35937963       0.00936137      -0.07799433
Rb      -0.03814223       5.93686989      -0.14439506       10       0.02337597      -0.08936919      -0.03363295
Sn       2.89318483       8.69005106       2.85645639       11       0.07448216       0.34853214      -0.01358402
Br       3.05507712       8.73461513      11.67317783       12      -0.05216053      -0.05144890       0.54811793
Br       2.90934537       5.81082638       3.00903303       13      -0.03337717       0.24465127       0.02824736
Br      11.59012219       8.79124195       2.87247631       14       1.11369845      -0.07495663       0.00807568
Rb      11.66923216       5.87889888       5.81255349       15      -0.04452306      -0.00283012       0.00705777
Sn       2.97669764       8.81661945       8.77969631       16      -0.13428750      -0.65673056       0.01663330
Br       3.04184145       8.76782680       5.96206411       17      -0.01161739       0.02967093      -0.51263176
Br       2.98087082       5.91905646       8.79594545       18      -0.01249356      -0.27846319      -0.06754248
Br      11.72198085       8.61177039       8.82429063       19      -0.17950139       0.02103408       0.01244707
Rb       5.96086872      -0.02123382      -0.05214397       20      -0.04521151       0.01360145       0.00650963
Sn       8.64572308       2.82103884       2.88944815       21       0.46671405       0.35518237       0.00819452
Br       8.75415791       3.03411858      11.78167558       22      -0.07769973      -0.06297579      -0.13063796
Br       8.97234085      11.71669096       2.80427553       23      -0.13258876      -0.27525257       0.02376059
Br       5.82947951       3.03280934       2.91297153       24      -0.16119562      -0.05123255       0.03946360
Cs       5.88725507       0.04176727       5.89054611       25       0.01957902      -0.04516772      -0.00968867
Sn       8.81561692       2.91303552       8.75195813       26      -0.08216547      -0.06332258       0.03289430
Br       8.93786697       2.91075494       5.83643057       27      -0.01313350      -0.01544590       0.13789689
Br       8.78725809      11.86461131       8.75058034       28      -0.01684115      -0.86279477       0.07114636
Br       5.83306584       2.93126002       8.90159768       29      -0.28996408      -0.08868173      -0.09311685
Rb       5.81878443       5.87083656       0.06937641       30      -0.01563148      -0.04091264      -0.04179966
Sn       8.83063873       8.76791200       2.98132146       31      -0.17331036      -0.21026829       0.19124435
Br       8.80532677       8.71786014      11.78259989       32       0.03869345      -0.00438302       0.05326937
Br       8.73588578       5.75118088       3.02730234       33       0.07734602       0.23110787       0.00861028
Br       6.09851006       8.71124436       2.81174087       34      -1.00231651       0.03178600       0.00121567
Cs       5.94940339       5.95679381       5.87478662       35       0.00904361       0.00599369       0.02878006
Sn       8.79844548       8.73004907       8.95950347       36       0.08095047      -0.01458939      -0.35742381
Br       8.77828541       8.72598426       5.97815612       37       0.01649721       0.02132375      -0.07410711
Br       8.75528836       5.68381145       8.89079809       38       0.00584817       0.95923146      -0.00463347
Br       5.82301857       8.78174156       8.94456290       39       0.24916052       0.02890865      -0.00824717
