Cs Sn I  Cs Sn I  Cs Ge I  Cs Ge I  Cs Ge I  Cs Sn I  Cs Ge I  Cs Sn I 
 1.0000000000000000
    12.7043046948662237    0.0000000000000000    0.0000000000000000
     0.0000000000000000   12.7043046948662237    0.0000000000000000
     0.0000000000000000    0.0000000000000000   12.7043046948662237
 Cs  Sn  I   Cs  Sn  I   Cs  Ge  I   Cs  Ge  I   Cs  Ge  I   Cs  Sn  I   Cs  Ge  I   Cs  Sn  I  
   1   1   3   1   1   3   1   1   3   1   1   3   1   1   3   1   1   3   1   1   3   1   1   3
Cartesian
  0.0000000000000000  0.0000000000000000  0.0000000000000000
  3.1760761737165559  3.1760761737165559  3.1760761737165559
  3.1760761737165559  3.1760761737165559  0.0000000000000000
  3.1760761737165559  0.0000000000000000  3.1760761737165559
  0.0000000000000000  3.1760761737165559  3.1760761737165559
  0.0000000000000000  0.0000000000000000  6.3521523474331110
  3.1760761737165559  3.1760761737165559  9.5282285211496678
  3.1760761737165559  3.1760761737165559  6.3521523474331110
  3.1760761737165559  0.0000000000000000  9.5282285211496678
  0.0000000000000000  3.1760761737165559  9.5282285211496678
  0.0000000000000000  6.3521523474331110  0.0000000000000000
  3.1760761737165559  9.5282285211496678  3.1760761737165559
  3.1760761737165559  9.5282285211496678  0.0000000000000000
  3.1760761737165559  6.3521523474331110  3.1760761737165559
  0.0000000000000000  9.5282285211496678  3.1760761737165559
  0.0000000000000000  6.3521523474331110  6.3521523474331110
  3.1760761737165559  9.5282285211496678  9.5282285211496678
  3.1760761737165559  9.5282285211496678  6.3521523474331110
  3.1760761737165559  6.3521523474331110  9.5282285211496678
  0.0000000000000000  9.5282285211496678  9.5282285211496678
  6.3521523474331110  0.0000000000000000  0.0000000000000000
  9.5282285211496678  3.1760761737165559  3.1760761737165559
  9.5282285211496678  3.1760761737165559  0.0000000000000000
  9.5282285211496678  0.0000000000000000  3.1760761737165559
  6.3521523474331110  3.1760761737165559  3.1760761737165559
  6.3521523474331110  0.0000000000000000  6.3521523474331110
  9.5282285211496678  3.1760761737165559  9.5282285211496678
  9.5282285211496678  3.1760761737165559  6.3521523474331110
  9.5282285211496678  0.0000000000000000  9.5282285211496678
  6.3521523474331110  3.1760761737165559  9.5282285211496678
  6.3521523474331110  6.3521523474331110  0.0000000000000000
  9.5282285211496678  9.5282285211496678  3.1760761737165559
  9.5282285211496678  9.5282285211496678  0.0000000000000000
  9.5282285211496678  6.3521523474331110  3.1760761737165559
  6.3521523474331110  9.5282285211496678  3.1760761737165559
  6.3521523474331110  6.3521523474331110  6.3521523474331110
  9.5282285211496678  9.5282285211496678  9.5282285211496678
  9.5282285211496678  9.5282285211496678  6.3521523474331110
  9.5282285211496678  6.3521523474331110  9.5282285211496678
  6.3521523474331110  9.5282285211496678  9.5282285211496678
