Cs Sn Cl Cs Sn Cl Cs Sn Cl Cs Sn Cl Cs Sn Cl Cs Sn Cl Cs Ge Cl Cs Sn Cl
 1.0000000000000000
    11.7350027192157054    0.0000000000000000    0.0000000000000000
     0.0000000000000000   11.7350027192157054    0.0000000000000000
     0.0000000000000000    0.0000000000000000   11.7350027192157054
 Cs  Sn  Cl  Cs  Sn  Cl  Cs  Sn  Cl  Cs  Sn  Cl  Cs  Sn  Cl  Cs  Sn  Cl  Cs  Ge  Cl  Cs  Sn  Cl 
   1   1   3   1   1   3   1   1   3   1   1   3   1   1   3   1   1   3   1   1   3   1   1   3
Cartesian
  0.0000000000000000  0.0000000000000000  0.0000000000000000
  2.9337506798039263  2.9337506798039263  2.9337506798039263
  2.9337506798039263  2.9337506798039263  0.0000000000000000
  2.9337506798039263  0.0000000000000000  2.9337506798039263
  0.0000000000000000  2.9337506798039263  2.9337506798039263
  0.0000000000000000  0.0000000000000000  5.8675013596078518
  2.9337506798039263  2.9337506798039263  8.8012520394117786
  2.9337506798039263  2.9337506798039263  5.8675013596078518
  2.9337506798039263  0.0000000000000000  8.8012520394117786
  0.0000000000000000  2.9337506798039263  8.8012520394117786
  0.0000000000000000  5.8675013596078518  0.0000000000000000
  2.9337506798039263  8.8012520394117786  2.9337506798039263
  2.9337506798039263  8.8012520394117786  0.0000000000000000
  2.9337506798039263  5.8675013596078518  2.9337506798039263
  0.0000000000000000  8.8012520394117786  2.9337506798039263
  0.0000000000000000  5.8675013596078518  5.8675013596078518
  2.9337506798039263  8.8012520394117786  8.8012520394117786
  2.9337506798039263  8.8012520394117786  5.8675013596078518
  2.9337506798039263  5.8675013596078518  8.8012520394117786
  0.0000000000000000  8.8012520394117786  8.8012520394117786
  5.8675013596078518  0.0000000000000000  0.0000000000000000
  8.8012520394117786  2.9337506798039263  2.9337506798039263
  8.8012520394117786  2.9337506798039263  0.0000000000000000
  8.8012520394117786  0.0000000000000000  2.9337506798039263
  5.8675013596078518  2.9337506798039263  2.9337506798039263
  5.8675013596078518  0.0000000000000000  5.8675013596078518
  8.8012520394117786  2.9337506798039263  8.8012520394117786
  8.8012520394117786  2.9337506798039263  5.8675013596078518
  8.8012520394117786  0.0000000000000000  8.8012520394117786
  5.8675013596078518  2.9337506798039263  8.8012520394117786
  5.8675013596078518  5.8675013596078518  0.0000000000000000
  8.8012520394117786  8.8012520394117786  2.9337506798039263
  8.8012520394117786  8.8012520394117786  0.0000000000000000
  8.8012520394117786  5.8675013596078518  2.9337506798039263
  5.8675013596078518  8.8012520394117786  2.9337506798039263
  5.8675013596078518  5.8675013596078518  5.8675013596078518
  8.8012520394117786  8.8012520394117786  8.8012520394117786
  8.8012520394117786  8.8012520394117786  5.8675013596078518
  8.8012520394117786  5.8675013596078518  8.8012520394117786
  5.8675013596078518  8.8012520394117786  8.8012520394117786
