Cs Pb I  Cs Pb I  Cs Pb Cl I  Cs Pb I  Cl I  Cs Pb I  Cl Cs Pb I  Cs Pb I  Cl Br Cs Pb I  Br
 1.0000000000000000
    13.1588329338129366    0.0000000000000000    0.0000000000000000
     0.0000000000000000   13.1588329338129366    0.0000000000000000
     0.0000000000000000    0.0000000000000000   13.1588329338129366
 Cs  Pb  I   Cs  Pb  I   Cs  Pb  Cl  I   Cs  Pb  I   Cl  I   Cs  Pb  I   Cl  Cs  Pb  I   Cs  Pb  I   Cl  Br  Cs  Pb  I   Br 
   1   1   3   1   1   3   1   1   2   1   1   1   1   1   1   1   1   2   1   1   1   3   1   1   1   1   1   1   1   2   1
Cartesian
  0.0000000000000000  0.0000000000000000  0.0000000000000000
  3.2897082334532342  3.2897082334532342  3.2897082334532342
  3.2897082334532342  3.2897082334532342  0.0000000000000000
  3.2897082334532342  0.0000000000000000  3.2897082334532342
  0.0000000000000000  3.2897082334532342  3.2897082334532342
  0.0000000000000000  0.0000000000000000  6.5794164669064674
  3.2897082334532342  3.2897082334532342  9.8691247003597020
  3.2897082334532342  3.2897082334532342  6.5794164669064674
  3.2897082334532342  0.0000000000000000  9.8691247003597020
  0.0000000000000000  3.2897082334532342  9.8691247003597020
  0.0000000000000000  6.5794164669064674  0.0000000000000000
  3.2897082334532342  9.8691247003597020  3.2897082334532342
  3.2897082334532342  9.8691247003597020  0.0000000000000000
  3.2897082334532342  6.5794164669064674  3.2897082334532342
  0.0000000000000000  9.8691247003597020  3.2897082334532342
  0.0000000000000000  6.5794164669064674  6.5794164669064674
  3.2897082334532342  9.8691247003597020  9.8691247003597020
  3.2897082334532342  9.8691247003597020  6.5794164669064674
  3.2897082334532342  6.5794164669064674  9.8691247003597020
  0.0000000000000000  9.8691247003597020  9.8691247003597020
  6.5794164669064674  0.0000000000000000  0.0000000000000000
  9.8691247003597020  3.2897082334532342  3.2897082334532342
  9.8691247003597020  3.2897082334532342  0.0000000000000000
  9.8691247003597020  0.0000000000000000  3.2897082334532342
  6.5794164669064674  3.2897082334532342  3.2897082334532342
  6.5794164669064674  0.0000000000000000  6.5794164669064674
  9.8691247003597020  3.2897082334532342  9.8691247003597020
  9.8691247003597020  3.2897082334532342  6.5794164669064674
  9.8691247003597020  0.0000000000000000  9.8691247003597020
  6.5794164669064674  3.2897082334532342  9.8691247003597020
  6.5794164669064674  6.5794164669064674  0.0000000000000000
  9.8691247003597020  9.8691247003597020  3.2897082334532342
  9.8691247003597020  9.8691247003597020  0.0000000000000000
  9.8691247003597020  6.5794164669064674  3.2897082334532342
  6.5794164669064674  9.8691247003597020  3.2897082334532342
  6.5794164669064674  6.5794164669064674  6.5794164669064674
  9.8691247003597020  9.8691247003597020  9.8691247003597020
  9.8691247003597020  9.8691247003597020  6.5794164669064674
  9.8691247003597020  6.5794164669064674  9.8691247003597020
  6.5794164669064674  9.8691247003597020  9.8691247003597020
