40
Lattice="11.454199425597748 0.0 0.0 0.0 11.454199425597738 0.0 0.0 -1.4558691683968512e-14 11.45419942559772" Properties=species:S:1:pos:R:3:spacegroup_kinds:I:1:forces:R:3 spacegroup="P 1" unit_cell=conventional occupancy="_JSON {\"0\": {\"Cs\": 1.0}, \"1\": {\"Pb\": 1.0}, \"2\": {\"Cl\": 1.0}, \"3\": {\"Cl\": 1.0}, \"4\": {\"Cl\": 1.0}, \"5\": {\"Cs\": 1.0}, \"6\": {\"Pb\": 1.0}, \"7\": {\"Cl\": 1.0}, \"8\": {\"Cl\": 1.0}, \"9\": {\"Cl\": 1.0}, \"10\": {\"Cs\": 1.0}, \"11\": {\"Pb\": 1.0}, \"12\": {\"Cl\": 1.0}, \"13\": {\"Cl\": 1.0}, \"14\": {\"Cl\": 1.0}, \"15\": {\"Cs\": 1.0}, \"16\": {\"Pb\": 1.0}, \"17\": {\"Cl\": 1.0}, \"18\": {\"Cl\": 1.0}, \"19\": {\"Cl\": 1.0}, \"20\": {\"Cs\": 1.0}, \"21\": {\"Pb\": 1.0}, \"22\": {\"Cl\": 1.0}, \"23\": {\"Cl\": 1.0}, \"24\": {\"Cl\": 1.0}, \"25\": {\"Cs\": 1.0}, \"26\": {\"Pb\": 1.0}, \"27\": {\"Cl\": 1.0}, \"28\": {\"Cl\": 1.0}, \"29\": {\"Cl\": 1.0}, \"30\": {\"K\": 1.0}, \"31\": {\"Pb\": 1.0}, \"32\": {\"Cl\": 1.0}, \"33\": {\"Cl\": 1.0}, \"34\": {\"Cl\": 1.0}, \"35\": {\"Cs\": 1.0}, \"36\": {\"Pb\": 1.0}, \"37\": {\"Cl\": 1.0}, \"38\": {\"Cl\": 1.0}, \"39\": {\"Cl\": 1.0}}" candidate_id=c5394b24ea21fbfa formula=FA0.88K0.12PbCl3 config_index=0 rattle_stdev=0.0 method=PBE fidelity=phase2_force energy=-140.7517591533995 stress="0.0017322028346525673 0.0 0.0 0.0 0.0017322028346525714 2.20169093157608e-18 0.0 2.20169093157608e-18 0.0017322028346523734" pbc="T T T"
Cs       0.00000000      -0.00000000      11.45419943        0      -0.00000000      -0.00000000       0.00000000
Pb       2.87369924       2.87369924       2.85340048        1       0.01010602       0.01010602      -0.01010602
Cl       2.91881538       2.91881538      11.45419943        2      -0.00559087      -0.00559087       0.00000000
Cl       2.88722940      11.45419943       2.83987032        3       0.00026141       0.00000000      -0.00026141
Cl      11.45419943       2.88722940       2.83987032        4      -0.00000000       0.00026141      -0.00026141
Cs       0.00000000      11.45419943       5.72709971        5       0.00000000      -0.00000000       0.00000000
Pb       2.87369924       2.87369924       8.60079895        6       0.01010602       0.01010602       0.01010602
Cl       2.88722940       2.88722940       5.72709971        7       0.00026141       0.00026141       0.00000000
Cl       2.88722940      11.45419943       8.61432911        8       0.00026141      -0.00000000       0.00026141
Cl      11.45419943       2.88722940       8.61432911        9      -0.00000000       0.00026141       0.00026141
Cs       0.00000000       5.72709971      11.45419943       10       0.00000000       0.00000000       0.00000000
Pb       2.87369924       8.58050019       2.85340048       11       0.01010602      -0.01010602      -0.01010602
Cl       2.91881538       8.53538405      11.45419943       12      -0.00559087       0.00559087       0.00000000
Cl       2.91881538       5.72709971       2.80828434       13      -0.00559087      -0.00000000       0.00559087
Cl      11.45419943       8.56697003       2.83987032       14      -0.00000000      -0.00026141      -0.00026141
Cs       0.00000000       5.72709971       5.72709971       15       0.00000000       0.00000000       0.00000000
Pb       2.87369924       8.58050019       8.60079895       16       0.01010602      -0.01010602       0.01010602
Cl       2.88722940       8.56697003       5.72709971       17       0.00026141      -0.00026141       0.00000000
Cl       2.91881538       5.72709971       8.64591509       18      -0.00559087       0.00000000      -0.00559087
Cl      11.45419943       8.56697003       8.61432911       19      -0.00000000      -0.00026141       0.00026141
Cs       5.72709971      11.45419943      11.45419943       20       0.00000000       0.00000000       0.00000000
Pb       8.58050019       2.87369924       2.85340048       21      -0.01010602       0.01010602      -0.01010602
Cl       8.53538405       2.91881538      11.45419943       22       0.00559087      -0.00559087       0.00000000
Cl       8.56697003      11.45419943       2.83987032       23      -0.00026141       0.00000000      -0.00026141
Cl       5.72709971       2.91881538       2.80828434       24       0.00000000      -0.00559087       0.00559087
Cs       5.72709971      11.45419943       5.72709971       25       0.00000000      -0.00000000       0.00000000
Pb       8.58050019       2.87369924       8.60079895       26      -0.01010602       0.01010602       0.01010602
Cl       8.56697003       2.88722940       5.72709971       27      -0.00026141       0.00026141       0.00000000
Cl       8.56697003      11.45419943       8.61432911       28      -0.00026141      -0.00000000       0.00026141
Cl       5.72709971       2.91881538       8.64591509       29      -0.00000000      -0.00559087      -0.00559087
K        5.72709971       5.72709971      11.45419943       30      -0.00000000       0.00000000       0.00000000
Pb       8.58050019       8.58050019       2.85340048       31      -0.01010602      -0.01010602      -0.01010602
Cl       8.53538405       8.53538405      11.45419943       32       0.00559087       0.00559087       0.00000000
Cl       8.53538405       5.72709971       2.80828434       33       0.00559087      -0.00000000       0.00559087
Cl       5.72709971       8.53538405       2.80828434       34      -0.00000000       0.00559087       0.00559087
Cs       5.72709971       5.72709971       5.72709971       35      -0.00000000       0.00000000       0.00000000
Pb       8.58050019       8.58050019       8.60079895       36      -0.01010602      -0.01010602       0.01010602
Cl       8.56697003       8.56697003       5.72709971       37      -0.00026141      -0.00026141       0.00000000
Cl       8.53538405       5.72709971       8.64591509       38       0.00559087       0.00000000      -0.00559087
Cl       5.72709971       8.53538405       8.64591509       39       0.00000000       0.00559087      -0.00559087
40
Lattice="11.454199425597748 0.0 0.0 0.0 11.454199425597738 0.0 0.0 -1.4558691683968512e-14 11.45419942559772" Properties=species:S:1:pos:R:3:spacegroup_kinds:I:1:forces:R:3 spacegroup="P 1" unit_cell=conventional occupancy="_JSON {\"0\": {\"Cs\": 1.0}, \"1\": {\"Pb\": 1.0}, \"2\": {\"Cl\": 1.0}, \"3\": {\"Cl\": 1.0}, \"4\": {\"Cl\": 1.0}, \"5\": {\"Cs\": 1.0}, \"6\": {\"Pb\": 1.0}, \"7\": {\"Cl\": 1.0}, \"8\": {\"Cl\": 1.0}, \"9\": {\"Cl\": 1.0}, \"10\": {\"Cs\": 1.0}, \"11\": {\"Pb\": 1.0}, \"12\": {\"Cl\": 1.0}, \"13\": {\"Cl\": 1.0}, \"14\": {\"Cl\": 1.0}, \"15\": {\"Cs\": 1.0}, \"16\": {\"Pb\": 1.0}, \"17\": {\"Cl\": 1.0}, \"18\": {\"Cl\": 1.0}, \"19\": {\"Cl\": 1.0}, \"20\": {\"Cs\": 1.0}, \"21\": {\"Pb\": 1.0}, \"22\": {\"Cl\": 1.0}, \"23\": {\"Cl\": 1.0}, \"24\": {\"Cl\": 1.0}, \"25\": {\"Cs\": 1.0}, \"26\": {\"Pb\": 1.0}, \"27\": {\"Cl\": 1.0}, \"28\": {\"Cl\": 1.0}, \"29\": {\"Cl\": 1.0}, \"30\": {\"K\": 1.0}, \"31\": {\"Pb\": 1.0}, \"32\": {\"Cl\": 1.0}, \"33\": {\"Cl\": 1.0}, \"34\": {\"Cl\": 1.0}, \"35\": {\"Cs\": 1.0}, \"36\": {\"Pb\": 1.0}, \"37\": {\"Cl\": 1.0}, \"38\": {\"Cl\": 1.0}, \"39\": {\"Cl\": 1.0}}" candidate_id=c5394b24ea21fbfa formula=FA0.88K0.12PbCl3 config_index=1 rattle_stdev=0.08 method=PBE fidelity=phase2_force energy=-139.98324121056896 stress="-0.0007120638634811633 0.00013410201914817985 1.8414068021480552e-05 0.00013410201914817985 0.0005679997238157694 -0.00014865132329938474 1.8414068021480552e-05 -0.00014865132329938474 -0.0014740552116143208" pbc="T T T"
Cs      -0.08691571      -0.07168521      11.42969548        0      -0.05497748       0.04190599       0.03833211
Pb       2.76650454       2.77717239       2.80206233        1       0.40246604       0.40561339       0.23944055
Cl       3.02345103       3.06645221      11.52052862        2      -0.08354946      -0.06993412      -0.03894423
Cl       2.88536549      11.43751431       2.76654074        3      -0.04903684       0.02433101      -0.03732336
Cl      11.36822002       2.88033792       2.93393740        4       0.58845146      -0.01952053       0.01209238
Cs      -0.13080734      11.55245495       5.81321061        5       0.07896396       0.05859280      -0.07995547
Pb       2.90528106       2.84268317       8.64787109        6       0.08126332       0.08642912      -0.08218613
Cl       2.77256549       2.86134342       5.82733849        7       0.02444194       0.00898141      -0.20709550
Cl       2.82876999      11.56847823       8.68990142        8      -0.01988770      -0.57560582      -0.02411093
Cl      11.43307920       2.87417233       8.53720053        9       0.11672230      -0.00412998      -0.00721711
Cs      -0.02741179       5.73101204      11.41422887       10      -0.00884318      -0.04152063       0.02822315
Pb       2.69674687       8.60528714       2.72622838       11       1.06002214      -0.31438059      -0.02416604
Cl       2.97717174       8.52675195      11.40218571       12      -0.09430282       0.03699478      -0.09657118
Cl       2.78337085       5.69762179       2.68105460       13      -0.05659578       0.00496867       0.08579680
Cl      11.57263989       8.60492525       2.91297942       14      -0.99047578       0.01140760       0.03176449
Cs       0.07683762       5.73386312       5.86447819       15       0.02523653      -0.06332944      -0.04677091
Pb       2.94185065       8.52010937       8.41778860       16       0.25169108       0.13604540       0.53653567
Cl       2.89596849       8.53095738       5.69406192       17      -0.03192714      -0.03085649      -0.13579813
Cl       2.94433408       5.68381108       8.72180841       18      -0.03696937       0.42932555      -0.10843054
Cl      11.46631423       8.57312222       8.60957708       19       0.40664051       0.01039678      -0.07250410
Cs       5.72148862      11.40890750      11.47907985       20       0.03850506       0.02900926       0.02896442
Pb       8.63843690       2.91501524       2.93548293       21      -0.55742693      -0.23280859      -0.61531800
Cl       8.57699626       2.84922829      11.57424464       22       0.11434738       0.00851621      -0.48224345
Cl       8.66028780      11.49355258       2.78128934       23       0.01790722      -0.19084815       0.11115493
Cl       5.78152420       2.95953512       2.74128144       24      -0.40982013      -0.02711642       0.09218666
Cs       5.77891130      11.45520258       5.85186684       25      -0.04241778       0.00803767      -0.05069249
Pb       8.66326782       2.90071465       8.49659012       26      -0.34505990       0.30819176       0.48422272
Cl       8.47748649       2.99199061       5.68564235       27       0.01344015      -0.04971234       0.53625421
Cl       8.53552009      11.53763691       8.62030633       28       0.08602481      -0.18104153      -0.12712975
Cl       5.73425468       2.92312796       8.67939085       29       0.01606685      -0.02934129      -0.06497083
K        5.62888131       5.63993639      11.47956938       30      -0.04586434      -0.07791394       0.06046667
Pb       8.51806775       8.51200971       2.74781077       31      -0.15948724       0.26422388       0.31315048
Cl       8.57168658       8.61552604      11.56729820       32       0.06155473       0.02251864      -0.38076472
Cl       8.52016942       5.72950856       2.65841100       33       0.05246837       0.14973111       0.00370962
Cl       5.71775756       8.52518482       2.88045908       34       0.23505069       0.01109974       0.00138467
Cs       5.62194994       5.71913565       5.73834370       35       0.01929052      -0.02325884      -0.03899854
Pb       8.79080467       8.72096250       8.38994712       36      -0.76983994      -0.38465159       1.18276244
Cl       8.46403847       8.55323225       5.87113601       37       0.03574934       0.03394800      -0.97241849
Cl       8.58407970       5.72962176       8.52860211       38       0.10194529       0.19581887      -0.01438438
Cl       5.75185497       8.62676148       8.60504756       39      -0.06861607       0.02877019      -0.07647250
40
Lattice="11.454199425597748 0.0 0.0 0.0 11.454199425597738 0.0 0.0 -1.4558691683968512e-14 11.45419942559772" Properties=species:S:1:pos:R:3:spacegroup_kinds:I:1:forces:R:3 spacegroup="P 1" unit_cell=conventional occupancy="_JSON {\"0\": {\"Cs\": 1.0}, \"1\": {\"Pb\": 1.0}, \"2\": {\"Cl\": 1.0}, \"3\": {\"Cl\": 1.0}, \"4\": {\"Cl\": 1.0}, \"5\": {\"Cs\": 1.0}, \"6\": {\"Pb\": 1.0}, \"7\": {\"Cl\": 1.0}, \"8\": {\"Cl\": 1.0}, \"9\": {\"Cl\": 1.0}, \"10\": {\"Cs\": 1.0}, \"11\": {\"Pb\": 1.0}, \"12\": {\"Cl\": 1.0}, \"13\": {\"Cl\": 1.0}, \"14\": {\"Cl\": 1.0}, \"15\": {\"Cs\": 1.0}, \"16\": {\"Pb\": 1.0}, \"17\": {\"Cl\": 1.0}, \"18\": {\"Cl\": 1.0}, \"19\": {\"Cl\": 1.0}, \"20\": {\"Cs\": 1.0}, \"21\": {\"Pb\": 1.0}, \"22\": {\"Cl\": 1.0}, \"23\": {\"Cl\": 1.0}, \"24\": {\"Cl\": 1.0}, \"25\": {\"Cs\": 1.0}, \"26\": {\"Pb\": 1.0}, \"27\": {\"Cl\": 1.0}, \"28\": {\"Cl\": 1.0}, \"29\": {\"Cl\": 1.0}, \"30\": {\"K\": 1.0}, \"31\": {\"Pb\": 1.0}, \"32\": {\"Cl\": 1.0}, \"33\": {\"Cl\": 1.0}, \"34\": {\"Cl\": 1.0}, \"35\": {\"Cs\": 1.0}, \"36\": {\"Pb\": 1.0}, \"37\": {\"Cl\": 1.0}, \"38\": {\"Cl\": 1.0}, \"39\": {\"Cl\": 1.0}}" candidate_id=c5394b24ea21fbfa formula=FA0.88K0.12PbCl3 config_index=2 rattle_stdev=0.08 method=PBE fidelity=phase2_force energy=-140.02123564863052 stress="6.463792335331812e-05 -5.767153107459805e-05 4.5749134505845716e-05 -5.767153107459805e-05 -0.00018812577373695323 -6.558441283377654e-05 4.5749134505845716e-05 -6.558441283377654e-05 0.0005383180586413415" pbc="T T T"
Cs      -0.00901704      -0.08612512      11.59700158        0       0.03965751      -0.01246087      -0.11589842
Pb       2.75714057       2.84759357       2.75260876        1       0.98428372       0.35510091       0.26591814
Cl       2.94888469       2.84856359      11.42620136        2      -0.10411272       0.05857981      -0.05721385
Cl       2.91096221      11.55027238       2.71435070        3      -0.05777681      -0.71699897       0.02599971
Cl      11.60252172       2.92674634       2.82941340        4      -1.11745944      -0.00981958      -0.05347583
Cs      -0.03224966      11.37630644       5.68970237        5      -0.02182472      -0.00667118       0.09179644
Pb       2.81626552       2.97141070       8.53862295        6       0.50624204      -0.21297336      -0.01955588
Cl       2.84014734       2.88261989       5.73346610        7      -0.02694434      -0.08852710      -0.08714685
Cl       2.79257331      11.33030003       8.68730960        8      -0.02203140       0.58319938      -0.00424304
Cl      11.48721308       2.83156788       8.43122736        9      -0.18885363       0.05109069       0.05534454
Cs      -0.06297932       5.64481838      11.46166407       10       0.04165312       0.05140089      -0.04443211
Pb       2.83136370       8.64291978       2.83733530       11       0.31848385      -0.33382843       0.11273126
Cl       2.88036669       8.45256308      11.41398068       12      -0.00471936      -0.00774015       0.49930640
Cl       2.98200659       5.65309990       2.98508716       13      -0.09894247       0.60207259      -0.09513745
Cl      11.34218053       8.54784224       2.85725757       14       0.66344671       0.02079531      -0.00737551
Cs      -0.02819082       5.73396975       5.73563187       15      -0.00145530       0.01934060       0.02760764
Pb       2.85793674       8.68825490       8.62841287       16       0.01128812      -0.61729812      -0.17732412
Cl       2.93184095       8.51934722       5.78572629       17      -0.05435625       0.13021809      -0.42631676
Cl       3.02531559       5.66869708       8.60705462       18      -0.06382909       0.07576725       0.04752436
Cl      11.54035256       8.35934144       8.62768336       19      -0.12292862       0.02631101       0.00381380
Cs       5.81021648      11.30951352      11.51489070       20      -0.05729845       0.07437217      -0.05577758
Pb       8.54049117       2.68615578       2.84476706       21      -0.31259732       0.65968387       0.19086289
Cl       8.41516104       2.95791767      11.40994514       22       0.10905491       0.01132031       0.23263664
Cl       8.65157063      11.38465400       2.83386303       23       0.02525598       0.07928086      -0.03890244
Cl       5.71852732       3.08672114       2.78104130       24       0.41627506      -0.20929304      -0.02832644
Cs       5.68486730      11.35063008       5.74422764       25       0.03106769       0.00358374       0.03108428
Pb       8.67060176       2.90582210       8.66204577       26      -0.52613755      -0.06935352      -0.37702969
Cl       8.45871983       2.93313808       5.70948874       27       0.07912697      -0.12537308      -0.09411753
Cl       8.61858515      11.37382188       8.76630819       28       0.02649468       0.54646341       0.02787537
Cl       5.74444858       2.95881301       8.59578780       29       0.10955567      -0.06947228       0.00025460
K        5.64686898       5.66459489      11.47054164       30      -0.03931136      -0.11213311       0.01281342
Pb       8.62338755       8.49450039       2.67597210       31      -0.53939572      -0.22882115       0.80042101
Cl       8.58713847       8.50959719      11.44039429       32       0.02142556      -0.02403522       0.02469846
Cl       8.35231031       5.71813620       2.88470944       33       0.15491644      -0.14887254      -0.10063448
Cl       5.76347877       8.70033825       2.81328117       34      -0.44028246       0.07826428      -0.06329361
Cs       5.72732711       5.69081541       5.75697831       35       0.01035719      -0.02326335      -0.02037142
Pb       8.51545091       8.57237559       8.63645600       36       0.33277541       0.05978845      -0.55115464
Cl       8.46495974       8.57559657       5.79527866       37       0.07369105       0.09006111      -0.20454408
Cl       8.52283588       5.82220525       8.52813402       38       0.09142370      -0.64387670       0.07731950
Cl       5.79638298       8.46391289       8.60199744       39      -0.24252013       0.08771456       0.09261486
40
Lattice="11.454199425597748 0.0 0.0 0.0 11.454199425597738 0.0 0.0 -1.4558691683968512e-14 11.45419942559772" Properties=species:S:1:pos:R:3:spacegroup_kinds:I:1:forces:R:3 spacegroup="P 1" unit_cell=conventional occupancy="_JSON {\"0\": {\"Cs\": 1.0}, \"1\": {\"Pb\": 1.0}, \"2\": {\"Cl\": 1.0}, \"3\": {\"Cl\": 1.0}, \"4\": {\"Cl\": 1.0}, \"5\": {\"Cs\": 1.0}, \"6\": {\"Pb\": 1.0}, \"7\": {\"Cl\": 1.0}, \"8\": {\"Cl\": 1.0}, \"9\": {\"Cl\": 1.0}, \"10\": {\"Cs\": 1.0}, \"11\": {\"Pb\": 1.0}, \"12\": {\"Cl\": 1.0}, \"13\": {\"Cl\": 1.0}, \"14\": {\"Cl\": 1.0}, \"15\": {\"Cs\": 1.0}, \"16\": {\"Pb\": 1.0}, \"17\": {\"Cl\": 1.0}, \"18\": {\"Cl\": 1.0}, \"19\": {\"Cl\": 1.0}, \"20\": {\"Cs\": 1.0}, \"21\": {\"Pb\": 1.0}, \"22\": {\"Cl\": 1.0}, \"23\": {\"Cl\": 1.0}, \"24\": {\"Cl\": 1.0}, \"25\": {\"Cs\": 1.0}, \"26\": {\"Pb\": 1.0}, \"27\": {\"Cl\": 1.0}, \"28\": {\"Cl\": 1.0}, \"29\": {\"Cl\": 1.0}, \"30\": {\"K\": 1.0}, \"31\": {\"Pb\": 1.0}, \"32\": {\"Cl\": 1.0}, \"33\": {\"Cl\": 1.0}, \"34\": {\"Cl\": 1.0}, \"35\": {\"Cs\": 1.0}, \"36\": {\"Pb\": 1.0}, \"37\": {\"Cl\": 1.0}, \"38\": {\"Cl\": 1.0}, \"39\": {\"Cl\": 1.0}}" candidate_id=c5394b24ea21fbfa formula=FA0.88K0.12PbCl3 config_index=3 rattle_stdev=0.08 method=PBE fidelity=phase2_force energy=-139.8921432267609 stress="-0.00015007277517751529 0.0001959603302257942 3.6833444276539383e-05 0.0001959603302257942 -0.00022208306697305585 0.00010360451919299318 3.6833444276539383e-05 0.00010360451919299318 0.0006427787030733632" pbc="T T T"
Cs      -0.10568348       0.16134023      11.45800458        0       0.03740223       0.08199440       0.05173916
Pb       2.85468554       2.88042905       2.93016386        1      -0.29118180      -0.36026339      -0.84505806
Cl       2.86428750       2.96114101      11.39220597        2       0.03091731      -0.05315306      -0.11391355
Cl       2.99962589      11.43622499       2.73539946        3       0.01280908      -0.23615051       0.04197915
Cl      11.39991661       2.75755473       2.73747243        4       0.12693639       0.04485560       0.06953003
Cs      -0.01794374      11.38615454       5.66664050        5      -0.05967469       0.03046642      -0.03033643
Pb       2.89475290       2.66928379       8.46717627        6      -0.02130725       0.66659560       0.65318242
Cl       2.83029058       2.69148735       5.62496493        7      -0.01254535      -0.04974319       0.41427193
Cl       2.94031920      11.35189271       8.55109633        8       0.01150002       0.54834015      -0.01506923
Cl      11.33400976       2.79206620       8.79566432        9       0.50758040      -0.00728311      -0.06225090
Cs      -0.03814223       5.79883283      11.30980437       10       0.02872625      -0.13525110      -0.01240632
Pb       2.83440207       8.48454046       2.78898285       11       0.13548496       0.38953603       0.00644920
Cl       3.03128086       8.51695880      11.39710371       12      -0.04320814      -0.05685912       0.61194792
Cl       2.90580837       5.67278932       2.92941375       13      -0.03329397       0.31778801       0.03680551
Cl      11.31439360       8.61965240       2.81234102       14       1.22194868      -0.07081517      -0.00102591
Cs      -0.06069585       5.74086182       5.67451643       15      -0.04936322      -0.02176586       0.01796000
Pb       2.91791487       8.61110885       8.57109572       16      -0.20693556      -0.68538317       0.09787198
Cl       3.01348091       8.58431383       5.82402704       17      -0.00930142       0.02043042      -0.68411408
Cl       2.97733382       5.78101940       8.59949060       18      -0.03643702      -0.36430504      -0.08759862
Cl      11.44625226       8.44018084       8.60835180       19      -0.19026521       0.01997031       0.01145729
Cs       5.82300442      11.43296561      11.40205546       20      -0.06359092       0.02496241       0.01624047
Pb       8.42877726       2.75047532       2.82197462       21       0.54209529       0.41192822       0.03628275
Cl       8.50222558       2.97570080      11.50560146       22      -0.05386500      -0.07152110      -0.20112269
Cl       8.75875693      11.44061684       2.75879962       23      -0.09857768      -0.34360615      -0.00039181
Cl       5.69161522       2.98649355       2.84783306       24      -0.25230352      -0.04200210       0.04484775
Cs       5.74939077      11.49596670       5.75250905       25       0.02183410      -0.05333603       0.00326635
Pb       8.59867110       2.84247200       8.54335754       26      -0.16480229      -0.01817537       0.09782589
Cl       8.69049892       2.81819379       5.69839351       27      -0.00890208      -0.01443573       0.09403447
Cl       8.57367418      11.58853719       8.51998213       28      -0.02562715      -1.02537173       0.07756816
Cl       5.69520154       2.88494423       8.69066203       29      -0.28691280      -0.11439968      -0.10676937
K        5.68092014       5.73279950      11.52357583       30      -0.01383834      -0.04884568      -0.04364927
Pb       8.61369291       8.56240141       2.91384793       31      -0.11417780      -0.22837274       0.18261384
Cl       8.55339444       8.50020381      11.50652577       32       0.04170015       0.00776035       0.05684059
Cl       8.46369419       5.61314382       2.94768307       33       0.08521941       0.26577806       0.02778185
Cl       5.96064576       8.48148603       2.74660240       34      -1.21775189       0.01366239      -0.02058760
Cs       5.81153910       5.81875675       5.73674956       35       0.01661645       0.01246466       0.02778786
Pb       8.58149966       8.52453847       8.75090288       36       0.02630034      -0.00031713      -0.40173219
Cl       8.53091736       8.54247129       5.84011906       37       0.01267417       0.01021222      -0.04363780
Cl       8.48309677       5.54577439       8.69434325       38       0.01579251       1.08707041      -0.00427752
Cl       5.68515427       8.55198323       8.73362726       39       0.35963974       0.04060300      -0.00056481
