Cs Sn I  Cs Pb I  Cs Sn I  Cs Sn I  Cs Sn I  Cs Pb I  Cs Sn I  Cs Sn I 
 1.0000000000000000
    13.5300639939358742    0.0000000000000000    0.0000000000000000
     0.0000000000000000   13.5300639939358742    0.0000000000000000
     0.0000000000000000    0.0000000000000000   13.5300639939358742
 Cs  Sn  I   Cs  Pb  I   Cs  Sn  I   Cs  Sn  I   Cs  Sn  I   Cs  Pb  I   Cs  Sn  I   Cs  Sn  I  
   1   1   3   1   1   3   1   1   3   1   1   3   1   1   3   1   1   3   1   1   3   1   1   3
Cartesian
  0.0000000000000000  0.0000000000000000  0.0000000000000000
  3.3825159984839686  3.3825159984839686  3.3825159984839686
  3.3825159984839686  3.3825159984839686  0.0000000000000000
  3.3825159984839686  0.0000000000000000  3.3825159984839686
  0.0000000000000000  3.3825159984839686  3.3825159984839686
  0.0000000000000000  0.0000000000000000  6.7650319969679362
  3.3825159984839686  3.3825159984839686 10.1475479954519052
  3.3825159984839686  3.3825159984839686  6.7650319969679362
  3.3825159984839686  0.0000000000000000 10.1475479954519052
  0.0000000000000000  3.3825159984839686 10.1475479954519052
  0.0000000000000000  6.7650319969679362  0.0000000000000000
  3.3825159984839686 10.1475479954519052  3.3825159984839686
  3.3825159984839686 10.1475479954519052  0.0000000000000000
  3.3825159984839686  6.7650319969679362  3.3825159984839686
  0.0000000000000000 10.1475479954519052  3.3825159984839686
  0.0000000000000000  6.7650319969679362  6.7650319969679362
  3.3825159984839686 10.1475479954519052 10.1475479954519052
  3.3825159984839686 10.1475479954519052  6.7650319969679362
  3.3825159984839686  6.7650319969679362 10.1475479954519052
  0.0000000000000000 10.1475479954519052 10.1475479954519052
  6.7650319969679362  0.0000000000000000  0.0000000000000000
 10.1475479954519052  3.3825159984839686  3.3825159984839686
 10.1475479954519052  3.3825159984839686  0.0000000000000000
 10.1475479954519052  0.0000000000000000  3.3825159984839686
  6.7650319969679362  3.3825159984839686  3.3825159984839686
  6.7650319969679362  0.0000000000000000  6.7650319969679362
 10.1475479954519052  3.3825159984839686 10.1475479954519052
 10.1475479954519052  3.3825159984839686  6.7650319969679362
 10.1475479954519052  0.0000000000000000 10.1475479954519052
  6.7650319969679362  3.3825159984839686 10.1475479954519052
  6.7650319969679362  6.7650319969679362  0.0000000000000000
 10.1475479954519052 10.1475479954519052  3.3825159984839686
 10.1475479954519052 10.1475479954519052  0.0000000000000000
 10.1475479954519052  6.7650319969679362  3.3825159984839686
  6.7650319969679362 10.1475479954519052  3.3825159984839686
  6.7650319969679362  6.7650319969679362  6.7650319969679362
 10.1475479954519052 10.1475479954519052 10.1475479954519052
 10.1475479954519052 10.1475479954519052  6.7650319969679362
 10.1475479954519052  6.7650319969679362 10.1475479954519052
  6.7650319969679362 10.1475479954519052 10.1475479954519052
