40
Lattice="11.687289934590657 0.0 0.0 0.0 11.690081983853865 0.0 0.0 1.629012888804116e-14 11.690081983853847" Properties=species:S:1:pos:R:3:spacegroup_kinds:I:1:forces:R:3 spacegroup="P 1" unit_cell=conventional candidate_id=55912a8be384adc3 formula=FA0.27K0.73SnBr3 config_index=0 rattle_stdev=0.0 method=PBE fidelity=phase2_force energy=-126.03763448492373 stress="0.0004264306538982531 0.0 0.0 0.0 0.0003764476611895387 -5.245798043887264e-19 0.0 -5.245798043887264e-19 0.0003764476611934428" pbc="T T T"
K       11.68728993      11.69008198      11.69008198        0      -0.00000000       0.00000000       0.00000000
Sn       2.92182248       2.94068823       2.90435277        1       0.00000000       0.00674957      -0.00674957
Br       2.92182248       2.97931525      11.69008198        2       0.00000000      -0.00174873       0.00000000
Br       2.92182248      11.69008198       2.81056308        3       0.00000000       0.00000000       0.01318617
Br      11.68728993       2.99851343       2.84652756        4       0.00000000      -0.01144208       0.01144208
Cs       0.00000000       0.00000000       5.84504099        5       0.00000000      -0.00000000       0.00000000
Sn       2.92182248       2.94068823       8.78572922        6       0.00000000       0.00674957       0.00674957
Br       2.92182248       3.03447791       5.84504099        7       0.00000000      -0.01318617       0.00000000
Br       2.92182248      11.69008198       8.87951890        8       0.00000000      -0.00000000      -0.01318617
Br      11.68728993       2.99851343       8.84355442        9       0.00000000      -0.01144208      -0.01144208
K       11.68728993       5.84504099      11.69008198       10       0.00000000       0.00000000       0.00000000
Sn       2.92182248       8.74939376       2.90435277       11       0.00000000      -0.00674957      -0.00674957
Br       2.92182248       8.71076674      11.69008198       12       0.00000000       0.00174873       0.00000000
Br       2.92182248       5.84504099       2.86572575       13       0.00000000       0.00000000       0.00174873
Br      11.68728993       8.69156855       2.84652756       14       0.00000000       0.01144208       0.01144208
K       11.68728993       5.84504099       5.84504099       15      -0.00000000       0.00000000       0.00000000
Sn       2.92182248       8.74939376       8.78572922       16       0.00000000      -0.00674957       0.00674957
Br       2.92182248       8.65560407       5.84504099       17       0.00000000       0.01318617       0.00000000
Br       2.92182248       5.84504099       8.82435624       18       0.00000000      -0.00000000      -0.00174873
Br      11.68728993       8.69156855       8.84355442       19       0.00000000       0.01144208      -0.01144208
K        5.84364497      11.69008198      11.69008198       20       0.00000000       0.00000000       0.00000000
Sn       8.76546745       2.94068823       2.90435277       21      -0.00000000       0.00674957      -0.00674957
Br       8.76546745       2.97931525      11.69008198       22      -0.00000000      -0.00174873       0.00000000
Br       8.76546745      11.69008198       2.81056308       23      -0.00000000       0.00000000       0.01318617
Br       5.84364497       2.99851343       2.84652756       24      -0.00000000      -0.01144208       0.01144208
Cs       5.84364497       0.00000000       5.84504099       25       0.00000000      -0.00000000       0.00000000
Sn       8.76546745       2.94068823       8.78572922       26      -0.00000000       0.00674957       0.00674957
Br       8.76546745       3.03447791       5.84504099       27      -0.00000000      -0.01318617       0.00000000
Br       8.76546745      11.69008198       8.87951890       28      -0.00000000      -0.00000000      -0.01318617
Br       5.84364497       2.99851343       8.84355442       29      -0.00000000      -0.01144208      -0.01144208
K        5.84364497       5.84504099      11.69008198       30       0.00000000      -0.00000000       0.00000000
Sn       8.76546745       8.74939376       2.90435277       31      -0.00000000      -0.00674957      -0.00674957
Br       8.76546745       8.71076674      11.69008198       32      -0.00000000       0.00174873       0.00000000
Br       8.76546745       5.84504099       2.86572575       33      -0.00000000       0.00000000       0.00174873
Br       5.84364497       8.69156855       2.84652756       34       0.00000000       0.01144208       0.01144208
K        5.84364497       5.84504099       5.84504099       35       0.00000000       0.00000000       0.00000000
Sn       8.76546745       8.74939376       8.78572922       36      -0.00000000      -0.00674957       0.00674957
Br       8.76546745       8.65560407       5.84504099       37      -0.00000000       0.01318617       0.00000000
Br       8.76546745       5.84504099       8.82435624       38      -0.00000000      -0.00000000      -0.00174873
Br       5.84364497       8.69156855       8.84355442       39      -0.00000000       0.01144208      -0.01144208
40
Lattice="11.687289934590657 0.0 0.0 0.0 11.690081983853865 0.0 0.0 1.629012888804116e-14 11.690081983853847" Properties=species:S:1:pos:R:3:spacegroup_kinds:I:1:forces:R:3 spacegroup="P 1" unit_cell=conventional candidate_id=55912a8be384adc3 formula=FA0.27K0.73SnBr3 config_index=1 rattle_stdev=0.08 method=PBE fidelity=phase2_force energy=-125.4321731215804 stress="-0.0018483779228873863 8.762043539028748e-05 -3.2937786256430886e-06 8.762043539028748e-05 -0.0008676309752459197 -0.00017296406931175694 -3.2937786256430886e-06 -0.00017296406931175694 -0.0023605763439939393" pbc="T T T"
K       11.60037422      11.61839677      11.66557803        0      -0.07228208       0.01448488       0.03315803
Sn       2.81462779       2.84416138       2.85301462        1       0.35406454       0.35891282       0.20258732
Br       3.02645813       3.12695208      11.75641118        2      -0.07543109      -0.06388382      -0.00855264
Br       2.91995858      11.67339687       2.73723350        3      -0.03259738       0.03254777      -0.04110081
Br      11.60131053       2.99162195       2.94059464        4       0.52796696      -0.02206104       0.01638534
Cs      -0.13080734       0.09825552       5.93115189        5       0.06311002       0.04952758      -0.06395774
Sn       2.95340431       2.90967216       8.83280136        6       0.09736651       0.01083772      -0.16226948
Br       2.80715858       3.00859194       5.94527977        7       0.04144030      -0.00068241      -0.13059411
Br       2.86336308      11.80436079       8.95509121        8      -0.01262364      -0.45187031      -0.02168771
Br      11.66616971       2.98545637       8.76642584        9       0.09820978      -0.00048421      -0.00492064
K       11.65987815       5.84895331      11.65011143       10      -0.00287771      -0.03846510       0.02450292
Sn       2.74487012       8.77418071       2.77718066       11       0.89809351      -0.29809802      -0.07925360
Br       2.98017885       8.70213464      11.63806826       12      -0.06519124       0.03641937      -0.00647639
Br       2.78637796       5.81556307       2.73849601       13      -0.02909439       0.02790911       0.07171610
Br      11.80573040       8.72952377       2.91963667       14      -0.87681265       0.02406666       0.02310869
K       11.76412755       5.85180440       5.98241947       15       0.04685198      -0.06246376       0.01614035
Sn       2.98997390       8.68900293       8.60271887       16       0.27254449       0.07169411       0.37711949
Br       2.93056158       8.61959142       5.81200320       17      -0.01468754      -0.04806210      -0.07225320
Br       2.94734118       5.80175236       8.90024956       18      -0.02047900       0.45325732      -0.09473525
Br      11.69940474       8.69772075       8.83880239       19       0.32229394       0.01364144      -0.06465184
K        5.83803387      11.64479006      11.71496241       20       0.02191638       0.01129002       0.02888388
Sn       8.82340416       2.98200423       2.98643522       21      -0.51797756      -0.28036879      -0.59061999
Br       8.80707966       2.90972816      11.81012720       22       0.08231237       0.02343902      -0.41878204
Br       8.85878522      11.72943514       2.75198210       23      -0.00039026      -0.11948340       0.11642088
Br       5.89806946       3.03923318       2.77952466       24      -0.33941663      -0.02948783       0.08500192
Cs       5.89545656       0.00100316       5.96980812       25      -0.03888409       0.01539978      -0.04573226
Sn       8.84823508       2.96770364       8.68152038       26      -0.25086621       0.29897104       0.40404347
Br       8.67598391       3.13923912       5.80358363       27      -0.00086536      -0.04847687       0.47661104
Br       8.73401751      11.77351946       8.88549612       28       0.07589436      -0.17197936      -0.11769061
Br       5.85079993       3.00282602       8.87703018       29      -0.03163514      -0.02629906      -0.05170137
K        5.74542656       5.75787767      11.71545193       30      -0.03114031      -0.05518521       0.04944408
Sn       8.70303501       8.68090328       2.79876305       31      -0.21922123       0.26762542       0.19314586
Br       8.80176998       8.79090873      11.80318076       32       0.02637376       0.00958040      -0.29229164
Br       8.75025282       5.84744984       2.71585241       33       0.04119509       0.11867115      -0.01377965
Br       5.83430281       8.68136932       2.91870230       34       0.30890442       0.00216859      -0.00833847
K        5.73849519       5.83707693       5.85628498       35      -0.01245092      -0.01635286      -0.01476084
Sn       8.97577193       8.88985607       8.57487739       36      -0.65701338      -0.34898024       0.93054844
Br       8.66253589       8.64186630       5.98907729       37       0.06072065       0.04726120      -0.78374167
Br       8.81416310       5.84756304       8.70704326       38       0.06423085       0.17356712       0.03124958
Br       5.86840023       8.78294598       8.80268689       39      -0.10049882       0.01380540      -0.04032387
40
Lattice="11.687289934590657 0.0 0.0 0.0 11.690081983853865 0.0 0.0 1.629012888804116e-14 11.690081983853847" Properties=species:S:1:pos:R:3:spacegroup_kinds:I:1:forces:R:3 spacegroup="P 1" unit_cell=conventional candidate_id=55912a8be384adc3 formula=FA0.27K0.73SnBr3 config_index=2 rattle_stdev=0.08 method=PBE fidelity=phase2_force energy=-125.46339777335956 stress="-0.0011617599850137121 -6.168701160494139e-07 -4.712252955765363e-05 -6.168701160494139e-07 -0.0013452852785730822 -5.983653916137478e-05 -4.712252955765363e-05 -5.983653916137478e-05 -0.0007903103922791081" pbc="T T T"
K       11.67827289      11.60395687      11.83288414        0       0.02520727      -0.03282079      -0.04265913
Sn       2.80526382       2.91458256       2.80356105        1       0.81822120       0.28685484       0.19882318
Br       2.95189180       2.90906346      11.66208392        2      -0.08657071       0.07720397      -0.00509645
Br       2.94555530      11.78615494       2.68504346        3      -0.05984754      -0.61423764       0.02463042
Br      11.83561223       3.03803038       2.83607065        4      -0.97603239       0.00876795      -0.05859264
Cs      -0.03224966      -0.07789298       5.80764365        5      -0.01662454      -0.01151012       0.07062881
Sn       2.86438877       3.03839969       8.72355322        6       0.45688753      -0.10272710      -0.08430926
Br       2.87474043       3.02986840       5.85140738        7      -0.01900452      -0.09315360      -0.03454979
Br       2.82716640      11.56618259       8.95249940        8      -0.02512756       0.40513412      -0.02467754
Br      11.72030359       2.94285191       8.66045267        9      -0.13733585       0.05583391       0.03577400
K       11.62431061       5.76275966      11.69754663       10       0.01918244       0.03779802      -0.03211758
Sn       2.87948695       8.81181335       2.88828759       11       0.27806210      -0.28209384       0.06501630
Br       2.88337380       8.62794577      11.64986323       12       0.01494207      -0.03762651       0.42944895
Br       2.98501370       5.77104118       3.04252857       13      -0.04791188       0.54438536      -0.07308874
Br      11.57527104       8.67244076       2.86391481       14       0.59797685       0.00933184       0.00863481
K       11.65909911       5.85191103       5.85357315       15      -0.00225969       0.01538881       0.03659412
Sn       2.90605999       8.85714847       8.81334314       16      -0.08069596      -0.40500322      -0.15090061
Br       2.96643404       8.60798126       5.90366757       17      -0.04357509       0.12942592      -0.32883531
Br       3.02832270       5.78663836       8.78549577       18      -0.02845855      -0.02476550       0.03152276
Br      11.77344307       8.48393996       8.85690868       19      -0.06734043       0.03168913      -0.03981771
K        5.92676174      11.54539608      11.75077326       20      -0.01513668       0.00784083      -0.00525417
Sn       8.72545843       2.75314477       2.89571935       21      -0.30861099       0.54193645       0.18208281
Br       8.64524444       3.01841754      11.64582770       22       0.09737089       0.04086300       0.20401718
Br       8.85006805      11.62053656       2.80455579       23       0.01861114       0.11464432      -0.03688466
Br       5.83507257       3.16641919       2.81928453       24       0.42401972      -0.20012851       0.00244548
Cs       5.80141256      -0.10356935       5.86216891       25       0.02395204       0.01408798       0.02417498
Sn       8.85556902       2.97281109       8.84697604       26      -0.48181435      -0.06719681      -0.31824228
Br       8.65721725       3.08038659       5.82743002       27       0.05056389      -0.12223469      -0.10777503
Br       8.81708257      11.60970444       9.03149799       28       0.01041201       0.46197375       0.00778240
Br       5.86099383       3.03851106       8.79342714       29       0.08635572      -0.05667560      -0.02203049
K        5.76341423       5.78253617      11.70642420       30      -0.03099087      -0.08218778       0.01309649
Sn       8.80835481       8.66339396       2.72692439       31      -0.46490474      -0.23269925       0.67322998
Br       8.81722187       8.68497987      11.67627685       32       0.01134925      -0.04189843       0.03992212
Br       8.58239371       5.83607748       2.94215085       33       0.11403494      -0.09370177      -0.07559896
Br       5.88002402       8.85652275       2.85152440       34      -0.42153608       0.09274433      -0.08530045
K        5.84387236       5.80875669       5.87491959       35       0.01931318      -0.03919566      -0.00847107
Sn       8.70041817       8.74126916       8.82138627       36       0.23744126       0.07565464      -0.55288021
Br       8.66345716       8.66423062       5.91321994       37       0.05694082       0.10505542      -0.12033419
Br       8.75291928       5.94014653       8.70657517       38       0.06364710      -0.58759136       0.06532565
Br       5.91292823       8.62009739       8.79963677       39      -0.13298767       0.08191610       0.08035450
40
Lattice="11.687289934590657 0.0 0.0 0.0 11.690081983853865 0.0 0.0 1.629012888804116e-14 11.690081983853847" Properties=species:S:1:pos:R:3:spacegroup_kinds:I:1:forces:R:3 spacegroup="P 1" unit_cell=conventional candidate_id=55912a8be384adc3 formula=FA0.27K0.73SnBr3 config_index=3 rattle_stdev=0.08 method=PBE fidelity=phase2_force energy=-125.30454171345376 stress="-0.0011519057121701394 0.00019041676259120018 3.465518161741791e-05 0.00019041676259120018 -0.0012702221151437774 7.405680823614209e-05 3.465518161741791e-05 7.405680823614209e-05 -0.0005518798560139508" pbc="T T T"
K       11.58160645      11.85142221      11.69388714        0      -0.00247203       0.14047922       0.06123210
Sn       2.90280879       2.94741804       2.98111615        1      -0.29615717      -0.36900334      -0.75499459
Br       2.86729460       3.02164088      11.62808853        2       0.04613832      -0.02712373      -0.13785342
Br       3.03421898      11.67210755       2.70609223        3       0.02820520      -0.16278586       0.04612800
Br      11.63300712       2.86883877       2.74412968        4       0.10621924       0.01392533       0.06228346
Cs      -0.01794374      -0.06804488       5.78458178        5      -0.03664522       0.01987205      -0.02760847
Sn       2.94287615       2.73627278       8.65210654        6       0.02250140       0.56303944       0.63743823
Br       2.86488367       2.83873586       5.74290621        7      -0.01834817      -0.04510124       0.34209726
Br       2.97491229      11.58777527       8.81628612        8       0.00316865       0.52270897      -0.01192567
Br      11.56710027       2.90335023       9.02488964        9       0.38600485      -0.03172674      -0.04161738
K       11.64914771       5.91677411      11.54568692       10       0.01465220      -0.08142266      -0.06215181
Sn       2.88252531       8.65343403       2.83993514       11       0.08417183       0.35340835      -0.01702370
Br       3.03428797       8.69234149      11.63298626       12      -0.03886294      -0.06875130       0.55489189
Br       2.90881548       5.79073060       2.98685516       13      -0.03294133       0.24736448       0.03847684
Br      11.54748411       8.74425092       2.81899826       14       1.15190098      -0.07561442       0.00931512
K       11.62659408       5.85880309       5.79245771       15      -0.06007335       0.00490541      -0.00140238
Sn       2.96603812       8.78000242       8.75602599       16      -0.13550569      -0.66864802       0.00783775
Br       3.04807400       8.67294787       5.94196832       17       0.00691920       0.03527510      -0.52630774
Br       2.98034093       5.89896068       8.77793175       18      -0.01194008      -0.31262489      -0.07230148
Br      11.67934277       8.56477936       8.83757711       19      -0.17006260       0.00388964       0.00576800
K        5.93954968      11.66884817      11.63793801       20      -0.03792370       0.00731286      -0.00199729
Sn       8.61374452       2.81746431       2.87292691       21       0.48847730       0.35141341       0.00034440
Br       8.73230898       3.03620067      11.74148402       22      -0.08446981      -0.06330608      -0.14291218
Br       8.95725436      11.67649940       2.72949239       23      -0.09894856      -0.28385191      -0.00879849
Br       5.80816047       3.06619161       2.88607628       24      -0.18037484      -0.04475275       0.04600227
Cs       5.86593603       0.04176727       5.87045033       25       0.01636536      -0.04530616      -0.00517475
Sn       8.78363836       2.90946099       8.72828781       26      -0.09253865      -0.05664507       0.03947234
Br       8.88899634       2.96544230       5.81633478       27       0.00485047      -0.03632763       0.14698334
Br       8.77217160      11.82441975       8.78517192       28      -0.01466071      -0.89904473       0.06853255
Br       5.81174680       2.96464229       8.88830137       29      -0.28839302      -0.10837947      -0.09527245
K        5.79746539       5.85074078      11.75945839       30      -0.01920852      -0.03403035      -0.03439574
Sn       8.79866017       8.73129498       2.96480022       31      -0.17312555      -0.21359456       0.20430551
Br       8.78347784       8.67558650      11.74240833       32       0.03906404      -0.01149413       0.06927004
Br       8.69377759       5.73108510       3.00512448       33       0.07099805       0.24927398       0.03675958
Br       6.07719102       8.63767053       2.78484562       34      -1.06032224       0.02543117      -0.00181966
K        5.92808435       5.93669803       5.85469084       35       0.04485618       0.05721970       0.00462499
Sn       8.76646692       8.69343204       8.93583315       36       0.07104599      -0.01977786      -0.36381830
Br       8.72941478       8.63110533       5.95806034       37       0.00378597       0.00840095      -0.07016172
Br       8.71318017       5.66371567       8.87278439       38       0.00080725       1.00283316      -0.00241377
Br       5.80169953       8.70816773       8.93126659       39       0.25493098       0.04080789      -0.00600126
