40
Lattice="11.9938269555308 0.0 0.0 0.0003315566838894441 11.99382695094802 0.0 -5.2350580397654625e-05 5.235202759299053e-05 11.992892836053372" Properties=species:S:1:pos:R:3:spacegroup_kinds:I:1:forces:R:3 spacegroup="P 1" unit_cell=conventional candidate_id=30b46d8f615ac0c3 formula=FAPbBr0.88Cl0.123 config_index=0 rattle_stdev=0.0 method=PBE fidelity=phase2_force energy=-129.3934189772913 stress="0.0022338168493478442 -5.399990090909358e-06 1.056434681379422e-05 -5.399990090909358e-06 0.0022338171479019003 -1.0564638858045215e-05 1.056434681379422e-05 -1.0564638858045215e-05 0.0022366658377199746" pbc="T T T"
Cs      11.98096313       0.01286418       0.04545581        0       0.00469617      -0.00469630      -0.01315857
Pb       3.10573912       3.00777310       2.99246965        1      -0.01223605      -0.00164905       0.00021968
Br       3.04572938       2.99732644       0.00263781        2       0.00346242      -0.00195514       0.01986420
Br       3.04502078       0.00143159       2.94875108        3       0.00372702      -0.00278052      -0.00204792
Br      11.98378318       3.05544943       2.99876515        4      -0.01503284       0.00129163       0.00142032
Cs       0.00249138      11.99166706       5.95075563        5       0.00118199      -0.00118203       0.01199989
Pb       3.00481938       2.99791499       9.00041616        6       0.00129359      -0.00350725      -0.00003864
Br       3.04526166       2.99741899       5.99403120        7       0.00345285      -0.00170563      -0.02002224
Br       2.99704366       0.00030606       9.04438004        8      -0.00211306      -0.01303032       0.00424301
Br       0.00024039       2.99739031       8.99406133        9      -0.00058363      -0.00185000      -0.00155731
Cs      11.99294422       5.98223482       0.03495793       10       0.00159191       0.00334695      -0.00993347
Pb       3.00311404       8.99096145       2.91091396       11      -0.00169311       0.00169315       0.00806054
Cl       2.99865479       8.99542083       0.00299781       12      -0.00203009       0.00203014       0.01152502
Br       3.04564285       5.99687087       2.94839237       13       0.00090327       0.00554169      -0.00205621
Br      11.99264274       8.94880621       2.94875108       14       0.00278042      -0.00372710      -0.00204792
Cs       0.01422891       5.99715455       5.96145790       15      -0.00186243      -0.00022520       0.00867919
Pb       2.99820752       8.99586811       9.08458928       16      -0.00350507       0.00350516      -0.00784316
Br       2.99767039       8.99640526       5.99310849       17      -0.00183391       0.00183397      -0.01106952
Br       2.99722558       5.99665066       9.04437787       18      -0.00277888       0.01254566       0.00352229
Br      11.99376960       8.99678330       9.04438004       19       0.01303037       0.00211270       0.00424301
Cs       6.01159216       0.00104811       0.03495793       20      -0.00334699      -0.00159181      -0.00993347
Pb       8.92915445       3.06475723       2.99953648       21      -0.00157142       0.00157147       0.00396139
Br       8.94656231       3.04734888       0.00255677       22      -0.00318331       0.00318340       0.03119213
Br       8.93837781       0.01012824       2.99876515       23      -0.00129122       0.01503288       0.00142032
Cl       5.98551796       3.06089304       2.99751704       24       0.01719028       0.00150863       0.00139214
Cs       5.99700357      11.97976382       5.96145790       25       0.00022525       0.00186243       0.00867919
Pb       8.99033783       3.00357215       8.99345671       26       0.00128317      -0.00128320      -0.00407248
Br       8.94650873       3.04740246       5.99379311       27      -0.00421033       0.00421045      -0.03148819
Br       8.99676820      11.99366942       8.99406133       28       0.00185002       0.00058358      -0.00155731
Br       5.99730610       2.99710533       8.99398912       29       0.00102100      -0.00243761      -0.00178018
Cs       6.00303217       5.99096039       0.03101040       30       0.00170244      -0.00170249      -0.00240181
Pb       8.98629956       8.88817098       2.99246965       31       0.00164939       0.01223600       0.00021968
Br       8.99674788       8.94818043       0.00263781       32       0.00195504      -0.00346248       0.01986420
Cl       8.93310001       6.00839360       2.99751704       33      -0.00150911      -0.01719024       0.00139214
Br       5.99720345       8.94834988       2.94839237       34      -0.00554172      -0.00090312      -0.00205621
Cs       5.98799492       6.00599806       5.96570161       35       0.00528785      -0.00528800       0.00092866
Pb       8.99616046       8.98909045       9.00041616       36       0.00350722      -0.00129369      -0.00003864
Br       8.99665534       8.94864816       5.99403120       37       0.00170554      -0.00345289      -0.02002224
Br       8.99688739       5.99660370       8.99398912       38       0.00243758      -0.00102106      -0.00178018
Br       5.99742500       8.99676714       9.04437787       39      -0.01254558       0.00277923       0.00352229
40
Lattice="11.9938269555308 0.0 0.0 0.0003315566838894441 11.99382695094802 0.0 -5.2350580397654625e-05 5.235202759299053e-05 11.992892836053372" Properties=species:S:1:pos:R:3:spacegroup_kinds:I:1:forces:R:3 spacegroup="P 1" unit_cell=conventional candidate_id=30b46d8f615ac0c3 formula=FAPbBr0.88Cl0.123 config_index=1 rattle_stdev=0.08 method=PBE fidelity=phase2_force energy=-128.75968300057133 stress="0.00022180907744305094 -1.9644950763895597e-06 -4.453271665573556e-05 -1.9644950763895597e-06 0.0010547518165481761 -0.0001391052485017776 -4.453271665573556e-05 -0.0001391052485017776 -0.0005290002954507454" pbc="T T T"
Cs      11.89404742      -0.05882103       0.02095186        0      -0.03860994       0.03739256       0.02303154
Pb       2.99854442       2.91124626       2.94113151        1       0.26156504       0.34370579       0.25340012
Br       3.15036503       3.14496327       0.06896701        2      -0.06478997      -0.06311293      -0.03103361
Br       3.04315687      -0.01525352       2.87542150        3      -0.01519923       0.01916970      -0.02156694
Br      11.89780377       3.04855795       3.09283223        4       0.46011853      -0.00974533       0.01327897
Cs      -0.12831595      12.08992258       6.03686654        5       0.05007149       0.05042725      -0.04632991
Pb       3.03640121       2.96689892       9.04748830        6       0.08392762       0.05237093      -0.13094538
Br       2.93059775       2.97153302       6.09426997        7       0.03595325       0.01367896      -0.20254868
Br       2.93858425       0.11458487       9.11995235        8      -0.01950286      -0.54015056       0.00634447
Br      -0.02087983       2.98433325       8.91693275        9       0.11198737       0.00168864       0.00226827
Cs      11.96553244       5.98614714      -0.00501262       10      -0.01857439      -0.03661553       0.01965752
Pb       2.82616168       9.01574840       2.78374185       11       0.92703757      -0.28766461      -0.11382890
Cl       3.05701116       8.98678873      -0.04901591       12      -0.08960089       0.02279817       0.00033214
Br       2.91019833       5.96739295       2.82116264       13      -0.01500728       0.02430205       0.06113678
Br      12.11108321       8.98676143       3.02186019       14      -0.89155441       0.00644829       0.03939071
Cs       0.09106653       6.00391796       6.09883637       15       0.02657510      -0.05001736      -0.01733320
Pb       3.06635894       8.93547729       8.90157894       16       0.23598366       0.11705262       0.23493880
Br       3.00640949       8.96039261       5.96007070       17      -0.01665287      -0.02061327       0.01935192
Br       3.02274428       5.95336203       9.12027119       18      -0.03032639       0.39804131      -0.05905018
Br      12.00588440       9.00293549       9.03962801       19       0.38576792       0.01135898      -0.01965675
Cs       6.00598107      -0.04424382       0.05983836       20       0.02321694       0.02060818       0.02046666
Pb       8.98709115       3.10607323       3.08161894       21      -0.42441358      -0.17849536      -0.58579667
Br       8.98817452       2.97776180       0.12260198       22       0.05654200       0.03176930      -0.40741873
Br       9.03169558       0.04948140       2.94018417       23      -0.00221421      -0.11521292       0.11545749
Cl       6.03994245       3.10161279       2.93051415       24      -0.29809023      -0.01614571       0.07635312
Cs       6.04881516      11.98076698       6.08622502       25      -0.02918600       0.01000207      -0.02566989
Pb       9.07310546       3.03058757       8.88924787       26      -0.25071196       0.28060919       0.40210374
Br       8.85702519       3.15216367       5.95233575       27      -0.01305111      -0.03828446       0.44932597
Br       8.96531825      12.07710690       9.00003855       28       0.05263242      -0.17092473      -0.08086587
Br       6.00446107       3.00141792       9.02746488       29      -0.00083143      -0.01301516      -0.03348564
Cs       5.90481377       5.90379707       0.05638035       30       0.03255605      -0.01649162       0.04812558
Pb       8.92386711       8.81968050       2.88687994       31      -0.14688782       0.19490286       0.24279883
Br       9.03305041       9.02832242       0.11573658       32       0.02980810      -0.01265686      -0.31673935
Cl       8.91788538       6.01080245       2.84764371       33       0.03667925       0.10255922       0.01197104
Br       5.98786130       8.93815065       3.02056712       34       0.20473130      -0.01805951      -0.00142048
Cs       5.88284515       5.99803400       5.97694560       35       0.00290366      -0.02541452      -0.02581338
Pb       9.20646494       9.12955275       8.78956434       36      -0.62622414      -0.30872312       1.02404567
Br       8.89372378       8.93491038       6.13806750       37       0.01526733       0.02154888      -0.96596192
Br       9.04558304       5.99912575       8.87667614       38       0.05035824       0.16498665       0.03410331
Br       6.02218026       9.08814457       9.00351034       39      -0.09148571       0.00479435      -0.01314207
40
Lattice="11.9938269555308 0.0 0.0 0.0003315566838894441 11.99382695094802 0.0 -5.2350580397654625e-05 5.235202759299053e-05 11.992892836053372" Properties=species:S:1:pos:R:3:spacegroup_kinds:I:1:forces:R:3 spacegroup="P 1" unit_cell=conventional candidate_id=30b46d8f615ac0c3 formula=FAPbBr0.88Cl0.123 config_index=2 rattle_stdev=0.08 method=PBE fidelity=phase2_force energy=-128.81326777868622 stress="0.001183820117941719 1.4366769458585635e-06 1.6527433781001136e-05 1.4366769458585635e-06 0.0005656283215098839 -5.776225327505699e-05 1.6527433781001136e-05 -5.776225327505699e-05 0.0012347580517194363" pbc="T T T"
Cs      11.97194609      -0.07326094       0.18825797        0       0.03321797      -0.00955548      -0.10008054
Pb       2.98918045       2.98166744       2.89167793        1       0.48301465       0.33708330       0.21552906
Br       3.07579870       2.92707465      -0.02536025        2      -0.05640050       0.04882176      -0.03625134
Br       3.06875359       0.09750455       2.82323146        3      -0.03564514      -0.66399079       0.02628843
Br      12.13210548       3.09496637       2.98830823        4      -0.65619570      -0.01943768      -0.04995124
Cs      -0.02975828      11.91377408       5.91335829        5      -0.01012430      -0.00968849       0.08654994
Pb       2.94738566       3.09562645       8.93824016        6       0.42557719      -0.14828060      -0.02394684
Br       2.99817960       2.99280949       6.00039759        7      -0.00074380      -0.08407035      -0.09436795
Br       2.90238758      -0.12359333       9.11736054        8      -0.01171994       0.54033676       0.00455122
Br       0.03325405       2.94172879       8.81095958        9      -0.17432858       0.02953488       0.03543584
Cs      11.92996490       5.89995348       0.04242258       10       0.04654017       0.03552897      -0.04891786
Pb       2.96077851       9.05338104       2.89484878       11       0.27120914      -0.27663026       0.08617768
Cl       2.96020611       8.91259986      -0.03722094       12      -0.00042405       0.01568796       0.41388203
Br       3.10883406       5.92287106       3.12519520       13      -0.05325559       0.54039846      -0.08915145
Br      11.88062385       8.92967842       2.96613834       14       0.59775534       0.01411227       0.00588561
Cs      -0.01396191       6.00402459       5.96999005       15      -0.00055704       0.01275499       0.03894278
Pb       2.98244502       9.10362282       9.11220320       16      -0.01344608      -0.50717609      -0.12669045
Br       3.04228194       8.94878244       6.05173507       17      -0.04496218       0.10868841      -0.34478810
Br       3.10372580       5.93824803       9.00551741       18      -0.04062865       0.04637902       0.03826975
Br      12.07992274       8.78915471       9.05773430       19      -0.12416246       0.00739088       0.00817737
Cs       6.09470894      -0.14363780       0.09564921       20      -0.03844316       0.04316545      -0.06197264
Pb       8.88914542       2.87721378       2.99090307       21      -0.28795176       0.41446450       0.19479401
Br       8.82633930       3.08645117      -0.04169751       22       0.07695650       0.02293999       0.22269148
Br       9.02297841      -0.05941719       2.99275786       23       0.01108984       0.12486856      -0.02985628
Cl       5.97694557       3.22879880       2.97027401       24       0.39135561      -0.17844890      -0.03654502
Cs       5.95477116      11.87619448       5.97858582       25       0.01857391       0.00292360       0.04511105
Pb       9.08043940       3.03569502       9.05470353       26      -0.41070670      -0.06447586      -0.31408265
Br       8.83825854       3.09331114       5.97618214       27       0.05629761      -0.08957885      -0.11509299
Br       9.04838332      11.91329187       9.14604042       28       0.02807369       0.48479094       0.02204529
Br       6.01465497       3.03710296       8.94386183       29       0.08037680      -0.05378200       0.00861529
Cs       5.92280144       5.92845558       0.04735262       30      -0.02540467      -0.05677570       0.01862449
Pb       9.02918692       8.80217118       2.81504127       31      -0.49072906      -0.21912968       0.68540061
Br       9.04850230       8.92239357      -0.01116732       32       0.01578559      -0.03418932       0.04514787
Cl       8.75002627       5.99943010       3.07394215       33       0.13010097      -0.04231731      -0.12220139
Br       6.03358251       9.11330408       2.95338921       34      -0.38973574       0.04467830      -0.06821018
Cs       5.98822232       5.96971375       5.99558021       35       0.02198388      -0.03315220      -0.02571336
Pb       8.93111118       8.98096584       9.03607322       36       0.27889517       0.07680309      -0.47302433
Br       8.89464504       8.95727470       6.06221015       37       0.06309835       0.07710280      -0.20467208
Br       8.98433923       6.09170924       8.87620805       38       0.06225750      -0.58841577       0.06922217
Br       6.06670826       8.92529598       9.00046022       39      -0.21483479       0.05720140       0.08152121
40
Lattice="11.9938269555308 0.0 0.0 0.0003315566838894441 11.99382695094802 0.0 -5.2350580397654625e-05 5.235202759299053e-05 11.992892836053372" Properties=species:S:1:pos:R:3:spacegroup_kinds:I:1:forces:R:3 spacegroup="P 1" unit_cell=conventional candidate_id=30b46d8f615ac0c3 formula=FAPbBr0.88Cl0.123 config_index=3 rattle_stdev=0.08 method=PBE fidelity=phase2_force energy=-128.656108679973 stress="0.0006359942406237158 0.00011826879575633944 3.863254674967005e-05 0.00011826879575633944 0.000566326483231612 9.057181268042312e-05 3.863254674967005e-05 9.057181268042312e-05 0.0013241996963223761" pbc="T T T"
Cs      11.87527965       0.17420441       0.04926097        0       0.03128924       0.07384171       0.02250648
Pb       3.08672542       3.01450292       3.06923303        1      -0.25200998      -0.32118091      -0.73936520
Br       2.99120150       3.03965207      -0.05935565        2       0.03357385      -0.02395799      -0.07414708
Br       3.15741727      -0.01654284       2.84428023        3       0.01997426      -0.21777444       0.01843131
Br      11.92950036       2.92577476       2.89636726        4       0.11993282       0.05070459       0.05876695
Cs      -0.01545235      11.92362218       5.89029643        5      -0.04457030       0.02699203      -0.01068197
Pb       3.02587304       2.79349954       8.86679349        6      -0.02339976       0.54027343       0.54333199
Br       2.98832284       2.80167695       5.89189641        7      -0.02131465      -0.04198402       0.34732592
Br       3.05013347      -0.10200066       8.98114726        8      -0.01128577       0.47558500      -0.00427668
Br      -0.11994927       2.90222711       9.17539654        9       0.46729453       0.00692088      -0.03161535
Cs      11.95480200       6.05396794      -0.10943713       10       0.02519099      -0.10051332      -0.03660109
Pb       2.96381687       8.89500173       2.84649633       11       0.09099308       0.35362508      -0.01167477
Cl       3.11112028       8.97699557      -0.05409791       12      -0.04351623      -0.05664164       0.50532538
Br       3.03263584       5.94256048       3.06952179       13      -0.02245809       0.28427355       0.01718744
Br      11.85283691       9.00148858       2.92122178       14       1.11915433      -0.04051071      -0.00857690
Cs      -0.04646694       6.01091665       5.90887462       15      -0.04989238      -0.01919675       0.02099410
Pb       3.04242316       9.02647677       9.05488606       16      -0.16157156      -0.62948077       0.01350511
Br       3.12392191       9.01374906       6.09003582       17      -0.02345540       0.01459517      -0.47867750
Br       3.05574403       6.05057035       8.99795338       18      -0.02030851      -0.30620920      -0.04613108
Br      11.98582243       8.86999411       9.03840273       19      -0.14693301       0.01396780       0.01339405
Cs       6.10749687      -0.02018571      -0.01718603       20      -0.05196143       0.01814329      -0.00622883
Pb       8.77743152       2.94153331       2.96811062       21       0.35717167       0.33465725       0.04640218
Br       8.91340385       3.10423430       0.05395880       22      -0.05847209      -0.03655408      -0.14149969
Br       9.13016471      -0.00345435       2.91769445       23      -0.10950750      -0.23998427       0.01849400
Cl       5.95003347       3.12857122       3.03706577       24      -0.08606176      -0.04563474       0.04104346
Cs       6.01929463      12.02153110       5.98686723       25       0.01753043      -0.03698542       0.01684266
Pb       9.00850874       2.97234491       8.93601530       26      -0.15037836      -0.03139775       0.05892314
Br       9.07003763       2.97836685       5.96508690       27      -0.00953104      -0.00353562       0.05873227
Br       9.00347234      12.12800718       8.89971436       28      -0.02502617      -0.95337365       0.06099954
Br       5.96540793       2.96323419       9.03873606       29      -0.23525677      -0.06448358      -0.06832695
Cs       5.95685260       5.99666018       0.10038681       30      -0.00840169      -0.05191352      -0.05172797
Pb       9.01949228       8.87007220       3.05291710       31      -0.11146516      -0.21333348       0.21492939
Br       9.01475827       8.91300019       0.05496415       32       0.02486473      -0.00560201       0.06079960
Cl       8.86141015       5.89443771       3.13691577       33       0.04379289       0.18064100       0.00931964
Br       6.23074950       8.89445186       2.88671043       34      -1.09075382       0.02956964      -0.01773473
Cs       6.07243431       6.09765510       5.97535146       35       0.03372880       0.00672797       0.01622572
Pb       8.99715993       8.93312873       9.15052009       36       0.04969567       0.00522873      -0.34265258
Br       8.96060266       8.92414941       6.10705055       37       0.00905598       0.00239709      -0.09307293
Br       8.94460011       5.81527838       9.04241728       38       0.00220425       0.97982591       0.00303912
Br       5.95547956       9.01336632       9.13209004       39       0.29679953       0.02287748       0.01770601
