Cs Pb I  Cs Pb I  Cs Pb I  Cs Pb I  Cs Pb I  Cs Pb I  Cs Sn I  Cs Pb I 
 1.0000000000000000
    13.5555198380585900    0.0000000000000000    0.0000000000000000
     0.0000000000000000   13.5555198380585900    0.0000000000000000
     0.0000000000000000    0.0000000000000000   13.5555198380585900
 Cs  Pb  I   Cs  Pb  I   Cs  Pb  I   Cs  Pb  I   Cs  Pb  I   Cs  Pb  I   Cs  Sn  I   Cs  Pb  I  
   1   1   3   1   1   3   1   1   3   1   1   3   1   1   3   1   1   3   1   1   3   1   1   3
Cartesian
  0.0000000000000000  0.0000000000000000  0.0000000000000000
  3.3888799595146475  3.3888799595146475  3.3888799595146475
  3.3888799595146475  3.3888799595146475  0.0000000000000000
  3.3888799595146475  0.0000000000000000  3.3888799595146475
  0.0000000000000000  3.3888799595146475  3.3888799595146475
  0.0000000000000000  0.0000000000000000  6.7777599190292941
  3.3888799595146475  3.3888799595146475 10.1666398785439434
  3.3888799595146475  3.3888799595146475  6.7777599190292941
  3.3888799595146475  0.0000000000000000 10.1666398785439434
  0.0000000000000000  3.3888799595146475 10.1666398785439434
  0.0000000000000000  6.7777599190292941  0.0000000000000000
  3.3888799595146475 10.1666398785439434  3.3888799595146475
  3.3888799595146475 10.1666398785439434  0.0000000000000000
  3.3888799595146475  6.7777599190292941  3.3888799595146475
  0.0000000000000000 10.1666398785439434  3.3888799595146475
  0.0000000000000000  6.7777599190292941  6.7777599190292941
  3.3888799595146475 10.1666398785439434 10.1666398785439434
  3.3888799595146475 10.1666398785439434  6.7777599190292941
  3.3888799595146475  6.7777599190292941 10.1666398785439434
  0.0000000000000000 10.1666398785439434 10.1666398785439434
  6.7777599190292941  0.0000000000000000  0.0000000000000000
 10.1666398785439434  3.3888799595146475  3.3888799595146475
 10.1666398785439434  3.3888799595146475  0.0000000000000000
 10.1666398785439434  0.0000000000000000  3.3888799595146475
  6.7777599190292941  3.3888799595146475  3.3888799595146475
  6.7777599190292941  0.0000000000000000  6.7777599190292941
 10.1666398785439434  3.3888799595146475 10.1666398785439434
 10.1666398785439434  3.3888799595146475  6.7777599190292941
 10.1666398785439434  0.0000000000000000 10.1666398785439434
  6.7777599190292941  3.3888799595146475 10.1666398785439434
  6.7777599190292941  6.7777599190292941  0.0000000000000000
 10.1666398785439434 10.1666398785439434  3.3888799595146475
 10.1666398785439434 10.1666398785439434  0.0000000000000000
 10.1666398785439434  6.7777599190292941  3.3888799595146475
  6.7777599190292941 10.1666398785439434  3.3888799595146475
  6.7777599190292941  6.7777599190292941  6.7777599190292941
 10.1666398785439434 10.1666398785439434 10.1666398785439434
 10.1666398785439434 10.1666398785439434  6.7777599190292941
 10.1666398785439434  6.7777599190292941 10.1666398785439434
  6.7777599190292941 10.1666398785439434 10.1666398785439434
