40
Lattice="12.417331608990805 0.0 0.0 0.009586297237048454 12.369679038357322 0.0 -0.002233946624224633 0.009624958465123595 12.417327677777376" Properties=species:S:1:pos:R:3:spacegroup_kinds:I:1:forces:R:3 spacegroup="P 1" unit_cell=conventional candidate_id=b1c7f328bba076c0 formula=FASnBr0.17I0.833 config_index=0 rattle_stdev=0.0 method=PBE fidelity=phase2_force energy=-114.56208497991183 stress="-0.0013478526735983957 -4.195653607802001e-05 2.4752012865417888e-05 -4.195653607802001e-05 -0.0005340177842711022 -4.26176880620957e-05 2.4752012865417888e-05 -4.26176880620957e-05 -0.00134774202021775" pbc="T T T"
Cs       0.03433517      12.36268023       0.00925535        0       0.00599286      -0.00579342      -0.00059722
Sn       3.25693607       3.10738680       3.08858403        1      -0.02985519       0.00700057      -0.00170963
I        3.19429004       3.18184279      12.40367290        2      -0.01549377      -0.01030545      -0.00229176
I        3.19272827      12.37202377       3.02497866        3      -0.01672505       0.00002324       0.01672511
I       12.30376332       3.17858102       3.10986723        4      -0.00931041       0.00894122      -0.00015719
Cs       0.02288714      12.37448034       6.19424862        5      -0.00180390       0.00000367       0.00180510
Sn       3.11365248       3.24853981       9.30986667        6       0.00052982      -0.03727727       0.00389554
I        3.19010799       3.17267662       6.19199734        7      -0.01422344      -0.02080118       0.00803262
I        3.10336387      12.26803325       9.40396402        8       0.00073559      -0.00362645       0.01234539
I        0.02371768       3.17999718       9.30625049        9      -0.08429659      -0.01683484      -0.00277170
Cs       0.01930733       6.18214060       0.01491754       10       0.00018517      -0.00048719       0.00298945
Sn       3.12672941       9.26697566       2.95357946       11       0.00207736      -0.00697819       0.02956703
Br       3.11252536       9.26988822       0.12237557       12      -0.00253920      -0.02333752      -0.03976875
I        3.19884154       6.18717580       3.01407421       13      -0.00740164      -0.00000374       0.00740333
I        0.02325446       9.20414278       3.01989793       14      -0.00802833       0.02081800       0.01420721
Cs       0.02290188       6.18963710       6.18944159       15       0.00001215      -0.00000225      -0.00001215
Sn       3.10940479       9.16848727       9.42878953       16      -0.00069302       0.12199148      -0.12657709
I        3.10478466       9.19841053       6.32413409       17       0.00014404      -0.00893574       0.00928993
Br       3.10938222       6.08007339       9.31725489       18      -0.00509390       0.03721321       0.02710874
I        0.02498173       9.21533848       9.38754889       19      -0.10076764      -0.01278773       0.01631227
Cs       6.20322946      12.36969068       0.01501994       20      -0.00434495       0.00000714       0.00435081
Sn       9.19913288       3.21090673       3.10466350       21       0.12665559      -0.12208275       0.00124101
I        9.24081871       3.16769549       0.02131551       22      -0.01494704       0.00896193      -0.10259262
I        9.22155478       0.11134807       3.11311100       23      -0.01234595       0.00364289      -0.00074535
Br       6.08813425       3.10229112       3.10330138       24       0.03966859       0.02330357       0.00251695
Cs       6.19830336       0.01179927       6.18390788       25       0.00060829       0.00579370      -0.00599895
Sn       9.30367227       3.11683320       9.31227992       26       0.00591719      -0.00295601      -0.00161228
I        9.23978230       3.16641441       6.18912933       27      -0.01632136       0.01287765       0.10074566
I        9.32588714      12.37689390       9.30801906       28       0.00228633      -0.00000389      -0.00228111
I        6.20287242       3.19147219       9.30362166       29       0.07236601      -0.02157555      -0.00395363
Cs       6.20836366       6.18484347       0.00509438       30      -0.00099611      -0.00000236       0.00100463
Sn       9.32264516       9.13075519       3.09584942       31      -0.00428895       0.03727821      -0.00014084
I        9.32949018       9.18542340       0.00658736       32       0.00398369       0.02151538      -0.07238013
Br       9.31306138       6.29923234       3.10231274       33      -0.02713534      -0.03719383       0.00510685
I        6.22890612       9.19978731       3.01460175       34       0.00229615       0.01031632       0.01548784
Cs       6.19742914       6.19235123       6.19414487       35      -0.00298441       0.00048413      -0.00018602
Sn       9.31921367       9.26729052       9.32305676       36       0.00120870       0.00295036      -0.00632540
I        9.32575857       9.20169005       6.18573078       37       0.00277465       0.01689890       0.08428271
I        9.31861513       6.19205630       9.31049747       38       0.00770701      -0.00000342      -0.00770402
I        6.19279280       9.20927664       9.38762679       39       0.10259696      -0.00902946       0.01497093
40
Lattice="12.417331608990805 0.0 0.0 0.009586297237048454 12.369679038357322 0.0 -0.002233946624224633 0.009624958465123595 12.417327677777376" Properties=species:S:1:pos:R:3:spacegroup_kinds:I:1:forces:R:3 spacegroup="P 1" unit_cell=conventional candidate_id=b1c7f328bba076c0 formula=FASnBr0.17I0.833 config_index=1 rattle_stdev=0.08 method=PBE fidelity=phase2_force energy=-114.01102885206654 stress="-0.003013427005914226 -6.923483082281003e-05 2.8944230996727696e-05 -6.923483082281003e-05 -0.0016738918474410443 -3.692784042481128e-05 2.8944230996727696e-05 -3.692784042481128e-05 -0.003939146910274229" pbc="T T T"
Cs      -0.05258054      12.29099502      -0.01524860        0      -0.01583147       0.03703421       0.02164954
Sn       3.14974138       3.01085995       3.03724588        1       0.29430413       0.32069270       0.21035807
I        3.29892569       3.32947963      12.47000209        2      -0.10672536      -0.12636934      -0.04904454
I        3.19086437      12.35533865       2.95164908        3      -0.01381776       0.01960374       0.01425291
I       12.21778391       3.17168954       3.20393431        4       0.52355131       0.02828581       0.02108981
Cs      -0.10792020      12.47273586       6.28035952        5       0.04175008       0.03752661      -0.03863630
Sn       3.14523431       3.21752374       9.35693881        6       0.06709392      -0.25429616      -0.13615612
I        3.07544409       3.14679064       6.29223611        7       0.03357577      -0.00399838      -0.17102769
I        3.04490446      12.38231205       9.47953633        8       0.00038331      -0.27838495      -0.02934197
I        0.00259746       3.16694012       9.22912191        9       0.00079492      -0.01609599       0.03086130
Cs      -0.00810445       6.18605292      -0.02505301       10      -0.01936168      -0.03883606       0.01915336
Sn       2.94977705       9.29176261       2.82640736       11       0.85240966      -0.29144319       0.00517969
Br       3.17088173       9.26125612       0.07036185       12      -0.08913485       0.00088657      -0.07639881
I        3.06339702       6.15769787       2.88684447       13      -0.01088818       0.07154981       0.11764288
I        0.14169492       9.24209799       3.09300704       14      -0.86343536       0.03334286       0.04979343
Cs       0.09973950       6.19640050       6.32682007       15       0.02013030      -0.04198215      -0.02596827
Sn       3.17755621       9.10809645       9.24577919       16       0.21742645       0.21018393       0.18123248
I        3.11352376       9.16239788       6.29109629       17      -0.00272676      -0.00212805      -0.11457816
Br       3.13490092       6.03678476       9.39314821       18      -0.02698182       0.42012703      -0.03280956
I        0.03709654       9.22149067       9.38279686       19       0.17552854       0.01179148       0.00565917
Cs       6.19761836      12.32439876       0.03990037       20       0.01732844       0.02289094       0.01971382
Sn       9.25706959       3.25222274       3.18674596       21      -0.32073293      -0.28008867      -0.56711683
I        9.28243092       3.09810840       0.14136072       22       0.01859150       0.05580640      -0.50951329
I        9.31487255       0.15070122       3.05453002       23      -0.03384990      -0.09103509       0.13256291
Br       6.14255874       3.14301087       3.03629848       24      -0.32865698      -0.00171991       0.07023547
Cs       6.25011495       0.01280243       6.30867500       25      -0.03560071       0.01584642      -0.03682555
Sn       9.38643990       3.14384862       9.20807109       26      -0.13776073       0.26500013       0.30927523
I        9.15029875       3.27117562       6.14767197       27      -0.03201175      -0.03827080       0.57749837
I        9.29443720      12.46033138       9.31399628       28       0.03435470      -0.18834548      -0.04525460
I        6.21002738       3.19578478       9.33709741       29       0.03603505      -0.02230153      -0.01936192
Cs       6.11014525       6.09768014       0.03046433       30       0.06377423       0.02892202       0.02695811
Sn       9.26021272       9.06226470       2.99025970       31      -0.16219332       0.27432789       0.22887080
I        9.36579271       9.26556539       0.11968614       32       0.01124699       0.01153644      -0.40477123
Br       9.29784675       6.30164118       2.95243940       33       0.00571206      -0.08408467       0.01905054
I        6.21956396       9.18958808       3.08677649       34       0.21907403      -0.01600132       0.03148103
Cs       6.09227937       6.18438717       6.20538886       35      -0.01686659      -0.02261818      -0.01420489
Sn       9.52951814       9.40775282       9.11220494       36      -0.47474732      -0.28275255       0.78134529
I        9.22282701       9.18795227       6.32976707       37       0.04838246       0.06288051      -0.72388902
I        9.36731078       6.19457835       9.19318450       38       0.00625981       0.17483101       0.08667933
I        6.21754806       9.30065407       9.34675926       39       0.00123033      -0.02126885       0.03969945
