Cs Pb I  Cs Pb I  Cs Pb I  Cs Ge I  Cs Ge I  Cs Pb I  Cs Ge I  Cs Pb I 
 1.0000000000000000
    12.8284726456425808    0.0000000000000000    0.0000000000000000
     0.0000000000000000   12.8284726456425808    0.0000000000000000
     0.0000000000000000    0.0000000000000000   12.8284726456425808
 Cs  Pb  I   Cs  Pb  I   Cs  Pb  I   Cs  Ge  I   Cs  Ge  I   Cs  Pb  I   Cs  Ge  I   Cs  Pb  I  
   1   1   3   1   1   3   1   1   3   1   1   3   1   1   3   1   1   3   1   1   3   1   1   3
Cartesian
  0.0000000000000000  0.0000000000000000  0.0000000000000000
  3.2071181614106452  3.2071181614106452  3.2071181614106452
  3.2071181614106452  3.2071181614106452  0.0000000000000000
  3.2071181614106452  0.0000000000000000  3.2071181614106452
  0.0000000000000000  3.2071181614106452  3.2071181614106452
  0.0000000000000000  0.0000000000000000  6.4142363228212895
  3.2071181614106452  3.2071181614106452  9.6213544842319365
  3.2071181614106452  3.2071181614106452  6.4142363228212895
  3.2071181614106452  0.0000000000000000  9.6213544842319365
  0.0000000000000000  3.2071181614106452  9.6213544842319365
  0.0000000000000000  6.4142363228212895  0.0000000000000000
  3.2071181614106452  9.6213544842319365  3.2071181614106452
  3.2071181614106452  9.6213544842319365  0.0000000000000000
  3.2071181614106452  6.4142363228212895  3.2071181614106452
  0.0000000000000000  9.6213544842319365  3.2071181614106452
  0.0000000000000000  6.4142363228212895  6.4142363228212895
  3.2071181614106452  9.6213544842319365  9.6213544842319365
  3.2071181614106452  9.6213544842319365  6.4142363228212895
  3.2071181614106452  6.4142363228212895  9.6213544842319365
  0.0000000000000000  9.6213544842319365  9.6213544842319365
  6.4142363228212895  0.0000000000000000  0.0000000000000000
  9.6213544842319365  3.2071181614106452  3.2071181614106452
  9.6213544842319365  3.2071181614106452  0.0000000000000000
  9.6213544842319365  0.0000000000000000  3.2071181614106452
  6.4142363228212895  3.2071181614106452  3.2071181614106452
  6.4142363228212895  0.0000000000000000  6.4142363228212895
  9.6213544842319365  3.2071181614106452  9.6213544842319365
  9.6213544842319365  3.2071181614106452  6.4142363228212895
  9.6213544842319365  0.0000000000000000  9.6213544842319365
  6.4142363228212895  3.2071181614106452  9.6213544842319365
  6.4142363228212895  6.4142363228212895  0.0000000000000000
  9.6213544842319365  9.6213544842319365  3.2071181614106452
  9.6213544842319365  9.6213544842319365  0.0000000000000000
  9.6213544842319365  6.4142363228212895  3.2071181614106452
  6.4142363228212895  9.6213544842319365  3.2071181614106452
  6.4142363228212895  6.4142363228212895  6.4142363228212895
  9.6213544842319365  9.6213544842319365  9.6213544842319365
  9.6213544842319365  9.6213544842319365  6.4142363228212895
  9.6213544842319365  6.4142363228212895  9.6213544842319365
  6.4142363228212895  9.6213544842319365  9.6213544842319365
