Cs Sn I  Cl Cs Sn Cl Cs Sn Cl I  Cs Sn Cl Cs Sn Cl Cs Sn Cl I  Cl Cs Sn Cl Cs Sn Cl
 1.0000000000000000
    12.1550241472405158    0.0000000000000000    0.0000000000000000
     0.0000000000000000   12.1550241472405158    0.0000000000000000
     0.0000000000000000    0.0000000000000000   12.1550241472405158
 Cs  Sn  I   Cl  Cs  Sn  Cl  Cs  Sn  Cl  I   Cs  Sn  Cl  Cs  Sn  Cl  Cs  Sn  Cl  I   Cl  Cs  Sn  Cl  Cs  Sn  Cl 
   1   1   1   2   1   1   3   1   1   2   1   1   1   3   1   1   3   1   1   1   1   1   1   1   3   1   1   3
Cartesian
  0.0000000000000000  0.0000000000000000  0.0000000000000000
  3.0387560368101290  3.0387560368101290  3.0387560368101290
  3.0387560368101290  3.0387560368101290  0.0000000000000000
  3.0387560368101290  0.0000000000000000  3.0387560368101290
  0.0000000000000000  3.0387560368101290  3.0387560368101290
  0.0000000000000000  0.0000000000000000  6.0775120736202570
  3.0387560368101290  3.0387560368101290  9.1162681104303864
  3.0387560368101290  3.0387560368101290  6.0775120736202570
  3.0387560368101290  0.0000000000000000  9.1162681104303864
  0.0000000000000000  3.0387560368101290  9.1162681104303864
  0.0000000000000000  6.0775120736202570  0.0000000000000000
  3.0387560368101290  9.1162681104303864  3.0387560368101290
  3.0387560368101290  9.1162681104303864  0.0000000000000000
  3.0387560368101290  6.0775120736202570  3.0387560368101290
  0.0000000000000000  9.1162681104303864  3.0387560368101290
  0.0000000000000000  6.0775120736202570  6.0775120736202570
  3.0387560368101290  9.1162681104303864  9.1162681104303864
  3.0387560368101290  9.1162681104303864  6.0775120736202570
  3.0387560368101290  6.0775120736202570  9.1162681104303864
  0.0000000000000000  9.1162681104303864  9.1162681104303864
  6.0775120736202570  0.0000000000000000  0.0000000000000000
  9.1162681104303864  3.0387560368101290  3.0387560368101290
  9.1162681104303864  3.0387560368101290  0.0000000000000000
  9.1162681104303864  0.0000000000000000  3.0387560368101290
  6.0775120736202570  3.0387560368101290  3.0387560368101290
  6.0775120736202570  0.0000000000000000  6.0775120736202570
  9.1162681104303864  3.0387560368101290  9.1162681104303864
  9.1162681104303864  3.0387560368101290  6.0775120736202570
  9.1162681104303864  0.0000000000000000  9.1162681104303864
  6.0775120736202570  3.0387560368101290  9.1162681104303864
  6.0775120736202570  6.0775120736202570  0.0000000000000000
  9.1162681104303864  9.1162681104303864  3.0387560368101290
  9.1162681104303864  9.1162681104303864  0.0000000000000000
  9.1162681104303864  6.0775120736202570  3.0387560368101290
  6.0775120736202570  9.1162681104303864  3.0387560368101290
  6.0775120736202570  6.0775120736202570  6.0775120736202570
  9.1162681104303864  9.1162681104303864  9.1162681104303864
  9.1162681104303864  9.1162681104303864  6.0775120736202570
  9.1162681104303864  6.0775120736202570  9.1162681104303864
  6.0775120736202570  9.1162681104303864  9.1162681104303864
