Rb Sn Br Rb Sn Br Rb Sn Br Rb Ge Br Rb Ge Br Rb Sn Br Rb Ge Br Rb Sn Br
 1.0000000000000000
    11.9171534260493601    0.0000000000000000    0.0000000000000000
     0.0000000000000000   11.9171534260493601    0.0000000000000000
     0.0000000000000000    0.0000000000000000   11.9171534260493601
 Rb  Sn  Br  Rb  Sn  Br  Rb  Sn  Br  Rb  Ge  Br  Rb  Ge  Br  Rb  Sn  Br  Rb  Ge  Br  Rb  Sn  Br 
   1   1   3   1   1   3   1   1   3   1   1   3   1   1   3   1   1   3   1   1   3   1   1   3
Cartesian
  0.0000000000000000  0.0000000000000000  0.0000000000000000
  2.9792883565123400  2.9792883565123400  2.9792883565123400
  2.9792883565123400  2.9792883565123400  0.0000000000000000
  2.9792883565123400  0.0000000000000000  2.9792883565123400
  0.0000000000000000  2.9792883565123400  2.9792883565123400
  0.0000000000000000  0.0000000000000000  5.9585767130246792
  2.9792883565123400  2.9792883565123400  8.9378650695370201
  2.9792883565123400  2.9792883565123400  5.9585767130246792
  2.9792883565123400  0.0000000000000000  8.9378650695370201
  0.0000000000000000  2.9792883565123400  8.9378650695370201
  0.0000000000000000  5.9585767130246792  0.0000000000000000
  2.9792883565123400  8.9378650695370201  2.9792883565123400
  2.9792883565123400  8.9378650695370201  0.0000000000000000
  2.9792883565123400  5.9585767130246792  2.9792883565123400
  0.0000000000000000  8.9378650695370201  2.9792883565123400
  0.0000000000000000  5.9585767130246792  5.9585767130246792
  2.9792883565123400  8.9378650695370201  8.9378650695370201
  2.9792883565123400  8.9378650695370201  5.9585767130246792
  2.9792883565123400  5.9585767130246792  8.9378650695370201
  0.0000000000000000  8.9378650695370201  8.9378650695370201
  5.9585767130246792  0.0000000000000000  0.0000000000000000
  8.9378650695370201  2.9792883565123400  2.9792883565123400
  8.9378650695370201  2.9792883565123400  0.0000000000000000
  8.9378650695370201  0.0000000000000000  2.9792883565123400
  5.9585767130246792  2.9792883565123400  2.9792883565123400
  5.9585767130246792  0.0000000000000000  5.9585767130246792
  8.9378650695370201  2.9792883565123400  8.9378650695370201
  8.9378650695370201  2.9792883565123400  5.9585767130246792
  8.9378650695370201  0.0000000000000000  8.9378650695370201
  5.9585767130246792  2.9792883565123400  8.9378650695370201
  5.9585767130246792  5.9585767130246792  0.0000000000000000
  8.9378650695370201  8.9378650695370201  2.9792883565123400
  8.9378650695370201  8.9378650695370201  0.0000000000000000
  8.9378650695370201  5.9585767130246792  2.9792883565123400
  5.9585767130246792  8.9378650695370201  2.9792883565123400
  5.9585767130246792  5.9585767130246792  5.9585767130246792
  8.9378650695370201  8.9378650695370201  8.9378650695370201
  8.9378650695370201  8.9378650695370201  5.9585767130246792
  8.9378650695370201  5.9585767130246792  8.9378650695370201
  5.9585767130246792  8.9378650695370201  8.9378650695370201
