40
Lattice="11.28667411345216 0.0 0.0 0.0 11.299896216431122 0.0 0.0 -6.827325817014183e-15 11.286674113452026" Properties=species:S:1:pos:R:3:spacegroup_kinds:I:1:forces:R:3 spacegroup="P 1" unit_cell=conventional occupancy="_JSON {\"0\": {\"Cs\": 1.0}, \"1\": {\"Pb\": 1.0}, \"2\": {\"Cl\": 1.0}, \"3\": {\"Cl\": 1.0}, \"4\": {\"Cl\": 1.0}, \"5\": {\"Cs\": 1.0}, \"6\": {\"Pb\": 1.0}, \"7\": {\"Cl\": 1.0}, \"8\": {\"Cl\": 1.0}, \"9\": {\"Cl\": 1.0}, \"10\": {\"Cs\": 1.0}, \"11\": {\"Pb\": 1.0}, \"12\": {\"Cl\": 1.0}, \"13\": {\"Cl\": 1.0}, \"14\": {\"Cl\": 1.0}, \"15\": {\"Cs\": 1.0}, \"16\": {\"Ge\": 1.0}, \"17\": {\"Cl\": 1.0}, \"18\": {\"Cl\": 1.0}, \"19\": {\"Cl\": 1.0}, \"20\": {\"Cs\": 1.0}, \"21\": {\"Pb\": 1.0}, \"22\": {\"Cl\": 1.0}, \"23\": {\"Cl\": 1.0}, \"24\": {\"Cl\": 1.0}, \"25\": {\"Cs\": 1.0}, \"26\": {\"Pb\": 1.0}, \"27\": {\"Cl\": 1.0}, \"28\": {\"Cl\": 1.0}, \"29\": {\"Cl\": 1.0}, \"30\": {\"Cs\": 1.0}, \"31\": {\"Ge\": 1.0}, \"32\": {\"Cl\": 1.0}, \"33\": {\"Cl\": 1.0}, \"34\": {\"Cl\": 1.0}, \"35\": {\"Cs\": 1.0}, \"36\": {\"Pb\": 1.0}, \"37\": {\"Cl\": 1.0}, \"38\": {\"Cl\": 1.0}, \"39\": {\"Cl\": 1.0}}" candidate_id=cc22b9fb2dd35e92 formula=FAGe0.25Pb0.75Cl3 config_index=0 rattle_stdev=0.0 method=PBE fidelity=phase2_force energy=-140.19491431652867 stress="0.0016984874621386813 1.7683073629097103e-32 3.908380867924923e-15 1.7683073629097103e-32 0.0017634884259569153 1.0667367496853071e-18 3.908380867924923e-15 1.0667367496853071e-18 0.0016984874621387214" pbc="T T T"
Cs       0.00000000      11.18245113       0.00000000        0       0.00000000       0.00447421      -0.00000000
Pb       2.82166853       2.82497405       2.82166853        1      -0.00000000       0.00000000      -0.00000000
Cl       2.82166853       2.82497405       0.00052190        2       0.00000000      -0.00000000      -0.06432330
Cl       2.82166853      11.28532566       2.82166853        3       0.00000000      -0.10655476       0.00000000
Cl       0.00052190       2.82497405       2.82166853        4      -0.06432330      -0.00000000       0.00000000
Cs       0.00000000      11.18245113       5.64333706        5       0.00000000       0.00447421       0.00000000
Pb       2.82166853       2.82497405       8.46500559        6      -0.00000000       0.00000000       0.00000000
Cl       2.82166853       2.82497405       5.64281515        7       0.00000000       0.00000000       0.06432330
Cl       2.82166853      11.12768354       8.46500559        8       0.00000000       0.18587054      -0.00000000
Cl      11.28615221       2.82497405       8.46500559        9       0.06432330      -0.00000000      -0.00000000
Cs       0.00000000       5.76739320       0.00000000       10       0.00000000      -0.00447421       0.00000000
Pb       2.82166853       8.47492216       2.82166853       11      -0.00000000       0.00000000      -0.00000000
Cl       2.82166853       8.47492216      11.14372824       12       0.00000000      -0.00000000       0.22810166
Cl       2.82166853       5.66451866       2.82166853       13       0.00000000       0.10655476       0.00000000
Cl      11.14372824       8.47492216       2.82166853       14       0.22810166      -0.00000000       0.00000000
Cs       0.00000000       5.76739320       5.64333706       15       0.00000000      -0.00447421       0.00000000
Ge       2.82166853       8.47492216       8.46500559       16      -0.00000000      -0.00000000       0.00000000
Cl       2.82166853       8.47492216       5.78628293       17       0.00000000       0.00000000      -0.22810166
Cl       2.82166853       5.82216079       8.46500559       18       0.00000000      -0.18587054      -0.00000000
Cl       0.14294587       8.47492216       8.46500559       19      -0.22810166      -0.00000000      -0.00000000
Cs       5.64333706      11.18245113       0.00000000       20       0.00000000       0.00447421       0.00000000
Pb       8.46500559       2.82497405       2.82166853       21       0.00000000       0.00000000      -0.00000000
Cl       8.46500559       2.82497405      11.28615221       22      -0.00000000      -0.00000000       0.06432330
Cl       8.46500559      11.12768354       2.82166853       23      -0.00000000       0.18587054       0.00000000
Cl       5.64281515       2.82497405       2.82166853       24       0.06432330       0.00000000       0.00000000
Cs       5.64333706      11.18245113       5.64333706       25       0.00000000       0.00447421       0.00000000
Pb       8.46500559       2.82497405       8.46500559       26       0.00000000       0.00000000       0.00000000
Cl       8.46500559       2.82497405       5.64385896       27      -0.00000000       0.00000000      -0.06432330
Cl       8.46500559      11.28532566       8.46500559       28      -0.00000000      -0.10655476      -0.00000000
Cl       5.64385896       2.82497405       8.46500559       29      -0.06432330       0.00000000      -0.00000000
Cs       5.64333706       5.76739320       0.00000000       30       0.00000000      -0.00447421       0.00000000
Ge       8.46500559       8.47492216       2.82166853       31       0.00000000      -0.00000000      -0.00000000
Cl       8.46500559       8.47492216       0.14294587       32      -0.00000000      -0.00000000      -0.22810166
Cl       8.46500559       5.82216079       2.82166853       33      -0.00000000      -0.18587054       0.00000000
Cl       5.78628293       8.47492216       2.82166853       34      -0.22810166       0.00000000       0.00000000
Cs       5.64333706       5.76739320       5.64333706       35       0.00000000      -0.00447421       0.00000000
Pb       8.46500559       8.47492216       8.46500559       36       0.00000000       0.00000000       0.00000000
Cl       8.46500559       8.47492216       5.50039118       37      -0.00000000       0.00000000       0.22810166
Cl       8.46500559       5.66451866       8.46500559       38      -0.00000000       0.10655476      -0.00000000
Cl       5.50039118       8.47492216       8.46500559       39       0.22810166       0.00000000      -0.00000000
40
Lattice="11.28667411345216 0.0 0.0 0.0 11.299896216431122 0.0 0.0 -6.827325817014183e-15 11.286674113452026" Properties=species:S:1:pos:R:3:spacegroup_kinds:I:1:forces:R:3 spacegroup="P 1" unit_cell=conventional occupancy="_JSON {\"0\": {\"Cs\": 1.0}, \"1\": {\"Pb\": 1.0}, \"2\": {\"Cl\": 1.0}, \"3\": {\"Cl\": 1.0}, \"4\": {\"Cl\": 1.0}, \"5\": {\"Cs\": 1.0}, \"6\": {\"Pb\": 1.0}, \"7\": {\"Cl\": 1.0}, \"8\": {\"Cl\": 1.0}, \"9\": {\"Cl\": 1.0}, \"10\": {\"Cs\": 1.0}, \"11\": {\"Pb\": 1.0}, \"12\": {\"Cl\": 1.0}, \"13\": {\"Cl\": 1.0}, \"14\": {\"Cl\": 1.0}, \"15\": {\"Cs\": 1.0}, \"16\": {\"Ge\": 1.0}, \"17\": {\"Cl\": 1.0}, \"18\": {\"Cl\": 1.0}, \"19\": {\"Cl\": 1.0}, \"20\": {\"Cs\": 1.0}, \"21\": {\"Pb\": 1.0}, \"22\": {\"Cl\": 1.0}, \"23\": {\"Cl\": 1.0}, \"24\": {\"Cl\": 1.0}, \"25\": {\"Cs\": 1.0}, \"26\": {\"Pb\": 1.0}, \"27\": {\"Cl\": 1.0}, \"28\": {\"Cl\": 1.0}, \"29\": {\"Cl\": 1.0}, \"30\": {\"Cs\": 1.0}, \"31\": {\"Ge\": 1.0}, \"32\": {\"Cl\": 1.0}, \"33\": {\"Cl\": 1.0}, \"34\": {\"Cl\": 1.0}, \"35\": {\"Cs\": 1.0}, \"36\": {\"Pb\": 1.0}, \"37\": {\"Cl\": 1.0}, \"38\": {\"Cl\": 1.0}, \"39\": {\"Cl\": 1.0}}" candidate_id=cc22b9fb2dd35e92 formula=FAGe0.25Pb0.75Cl3 config_index=1 rattle_stdev=0.08 method=PBE fidelity=phase2_force energy=-139.73257368685398 stress="-0.000685991340220002 0.00013081619912930185 -1.7915636068689775e-05 0.00013081619912930185 0.0007097677924617 -9.173366934837361e-05 -1.7915636068689775e-05 -9.173366934837361e-05 -0.001161024318714601" pbc="T T T"
Cs      -0.08691571      11.11076592      -0.02450395        0      -0.01545102       0.08216584       0.04341087
Pb       2.71447384       2.72844721       2.77033038        1       0.44984331       0.42806694       0.36235951
Cl       2.92630418       2.97261089       0.06685110        2      -0.08298987      -0.03951439      -0.12365602
Cl       2.81980462      11.26864055       2.74833895        3      -0.02218207      -0.06619611      -0.02465171
Cl      -0.08545750       2.81808257       2.91573561        4       0.62999344      -0.02375759       0.01693063
Cs      -0.13080734      11.28070665       5.72944796        5       0.10105851       0.05697069      -0.10041721
Pb       2.85325036       2.79395799       8.51207773        6       0.06874447      -0.11870795      -0.09942740
Cl       2.70700462       2.79908808       5.74305393        7       0.03346218       0.02006242      -0.21516809
Cl       2.76320912      11.24196234       8.54057790        8       0.00518309      -0.06243173      -0.06447777
Cl      11.26503199       2.81191699       8.38787700        9       0.24009482      -0.00313268       0.00413306
Cs      -0.02741179       5.77130552      -0.03997056       10      -0.00430180      -0.05551931       0.02437899
Pb       2.64471617       8.49970911       2.69449643       11       0.52181330      -0.36486363      -0.14821455
Cl       2.88002490       8.46629006      11.09171452       12      -0.09474513       0.01836830       0.31792926
Cl       2.68622401       5.63504074       2.69443879       13      -0.02550391       0.06866463       0.06949024
Cl      11.26216871       8.51287738       2.89477763       14      -0.23444943      -0.00960203      -0.00474124
Cs       0.07683762       5.77415660       5.78071553       15       0.01540360      -0.07661397      -0.06573706
Ge       2.88981995       8.41453134       8.28199524       16       0.31646243       0.08014214       0.38180395
Cl       2.83040762       8.43890951       5.75324513       17      -0.01240124      -0.01891023      -0.10088831
Cl       2.84718723       5.77887215       8.54089890       18      -0.01028799       0.19987624      -0.15007806
Cl       0.15506068       8.48107436       8.46025355       19      -0.08872757       0.02213474      -0.09287425
Cs       5.63772596      11.13715920       0.02488043       20       0.02989056       0.06058968       0.02536959
Pb       8.52294229       2.86629006       2.90375098       21      -0.65104500      -0.21374654      -0.73454248
Cl       8.50661779       2.75538697      11.40619742       22       0.08355726       0.02520058      -0.50440898
Cl       8.55832336      11.16703670       2.76308755       23      -0.02068471       0.09876427       0.12618631
Cl       5.69723964       2.86569380       2.75466563       24      -0.42771126      -0.01151554       0.06875911
Cs       5.69514865      11.18345428       5.76810419       25      -0.06061992       0.04007647      -0.07619095
Pb       8.54777321       2.85198947       8.36079675       26      -0.39351239       0.33826438       0.57598905
Cl       8.37552204       2.92973526       5.60240160       27      -0.01017118      -0.04152757       0.54868234
Cl       8.43355564      11.36876314       8.47098280       28       0.04929803      -0.26127489      -0.08398983
Cl       5.65101392       2.82928664       8.49848134       29      -0.02943705      -0.01065609      -0.04500790
Cs       5.54511865       5.68022987       0.02536995       30       0.03112166      -0.03321993       0.02382059
Ge       8.40257314       8.40643168       2.71607882       31      -0.28160429       0.21633809      -0.09153989
Cl       8.50130812       8.55506415       0.25604465       32      -0.02131583      -0.07393612      -0.11125305
Cl       8.44979095       5.82456963       2.67179519       33       0.03528355       0.00515992       0.01708955
Cl       5.77694077       8.46472294       2.89384327       34       0.19727498      -0.01250523      -0.07980767
Cs       5.53818728       5.75942914       5.65458104       35       0.03529212      -0.04361967      -0.02742154
Pb       8.67531006       8.61538447       8.25415376       36      -0.47679755      -0.55431993       0.53151416
Cl       8.36207403       8.46118439       5.64442748       37       0.10980177       0.06673150      -0.14695484
Cl       8.51370124       5.66704071       8.34769261       38       0.05349708       0.31222561       0.02674481
Cl       5.52514644       8.56629959       8.42413805       39      -0.04365916      -0.04534751      -0.07479531
40
Lattice="11.28667411345216 0.0 0.0 0.0 11.299896216431122 0.0 0.0 -6.827325817014183e-15 11.286674113452026" Properties=species:S:1:pos:R:3:spacegroup_kinds:I:1:forces:R:3 spacegroup="P 1" unit_cell=conventional occupancy="_JSON {\"0\": {\"Cs\": 1.0}, \"1\": {\"Pb\": 1.0}, \"2\": {\"Cl\": 1.0}, \"3\": {\"Cl\": 1.0}, \"4\": {\"Cl\": 1.0}, \"5\": {\"Cs\": 1.0}, \"6\": {\"Pb\": 1.0}, \"7\": {\"Cl\": 1.0}, \"8\": {\"Cl\": 1.0}, \"9\": {\"Cl\": 1.0}, \"10\": {\"Cs\": 1.0}, \"11\": {\"Pb\": 1.0}, \"12\": {\"Cl\": 1.0}, \"13\": {\"Cl\": 1.0}, \"14\": {\"Cl\": 1.0}, \"15\": {\"Cs\": 1.0}, \"16\": {\"Ge\": 1.0}, \"17\": {\"Cl\": 1.0}, \"18\": {\"Cl\": 1.0}, \"19\": {\"Cl\": 1.0}, \"20\": {\"Cs\": 1.0}, \"21\": {\"Pb\": 1.0}, \"22\": {\"Cl\": 1.0}, \"23\": {\"Cl\": 1.0}, \"24\": {\"Cl\": 1.0}, \"25\": {\"Cs\": 1.0}, \"26\": {\"Pb\": 1.0}, \"27\": {\"Cl\": 1.0}, \"28\": {\"Cl\": 1.0}, \"29\": {\"Cl\": 1.0}, \"30\": {\"Cs\": 1.0}, \"31\": {\"Ge\": 1.0}, \"32\": {\"Cl\": 1.0}, \"33\": {\"Cl\": 1.0}, \"34\": {\"Cl\": 1.0}, \"35\": {\"Cs\": 1.0}, \"36\": {\"Pb\": 1.0}, \"37\": {\"Cl\": 1.0}, \"38\": {\"Cl\": 1.0}, \"39\": {\"Cl\": 1.0}}" candidate_id=cc22b9fb2dd35e92 formula=FAGe0.25Pb0.75Cl3 config_index=2 rattle_stdev=0.08 method=PBE fidelity=phase2_force energy=-139.47525012809615 stress="-0.00041850479553261785 0.00014914290356367413 8.204938247538745e-05 0.00014914290356367413 -0.00040384536847806713 -0.00013728297592096792 8.204938247538745e-05 -0.00013728297592096792 0.00032382610429788195" pbc="T T T"
Cs      -0.00901704      11.09632601       0.14280215        0       0.02470153       0.02070169      -0.12293882
Pb       2.70510986       2.79886839       2.72087681        1       1.18307405       0.40362741       0.30262239
Cl       2.85173785       2.75472226      -0.02747616        2      -0.09245866       0.04133963      -0.14234502
Cl       2.84540134      11.38139862       2.69614891        3      -0.04001172      -0.87021347       0.03634050
Cl       0.14884420       2.86449100       2.81121161        4      -1.42479841       0.01432128      -0.03872662
Cs      -0.03224966      11.10455814       5.60593971        5      -0.03850177       0.00606212       0.09268309
Pb       2.76423481       2.92268552       8.40282958        6       0.59760496       0.20574570      -0.00251864
Cl       2.77458648       2.82036455       5.64918154        7      -0.01541548      -0.10742608      -0.09588358
Cl       2.72701244      11.00378414       8.53798608        8      -0.01489091       0.44133865      -0.02048666
Cl      11.31916587       2.76931253       8.28190383        9      -0.15985372       0.01763229       0.03899416
Cs      -0.06297932       5.68511187       0.00746465       10       0.05765754       0.02348539      -0.03987980
Pb       2.77933300       8.53734175       2.80560335       11       0.30719455      -0.37454936       0.09626032
Cl       2.78321984       8.39210119      11.10350949       12       0.00594060       0.03358873       0.65597709
Cl       2.88485974       5.59051885       2.99847135       13      -0.07592835       0.72755683      -0.10314835
Cl      11.03170935       8.45579437       2.83905578       14       0.68892961      -0.04463903      -0.04114295
Cs      -0.02819082       5.77426324       5.65186921       15       0.00687947      -0.00939947       0.02437790
Ge       2.80590603       8.58267687       8.49261950       16      -0.14710914      -0.43038424      -0.14177613
Cl       2.86628008       8.42729935       5.84490950       17      -0.07689387       0.17007075      -0.58566924
Cl       2.92816874       5.76375815       8.42614512       18      -0.07667646      -0.49873705       0.05397797
Cl       0.22909901       8.26729357       8.47835984       19      -0.19312486       0.11761819       0.00631290
Cs       5.72645383      11.03776522       0.06069128       20      -0.05354586       0.10249309      -0.05810970
Pb       8.42499656       2.63743060       2.81303511       21      -0.27440235       0.27371994       0.22173030
Cl       8.34478257       2.86407635      11.24189793       22       0.08487035       0.03538651       0.33904594
Cl       8.54960619      11.05813811       2.81566124       23       0.02020176       0.47956775      -0.06650903
Cl       5.63424276       2.99287982       2.79442549       24       0.48846286      -0.15173705      -0.02590602
Cs       5.60110465      11.07888178       5.66046498       25       0.04663933       0.03673731       0.03540094
Pb       8.55510715       2.85709692       8.52625241       26      -0.55801836      -0.09035202      -0.45869215
Cl       8.35675539       2.87088273       5.62624799       27       0.06798664      -0.09328469      -0.12699921
Cl       8.51662070      11.20494812       8.61698467       28       0.03781980       0.57637328       0.02557768
Cl       5.66120783       2.86497168       8.41487830       29       0.06968852      -0.05530018       0.01507099
Cs       5.56310632       5.70488838       0.01634222       30      -0.03224789      -0.08249637      -0.00912467
Ge       8.50789295       8.38892237       2.64424015       31      -0.43898947      -0.22178334       0.60270280
Cl       8.51676000       8.44913530       0.12914074       32       0.01365996      -0.06720299      -0.05705442
Cl       8.28193184       5.81319728       2.89809363       33       0.17187619      -0.15402815      -0.17121821
Cl       5.82266198       8.63987636       2.82666537       34      -0.61864313      -0.01666672      -0.11879145
Cs       5.64356445       5.73110889       5.67321566       35      -0.00005486      -0.04549712      -0.01275464
Pb       8.39995631       8.46679756       8.50066264       36       0.03596731       0.04350711      -0.54495522
Cl       8.36299529       8.48354871       5.56857013       37       0.10330871       0.07004548       0.22854238
Cl       8.45245742       5.75962420       8.34722451       38       0.07507678      -0.65467990       0.08589409
Cl       5.56967445       8.40345100       8.42108794       39       0.24497827       0.12704205       0.12291007
40
Lattice="11.28667411345216 0.0 0.0 0.0 11.299896216431122 0.0 0.0 -6.827325817014183e-15 11.286674113452026" Properties=species:S:1:pos:R:3:spacegroup_kinds:I:1:forces:R:3 spacegroup="P 1" unit_cell=conventional occupancy="_JSON {\"0\": {\"Cs\": 1.0}, \"1\": {\"Pb\": 1.0}, \"2\": {\"Cl\": 1.0}, \"3\": {\"Cl\": 1.0}, \"4\": {\"Cl\": 1.0}, \"5\": {\"Cs\": 1.0}, \"6\": {\"Pb\": 1.0}, \"7\": {\"Cl\": 1.0}, \"8\": {\"Cl\": 1.0}, \"9\": {\"Cl\": 1.0}, \"10\": {\"Cs\": 1.0}, \"11\": {\"Pb\": 1.0}, \"12\": {\"Cl\": 1.0}, \"13\": {\"Cl\": 1.0}, \"14\": {\"Cl\": 1.0}, \"15\": {\"Cs\": 1.0}, \"16\": {\"Ge\": 1.0}, \"17\": {\"Cl\": 1.0}, \"18\": {\"Cl\": 1.0}, \"19\": {\"Cl\": 1.0}, \"20\": {\"Cs\": 1.0}, \"21\": {\"Pb\": 1.0}, \"22\": {\"Cl\": 1.0}, \"23\": {\"Cl\": 1.0}, \"24\": {\"Cl\": 1.0}, \"25\": {\"Cs\": 1.0}, \"26\": {\"Pb\": 1.0}, \"27\": {\"Cl\": 1.0}, \"28\": {\"Cl\": 1.0}, \"29\": {\"Cl\": 1.0}, \"30\": {\"Cs\": 1.0}, \"31\": {\"Ge\": 1.0}, \"32\": {\"Cl\": 1.0}, \"33\": {\"Cl\": 1.0}, \"34\": {\"Cl\": 1.0}, \"35\": {\"Cs\": 1.0}, \"36\": {\"Pb\": 1.0}, \"37\": {\"Cl\": 1.0}, \"38\": {\"Cl\": 1.0}, \"39\": {\"Cl\": 1.0}}" candidate_id=cc22b9fb2dd35e92 formula=FAGe0.25Pb0.75Cl3 config_index=3 rattle_stdev=0.08 method=PBE fidelity=phase2_force energy=-139.23437670112332 stress="-0.000491641269011356 0.0003710712787879121 5.497524808048654e-05 0.0003710712787879121 -0.00042299137843873565 -4.302240007397695e-05 5.497524808048654e-05 -4.302240007397695e-05 0.00030075734354047246" pbc="T T T"
Cs      -0.10568348      11.34379136       0.00380516        0       0.05899867       0.07738131       0.03813566
Pb       2.80265483       2.83170387       2.89843191        1      -0.35209012      -0.36179079      -0.99238867
Cl       2.76714065       2.86729969      -0.06147155        2       0.05676962      -0.02324841      -0.17000827
Cl       2.93406502      11.26735122       2.71719767        3       0.02613248      -0.34394878       0.03681741
Cl      -0.05376091       2.69529939       2.71927065        4       0.08016992       0.03585460       0.06346614
Cs      -0.01794374      11.11440624       5.58287785        5      -0.05624745       0.04458077      -0.01137009
Pb       2.84272219       2.62055861       8.33138291        6      -0.07664866       0.34387160       0.70669933
Cl       2.76472971       2.62923200       5.54068037        7      -0.02122286      -0.06622897       0.55520863
Cl       2.87475833      11.02537682       8.40177281        8      -0.02666190       0.79493785      -0.00698808
Cl      11.16596255       2.72981086       8.64634080        9       0.67800298      -0.00257041      -0.04523258
Cs      -0.03814223       5.83912632      -0.14439506       10       0.04542202      -0.15940453       0.00726950
Pb       2.78237136       8.37896244       2.75725090       11       0.01640402       0.47543600      -0.09507806
Cl       2.93413402       8.45649691      11.08663252       12      -0.08609871      -0.03615777       0.81372881
Cl       2.80866152       5.61020827       2.94279794       13      -0.01666537       0.39127025       0.03861777
Cl      11.00392241       8.52760453       2.79413923       14       1.27113605      -0.13954469       0.03069002
Cs      -0.06069585       5.78115530       5.59075378       15      -0.05210026      -0.03537401       0.02279143
Ge       2.86588417       8.50553082       8.43530236       16      -0.02334145      -0.66790807       0.00530684
Cl       2.94792005       8.49226596       5.88321026       17      -0.03587295       0.01247077      -0.69510785
Cl       2.88018697       5.87608047       8.41858110       18      -0.00831289      -0.41123673      -0.06371030
Cl       0.13499870       8.34813297       8.45902827       19      -0.49638019       0.07620504       0.00831749
Cs       5.73924177      11.16121731      -0.05214397       20      -0.07047242       0.04707514       0.02369254
Pb       8.31328266       2.70175014       2.79024267       21       0.65783495       0.24913061       0.07109973
Cl       8.43184712       2.88185948      11.33755424       22      -0.07237660      -0.04431774      -0.20879326
Cl       8.65679249      11.11410095       2.74059783       23      -0.20167238       0.01690784       0.04571045
Cl       5.60733066       2.89265223       2.86121725       24      -0.21149822      -0.01245084       0.05310410
Cs       5.66562812      11.22421840       5.66874639       25       0.02668979      -0.04323531      -0.00217115
Pb       8.48317649       2.79374681       8.40756418       26      -0.24306943       0.00555691       0.11822885
Cl       8.58853448       2.75593844       5.61515275       27      -0.00022235      -0.00499473       0.03414527
Cl       8.47170973      11.41966343       8.37065861       28      -0.02881896      -1.28340166       0.07849877
Cl       5.61196079       2.79110291       8.50975253       29      -0.34000379      -0.07974350      -0.08323828
Cs       5.59715748       5.77309299       0.06937641       30       0.00414684      -0.10013384      -0.06921432
Ge       8.49819830       8.45682338       2.88211598       31      -0.19611474      -0.19033391       0.07490419
Cl       8.48301598       8.43974192       0.19527222       32       0.02728844      -0.01193556      -0.31400014
Cl       8.39331572       5.70820489       2.96106726       33       0.07993987      -0.00557201      -0.01890182
Cl       6.01982898       8.42102414       2.75998659       34      -1.06358929       0.07458182       0.03140302
Cs       5.72777644       5.85905024       5.65298690       35       0.01420370      -0.01791984       0.02988426
Pb       8.46600506       8.41896045       8.61510952       36       0.10002825       0.03719486      -0.28514143
Cl       8.42895291       8.45042342       5.61341053       37       0.02698138       0.03466070       0.20079828
Cl       8.41271830       5.48319334       8.51343374       38       0.00492279       1.28375523       0.00437400
Cl       5.45844574       8.49152134       8.55271775       39       0.48464535       0.02355439      -0.02598279
