40
Lattice="12.229455250698617 0.0 0.0 1.8082426223224349e-13 12.10480577350285 0.0 0.0 -0.0024181670952393543 12.319392158468501" Properties=species:S:1:pos:R:3:spacegroup_kinds:I:1:forces:R:3 spacegroup="P 1" unit_cell=conventional occupancy="_JSON {\"0\": {\"Cs\": 1.0}, \"1\": {\"Sn\": 1.0}, \"2\": {\"I\": 1.0}, \"3\": {\"I\": 1.0}, \"4\": {\"I\": 1.0}, \"5\": {\"Cs\": 1.0}, \"6\": {\"Sn\": 1.0}, \"7\": {\"Br\": 1.0}, \"8\": {\"Br\": 1.0}, \"9\": {\"I\": 1.0}, \"10\": {\"Cs\": 1.0}, \"11\": {\"Sn\": 1.0}, \"12\": {\"Br\": 1.0}, \"13\": {\"Br\": 1.0}, \"14\": {\"I\": 1.0}, \"15\": {\"Cs\": 1.0}, \"16\": {\"Sn\": 1.0}, \"17\": {\"I\": 1.0}, \"18\": {\"Br\": 1.0}, \"19\": {\"I\": 1.0}, \"20\": {\"Cs\": 1.0}, \"21\": {\"Sn\": 1.0}, \"22\": {\"I\": 1.0}, \"23\": {\"I\": 1.0}, \"24\": {\"Br\": 1.0}, \"25\": {\"Cs\": 1.0}, \"26\": {\"Sn\": 1.0}, \"27\": {\"I\": 1.0}, \"28\": {\"I\": 1.0}, \"29\": {\"Br\": 1.0}, \"30\": {\"Cs\": 1.0}, \"31\": {\"Sn\": 1.0}, \"32\": {\"I\": 1.0}, \"33\": {\"Br\": 1.0}, \"34\": {\"Br\": 1.0}, \"35\": {\"Cs\": 1.0}, \"36\": {\"Sn\": 1.0}, \"37\": {\"I\": 1.0}, \"38\": {\"Br\": 1.0}, \"39\": {\"Br\": 1.0}}" candidate_id=c4e5dd7c49e032d1 formula=CsSnBr0.44I0.563 config_index=0 rattle_stdev=0.0 method=PBE fidelity=phase2_force energy=-118.80693630151639 stress="0.0008027939203909887 -2.917779812300693e-10 -1.3343507272304868e-09 -2.917779812300693e-10 0.0007840807016480073 1.3419732158771542e-06 -1.3343507272304868e-09 1.3419732158771542e-06 -0.001349795699798106" pbc="T T T"
Cs       0.08798492      12.08162361      12.28214104        0      -0.00588027       0.00104651       0.00328369
Sn       3.17317717       3.14678379       3.20099761        1      -0.06407552      -0.02976822      -0.04823974
I        3.17978795       3.07099535      12.22781667        2      -0.01091615      -0.01031763       0.01101114
I        3.19827179      -0.00060454       3.07984804        3      -0.00353804       0.00000217       0.00000214
I        0.05063300       3.15082018       3.13718969        4      -0.02103030      -0.00303187       0.00549643
Cs       0.08798492       0.01955491       6.19694720        5      -0.00587928      -0.00104472      -0.00328936
Sn       3.15691279       3.05602849       9.13989468        6      -0.04419738      -0.02859736       0.09683443
Br       3.17763234       3.12338240       6.07105517        7       0.02425640       0.00342705       0.02469333
Br       3.16808736      12.10299215       9.23954412        8       0.02613607       0.00000115       0.00000060
I        0.07691658       3.07895222       9.15524593        9      -0.00883354      -0.01159382      -0.01295690
Cs       0.09232139       6.06267514      12.30250552       10      -0.00687055      -0.00349580       0.00764187
Sn       3.17317717       8.95681290       2.95869847       11      -0.06407512       0.02976329       0.04788156
Br       3.17763234       8.98021429       0.08864091       12       0.02425651      -0.00342521      -0.02472362
Br       3.16737417       6.05179834       3.07984804       13       0.02582165      -0.00000048       0.00000023
I        0.05063300       8.95277651       3.02250639       14      -0.02103131       0.00303140      -0.00549423
Cs       0.09232139       6.03850338       6.17658272       15      -0.00687028       0.00349499      -0.00764615
Sn       3.15691279       9.04515004       9.33919356       16      -0.04419560       0.02859579      -0.09646022
I        3.17978795       9.03018317       6.25127157       17      -0.01091676       0.01031979      -0.01099393
Br       3.15172786       6.05058926       9.23954412       18       0.02239957      -0.00000090      -0.00000001
I        0.07691658       9.02222631       9.32384231       19      -0.00883710       0.01159380       0.01295273
Cs       6.03213251      12.07837166      12.26492001       20       0.01578644      -0.00815490      -0.00697950
Sn       9.00403686       3.16091141       3.08706238       21       0.04539683      -0.05440179       0.00617148
I        9.04306943       3.17535823       0.00008569       22       0.01802622       0.00148563       0.00840277
I        9.02077816      -0.00060454       3.07984804       23       0.00522697       0.00000243      -0.00000175
Br       6.14236829       3.15528567       3.12506911       24      -0.00778516       0.02468303       0.01025593
Cs       6.03213251       0.02280686       6.21416823       25       0.01578543       0.00815672       0.00697339
Sn       9.00300080       3.15371557       9.24046939       26       0.04912114      -0.04590381      -0.00482137
I        9.03173055       3.17260888       6.16534441       27       0.01517761      -0.00140325      -0.01158026
I        9.03687726      -0.00181363       9.23954412       28       0.00560156      -0.00000209       0.00000163
Br       6.17584150       3.12643253       9.21597438       29      -0.05418802       0.00495774      -0.02724163
Cs       6.01219187       6.08135722      12.28486340       30       0.01769414       0.00590280       0.00656547
Sn       9.00403686       8.94268527       3.07263370       31       0.04539538       0.05440131      -0.00576426
I        9.03173055       8.92856964      12.31374383       32       0.01517580       0.00140330       0.01157198
Br       9.01100374       6.05179834       3.07984804       33      -0.00700042      -0.00000203      -0.00000085
Br       6.14236829       8.94831102       3.03462697       34      -0.00778655      -0.02468360      -0.01025501
Cs       6.01219187       6.01982130       6.19422484       35       0.01769333      -0.00590405      -0.00657172
Sn       9.00300080       8.94746296       9.23861885       36       0.04912249       0.04590438       0.00440600
I        9.04306943       8.92823846       6.15961039       37       0.01802984      -0.00148538      -0.00839725
Br       9.03768777       6.05058926       9.23954412       38      -0.00236455       0.00000129       0.00000033
Br       6.17584150       8.97474600       9.26311386       39      -0.05418469      -0.00495694       0.02724169
40
Lattice="12.229455250698617 0.0 0.0 1.8082426223224349e-13 12.10480577350285 0.0 0.0 -0.0024181670952393543 12.319392158468501" Properties=species:S:1:pos:R:3:spacegroup_kinds:I:1:forces:R:3 spacegroup="P 1" unit_cell=conventional occupancy="_JSON {\"0\": {\"Cs\": 1.0}, \"1\": {\"Sn\": 1.0}, \"2\": {\"I\": 1.0}, \"3\": {\"I\": 1.0}, \"4\": {\"I\": 1.0}, \"5\": {\"Cs\": 1.0}, \"6\": {\"Sn\": 1.0}, \"7\": {\"Br\": 1.0}, \"8\": {\"Br\": 1.0}, \"9\": {\"I\": 1.0}, \"10\": {\"Cs\": 1.0}, \"11\": {\"Sn\": 1.0}, \"12\": {\"Br\": 1.0}, \"13\": {\"Br\": 1.0}, \"14\": {\"I\": 1.0}, \"15\": {\"Cs\": 1.0}, \"16\": {\"Sn\": 1.0}, \"17\": {\"I\": 1.0}, \"18\": {\"Br\": 1.0}, \"19\": {\"I\": 1.0}, \"20\": {\"Cs\": 1.0}, \"21\": {\"Sn\": 1.0}, \"22\": {\"I\": 1.0}, \"23\": {\"I\": 1.0}, \"24\": {\"Br\": 1.0}, \"25\": {\"Cs\": 1.0}, \"26\": {\"Sn\": 1.0}, \"27\": {\"I\": 1.0}, \"28\": {\"I\": 1.0}, \"29\": {\"Br\": 1.0}, \"30\": {\"Cs\": 1.0}, \"31\": {\"Sn\": 1.0}, \"32\": {\"I\": 1.0}, \"33\": {\"Br\": 1.0}, \"34\": {\"Br\": 1.0}, \"35\": {\"Cs\": 1.0}, \"36\": {\"Sn\": 1.0}, \"37\": {\"I\": 1.0}, \"38\": {\"Br\": 1.0}, \"39\": {\"Br\": 1.0}}" candidate_id=c4e5dd7c49e032d1 formula=CsSnBr0.44I0.563 config_index=1 rattle_stdev=0.08 method=PBE fidelity=phase2_force energy=-118.25765156138864 stress="-0.00038491558465884824 -4.3044486182885546e-05 -6.507112770043099e-05 -4.3044486182885546e-05 -0.00025134671512264123 -0.00015808310967368447 -6.507112770043099e-05 -0.00015808310967368447 -0.003980844170621765" pbc="T T T"
Cs       0.00106921      12.00993840      12.25763709        0      -0.02871599       0.04827593       0.02440679
Sn       3.06598248       3.05025694       3.14965946        1       0.14343086       0.26393654       0.09490688
I        3.28442360       3.21863219      12.29414587        2      -0.16090920      -0.15189142       0.08613120
I        3.19640789      -0.01728966       3.00651846        3      -0.00867894       0.03934297       0.01433760
I       -0.03534641       3.14392870       3.23125678        4       0.31460979      -0.01452705      -0.00225774
Cs      -0.04282242       0.11781043       6.28305810        5       0.03791472       0.02461064      -0.04811909
Sn       3.18849462       3.02501242       9.18696682        6       0.03860672      -0.12794317      -0.10975513
Br       3.06296843       3.09749642       6.17129395        7       0.07377006      -0.00334384      -0.08062615
Br       3.10962795      12.21727095       9.31511643        8       0.03885766      -0.16895987      -0.03818427
I        0.05579636       3.06589515       9.07811735        9      -0.00322937       0.00314891       0.06028247
Cs       0.06490960       6.06658746      12.26253496       10      -0.01096180      -0.04572008       0.02548263
Sn       2.99622481       8.98159985       2.83152637       11       0.74642471      -0.24863910       0.00879987
Br       3.23598870       8.97158219       0.03662719       12      -0.07579010       0.02234764      -0.03127236
Br       3.03192964       6.02232042       2.95261830       13       0.01525292       0.02171935       0.04579630
I        0.16907347       8.99073172       3.09561549       14      -0.80244399       0.01491754       0.00289194
Cs       0.16915901       6.04526679       6.31396119       15       0.01792182      -0.04176457      -0.02894485
Sn       3.22506421       8.98475921       9.15618322       16       0.22097928       0.01585000       0.30822535
I        3.18852705       8.99417052       6.21823377       17      -0.02496367       0.02709087      -0.17419807
Br       3.17724656       6.00730063       9.31543744       18      -0.00741997       0.33958494      -0.08750255
I        0.08903139       9.02837850       9.31909027       19       0.04961912       0.02141903      -0.02891307
Cs       6.02652141      12.03307974      12.28980044       20       0.03369367       0.01330187       0.00314954
Sn       9.06197357       3.20222742       3.16914484       21      -0.23652873      -0.32731955      -0.58961538
I        9.08468164       3.10577114       0.12013090       22       0.06445596       0.01863445      -0.43955458
I        9.11409593       0.03874862       3.02126706       23      -0.00108076      -0.08720408       0.11540886
Br       6.19679278       3.19600542       3.05806621       24      -0.24868027       0.00323789       0.07565491
Cs       6.08394410       0.02381002       6.33893536       25      -0.03507086       0.01685088      -0.02961790
Sn       9.08576843       3.18073098       9.13626055       26      -0.06385090       0.22904367       0.41319992
I        8.94224700       3.27737009       6.12388705       27      -0.00866155      -0.03652405       0.46406904
I        9.00542731       0.08162385       9.24552134       28       0.06073914      -0.18618821      -0.05198262
Br       6.18299646       3.13074511       9.24945014       29      -0.06901628      -0.00820863      -0.05892221
Cs       5.91397346       5.99419390      12.31023335       30       0.12183872       0.06976837       0.02731720
Sn       8.94160442       8.87419479       2.96704399       31      -0.13956146       0.29507774       0.28489756
I        9.06803308       9.00871163      12.42684261       32       0.01362080      -0.00855681      -0.40638461
Br       8.99578911       6.05420719       2.92997470       33       0.02764631       0.09626596       0.02390571
Br       6.13302613       8.93811179       3.10680171       34       0.23523546      -0.02743113      -0.02060914
Cs       5.90704209       6.01185724       6.20546883       35       0.00600912      -0.04040371      -0.01670558
Sn       9.21330528       9.08792526       9.02776703       36      -0.28052959      -0.20512051       1.16377883
I        8.94013787       8.91450069       6.30364668       37       0.03150596       0.01580339      -1.09803163
Br       9.08638342       6.05311131       9.12223114       38       0.04420679       0.12075830       0.06189682
Br       6.20059676       9.06612343       9.22224633       39      -0.12901656       0.00998770       0.03785387
40
Lattice="12.229455250698617 0.0 0.0 1.8082426223224349e-13 12.10480577350285 0.0 0.0 -0.0024181670952393543 12.319392158468501" Properties=species:S:1:pos:R:3:spacegroup_kinds:I:1:forces:R:3 spacegroup="P 1" unit_cell=conventional occupancy="_JSON {\"0\": {\"Cs\": 1.0}, \"1\": {\"Sn\": 1.0}, \"2\": {\"I\": 1.0}, \"3\": {\"I\": 1.0}, \"4\": {\"I\": 1.0}, \"5\": {\"Cs\": 1.0}, \"6\": {\"Sn\": 1.0}, \"7\": {\"Br\": 1.0}, \"8\": {\"Br\": 1.0}, \"9\": {\"I\": 1.0}, \"10\": {\"Cs\": 1.0}, \"11\": {\"Sn\": 1.0}, \"12\": {\"Br\": 1.0}, \"13\": {\"Br\": 1.0}, \"14\": {\"I\": 1.0}, \"15\": {\"Cs\": 1.0}, \"16\": {\"Sn\": 1.0}, \"17\": {\"I\": 1.0}, \"18\": {\"Br\": 1.0}, \"19\": {\"I\": 1.0}, \"20\": {\"Cs\": 1.0}, \"21\": {\"Sn\": 1.0}, \"22\": {\"I\": 1.0}, \"23\": {\"I\": 1.0}, \"24\": {\"Br\": 1.0}, \"25\": {\"Cs\": 1.0}, \"26\": {\"Sn\": 1.0}, \"27\": {\"I\": 1.0}, \"28\": {\"I\": 1.0}, \"29\": {\"Br\": 1.0}, \"30\": {\"Cs\": 1.0}, \"31\": {\"Sn\": 1.0}, \"32\": {\"I\": 1.0}, \"33\": {\"Br\": 1.0}, \"34\": {\"Br\": 1.0}, \"35\": {\"Cs\": 1.0}, \"36\": {\"Sn\": 1.0}, \"37\": {\"I\": 1.0}, \"38\": {\"Br\": 1.0}, \"39\": {\"Br\": 1.0}}" candidate_id=c4e5dd7c49e032d1 formula=CsSnBr0.44I0.563 config_index=2 rattle_stdev=0.08 method=PBE fidelity=phase2_force energy=-118.33409423414713 stress="-0.0008472439912723063 7.01794682543399e-05 9.546120758440461e-05 7.01794682543399e-05 -0.000465048407941073 6.535464212024724e-05 9.546120758440461e-05 6.535464212024724e-05 -0.0022746722041518284" pbc="T T T"
Cs       0.07896788      11.99549849      12.42494319        0       0.01587461      -0.00652121      -0.06225100
Sn       3.05661851       3.12067813       3.10020589        1       0.67720609       0.27431683       0.09243947
I        3.20985727       3.00074356      12.19981861        2      -0.08552352       0.03561388       0.05213644
I        3.22200461       0.09546841       2.95432842        3      -0.02804531      -0.59969549       0.03844057
I        0.19895530       3.19033713       3.12673278        4      -0.88276509      -0.00856214      -0.03255007
Cs       0.05573526      -0.05833807       6.15954986        5      -0.01570591      -0.02181222       0.03532563
Sn       3.09947908       3.15373995       9.07771868        6       0.36662598       0.07782334      -0.00197274
Br       3.13055029       3.11877289       6.07742156        7       0.01799144      -0.07253861      -0.00138513
Br       3.07343127      11.97909275       9.31252461        8       0.02333248       0.01834274       0.00484083
I        0.10993024       3.02329070       8.97214418        9      -0.22464559       0.02221738       0.06401047
Cs       0.02934207       5.98039380      12.30997017       10       0.03521847       0.01354419      -0.01263189
Sn       3.13084164       9.01923249       2.94263330       11       0.12142399      -0.17118821       0.07085210
Br       3.13918365       8.89739332       0.04842216       12       0.02250181       0.00601379       0.26877335
Br       3.23056538       5.97779854       3.25665087       13      -0.02682765       0.45164445      -0.08319953
I       -0.06138590       8.93364872       3.03989364       14       0.38005834       0.00618336      -0.00372642
Cs       0.06413057       6.04537343       6.18511488       15      -0.00308070       0.02187567      -0.00716534
Sn       3.14115030       9.15290474       9.36680748       16      -0.05273266      -0.03145931      -0.10381670
I        3.22439950       8.98256036       6.30989814       17      -0.05728813       0.09013273      -0.28754352
Br       3.25822807       5.99218663       9.20068366       18      -0.04168045      -0.18930438       0.01538541
I        0.16306972       8.81459771       9.33719656       19      -0.11743858       0.06617666       0.01819173
Cs       6.11524928      11.93368575      12.32561128       20      -0.02393821       0.03537068      -0.02375469
Sn       8.96402784       2.97336796       3.07842897       21      -0.23164037       0.32319966       0.16902216
I        8.92284641       3.21446052      -0.04416859       22       0.07477787       0.02785346       0.20097427
I        9.10537876      -0.07014997       3.07384075       23       0.01108686       0.13674883      -0.00922698
Br       6.13379589       3.32319143       3.09782608       24       0.33450237      -0.17923715      -0.03095698
Cs       5.98990010      -0.08076249       6.23129615       25       0.04489617       0.02523720       0.01912968
Sn       9.09310237       3.18583843       9.30171621       26      -0.33380998      -0.12398040      -0.32525123
I        8.92348035       3.21851756       6.14773343       27       0.08843417      -0.11132217      -0.08280575
I        9.08849237      -0.08219117       9.39152320       28       0.02629792       0.44712711      -0.01266054
Br       6.19319037       3.16643016       9.16584709       29       0.12429369      -0.04468411       0.00473716
Cs       5.93196113       6.01885240      12.30120562       30      -0.00268609      -0.02033966       0.02218670
Sn       9.04692422       8.85668548       2.89520532       31      -0.20810516      -0.17516239       0.69270857
I        9.08348497       8.90278278      12.29993870       32       0.01883493      -0.05190495       0.03716445
Br       8.82793000       6.04283484       3.15627314       33       0.10023869      -0.00637797      -0.08292467
Br       6.17874734       9.11326521       3.03962380       34      -0.33110548       0.01528796      -0.09084823
Cs       6.01241926       5.98353700       6.22410344       35       0.00787221      -0.01770495      -0.03215418
Sn       8.93795152       8.93933836       9.27427591       36       0.39732837       0.13835128      -0.51376258
I        8.94105914       8.93686501       6.22778934       37       0.08994696       0.09114359      -0.19884389
Br       9.02513961       6.14569480       9.12176305       38       0.06530744      -0.54487927       0.07514269
Br       6.24512477       8.90327484       9.21919621       39      -0.37465055       0.04824983       0.11876623
40
Lattice="12.229455250698617 0.0 0.0 1.8082426223224349e-13 12.10480577350285 0.0 0.0 -0.0024181670952393543 12.319392158468501" Properties=species:S:1:pos:R:3:spacegroup_kinds:I:1:forces:R:3 spacegroup="P 1" unit_cell=conventional occupancy="_JSON {\"0\": {\"Cs\": 1.0}, \"1\": {\"Sn\": 1.0}, \"2\": {\"I\": 1.0}, \"3\": {\"I\": 1.0}, \"4\": {\"I\": 1.0}, \"5\": {\"Cs\": 1.0}, \"6\": {\"Sn\": 1.0}, \"7\": {\"Br\": 1.0}, \"8\": {\"Br\": 1.0}, \"9\": {\"I\": 1.0}, \"10\": {\"Cs\": 1.0}, \"11\": {\"Sn\": 1.0}, \"12\": {\"Br\": 1.0}, \"13\": {\"Br\": 1.0}, \"14\": {\"I\": 1.0}, \"15\": {\"Cs\": 1.0}, \"16\": {\"Sn\": 1.0}, \"17\": {\"I\": 1.0}, \"18\": {\"Br\": 1.0}, \"19\": {\"I\": 1.0}, \"20\": {\"Cs\": 1.0}, \"21\": {\"Sn\": 1.0}, \"22\": {\"I\": 1.0}, \"23\": {\"I\": 1.0}, \"24\": {\"Br\": 1.0}, \"25\": {\"Cs\": 1.0}, \"26\": {\"Sn\": 1.0}, \"27\": {\"I\": 1.0}, \"28\": {\"I\": 1.0}, \"29\": {\"Br\": 1.0}, \"30\": {\"Cs\": 1.0}, \"31\": {\"Sn\": 1.0}, \"32\": {\"I\": 1.0}, \"33\": {\"Br\": 1.0}, \"34\": {\"Br\": 1.0}, \"35\": {\"Cs\": 1.0}, \"36\": {\"Sn\": 1.0}, \"37\": {\"I\": 1.0}, \"38\": {\"Br\": 1.0}, \"39\": {\"Br\": 1.0}}" candidate_id=c4e5dd7c49e032d1 formula=CsSnBr0.44I0.563 config_index=3 rattle_stdev=0.08 method=PBE fidelity=phase2_force energy=-118.12837657081324 stress="-0.0004363098894045636 9.28474837055788e-05 -2.7483937574285696e-05 9.28474837055788e-05 -0.0005127374031718189 0.00019792353840858022 -2.7483937574285696e-05 0.00019792353840858022 -0.0024909401112657025" pbc="T T T"
Cs      -0.01769856      12.24296384      12.28594620        0       0.01561561       0.02950852       0.03483853
Sn       3.15416348       3.15351360       3.27776099        1      -0.31827697      -0.34724853      -0.76258069
I        3.12526007       3.11332099      12.16582321        2       0.04000985      -0.06183592      -0.18896948
I        3.31066829      -0.01857898       2.97537718        3       0.01331235      -0.17905214       0.01441708
I       -0.00364982       3.02114552       3.03479181        4       0.13907197       0.06730157       0.06396709
Cs       0.07004119      -0.04848997       6.13648799        5      -0.03579648       0.01488146      -0.02041449
Sn       3.17796646       2.85161304       9.00627200        6      -0.03802594       0.28437613       0.63826086
Br       3.12069352       2.92764035       5.96892039        7       0.00662697      -0.00670445       0.52524792
Br       3.22117716      12.00068543       9.17631134        8       0.01652634       0.42565119      -0.00899521
I       -0.04327308       2.98378902       9.33658114        9       0.29312915       0.02094192      -0.11452057
Cs       0.05417916       6.13440826      12.15811046       10       0.02300583      -0.10315017       0.02355670
Sn       3.13388000       8.86085317       2.89428085       11      -0.12924339       0.37815368       0.00006183
Br       3.29009783       8.96178904       0.03154519       12      -0.03028406      -0.06687735       0.36813711
Br       3.15436716       5.99748795       3.20097746       13      -0.00198418       0.21428994       0.02361236
I       -0.08917283       9.00545888       2.99497709       14       0.85316452      -0.07160750      -0.00658714
Cs       0.03162554       6.05226549       6.12399944       15      -0.03013860      -0.01397527       0.00110149
Sn       3.20112843       9.07575870       9.30949033       16      -0.10499339      -0.46236782       0.06654597
I        3.30603947       9.04752697       6.34819890       17      -0.04659385       0.03025671      -0.50910980
Br       3.21024630       6.10450895       9.19311963       18       0.00476007      -0.13440091      -0.03711352
I        0.06896941       8.89543711       9.31786499       19      -0.13645689       0.07139612      -0.02367353
Cs       6.12803722      12.05713785      12.21277604       20      -0.02760287       0.02349058      -0.00266723
Sn       8.85231393       3.03768750       3.05563652       21       0.44773161       0.24781056       0.02463700
I        9.00991096       3.23224365       0.05148772       22      -0.01869628      -0.02965933      -0.18056283
I        9.21256506      -0.01418713       2.99877734       23      -0.09974253      -0.24261066       0.01635200
Br       6.10688379       3.22296385       3.16461783       24      -0.22794415      -0.03395325       0.04365599
Cs       6.05442357       0.06457414       6.23957757       25       0.03787383      -0.02335649      -0.00929076
Sn       9.02117171       3.12248833       9.18302798       26       0.04420683      -0.14431499       0.08186326
I        9.15525944       3.10357327       6.13663820       27      -0.00669480       0.00465990       0.11594760
I        9.04358140       0.13252414       9.14519714       28      -0.01525789      -0.84205226       0.07939176
Br       6.14394333       3.09256138       9.26072133       29      -0.31463820      -0.05686442      -0.11667456
Cs       5.96601229       6.08705701      12.35423981       30       0.01268786      -0.04264496      -0.04871381
Sn       9.03722958       8.92458649       3.13308115       31       0.22684656      -0.16704332       0.19549652
I        9.04974094       8.89338940      12.36607018       32       0.04288912      -0.00632184       0.09029827
Br       8.93931388       5.93784245       3.21924677       33       0.06200267       0.22520930      -0.00244033
Br       6.37591434       8.89441300       2.97294503       34      -0.99911720       0.01580998       0.00454701
Cs       6.09663125       6.11147834       6.20387468       35       0.03160108      -0.03611429       0.02485986
Sn       9.00400028       8.89150124       9.38872278       36       0.08020255       0.05003014      -0.33402748
I        9.00701676       8.90373972       6.27262974       37       0.03326147       0.03028533      -0.12802409
Br       8.98540049       5.86926394       9.28797228       38      -0.00000996       0.91553480      -0.00229539
Br       6.13389606       8.99134518       9.35082603       39       0.13435730       0.00881431       0.05474057
