Cs Pb Br Cs Pb Br Cs Pb Br Cs Ge Br Cs Ge Br Cs Pb Br Cs Ge Br Cs Pb Br
 1.0000000000000000
    11.8789696598652839    0.0000000000000000    0.0000000000000000
     0.0000000000000000   11.8789696598652839    0.0000000000000000
     0.0000000000000000    0.0000000000000000   11.8789696598652839
 Cs  Pb  Br  Cs  Pb  Br  Cs  Pb  Br  Cs  Ge  Br  Cs  Ge  Br  Cs  Pb  Br  Cs  Ge  Br  Cs  Pb  Br 
   1   1   3   1   1   3   1   1   3   1   1   3   1   1   3   1   1   3   1   1   3   1   1   3
Cartesian
  0.0000000000000000  0.0000000000000000  0.0000000000000000
  2.9697424149663210  2.9697424149663210  2.9697424149663210
  2.9697424149663210  2.9697424149663210  0.0000000000000000
  2.9697424149663210  0.0000000000000000  2.9697424149663210
  0.0000000000000000  2.9697424149663210  2.9697424149663210
  0.0000000000000000  0.0000000000000000  5.9394848299326410
  2.9697424149663210  2.9697424149663210  8.9092272448989629
  2.9697424149663210  2.9697424149663210  5.9394848299326410
  2.9697424149663210  0.0000000000000000  8.9092272448989629
  0.0000000000000000  2.9697424149663210  8.9092272448989629
  0.0000000000000000  5.9394848299326410  0.0000000000000000
  2.9697424149663210  8.9092272448989629  2.9697424149663210
  2.9697424149663210  8.9092272448989629  0.0000000000000000
  2.9697424149663210  5.9394848299326410  2.9697424149663210
  0.0000000000000000  8.9092272448989629  2.9697424149663210
  0.0000000000000000  5.9394848299326410  5.9394848299326410
  2.9697424149663210  8.9092272448989629  8.9092272448989629
  2.9697424149663210  8.9092272448989629  5.9394848299326410
  2.9697424149663210  5.9394848299326410  8.9092272448989629
  0.0000000000000000  8.9092272448989629  8.9092272448989629
  5.9394848299326410  0.0000000000000000  0.0000000000000000
  8.9092272448989629  2.9697424149663210  2.9697424149663210
  8.9092272448989629  2.9697424149663210  0.0000000000000000
  8.9092272448989629  0.0000000000000000  2.9697424149663210
  5.9394848299326410  2.9697424149663210  2.9697424149663210
  5.9394848299326410  0.0000000000000000  5.9394848299326410
  8.9092272448989629  2.9697424149663210  8.9092272448989629
  8.9092272448989629  2.9697424149663210  5.9394848299326410
  8.9092272448989629  0.0000000000000000  8.9092272448989629
  5.9394848299326410  2.9697424149663210  8.9092272448989629
  5.9394848299326410  5.9394848299326410  0.0000000000000000
  8.9092272448989629  8.9092272448989629  2.9697424149663210
  8.9092272448989629  8.9092272448989629  0.0000000000000000
  8.9092272448989629  5.9394848299326410  2.9697424149663210
  5.9394848299326410  8.9092272448989629  2.9697424149663210
  5.9394848299326410  5.9394848299326410  5.9394848299326410
  8.9092272448989629  8.9092272448989629  8.9092272448989629
  8.9092272448989629  8.9092272448989629  5.9394848299326410
  8.9092272448989629  5.9394848299326410  8.9092272448989629
  5.9394848299326410  8.9092272448989629  8.9092272448989629
