Rb Sn I  Rb Sn I  Rb Sn I  Rb Ge I  Rb Ge I  Rb Sn I  Rb Ge I  Rb Sn I 
 1.0000000000000000
    12.7461654163124685    0.0000000000000000    0.0000000000000000
     0.0000000000000000   12.7461654163124685    0.0000000000000000
     0.0000000000000000    0.0000000000000000   12.7461654163124685
 Rb  Sn  I   Rb  Sn  I   Rb  Sn  I   Rb  Ge  I   Rb  Ge  I   Rb  Sn  I   Rb  Ge  I   Rb  Sn  I  
   1   1   3   1   1   3   1   1   3   1   1   3   1   1   3   1   1   3   1   1   3   1   1   3
Cartesian
  0.0000000000000000  0.0000000000000000  0.0000000000000000
  3.1865413540781162  3.1865413540781162  3.1865413540781162
  3.1865413540781162  3.1865413540781162  0.0000000000000000
  3.1865413540781162  0.0000000000000000  3.1865413540781162
  0.0000000000000000  3.1865413540781162  3.1865413540781162
  0.0000000000000000  0.0000000000000000  6.3730827081562333
  3.1865413540781162  3.1865413540781162  9.5596240622343522
  3.1865413540781162  3.1865413540781162  6.3730827081562333
  3.1865413540781162  0.0000000000000000  9.5596240622343522
  0.0000000000000000  3.1865413540781162  9.5596240622343522
  0.0000000000000000  6.3730827081562333  0.0000000000000000
  3.1865413540781162  9.5596240622343522  3.1865413540781162
  3.1865413540781162  9.5596240622343522  0.0000000000000000
  3.1865413540781162  6.3730827081562333  3.1865413540781162
  0.0000000000000000  9.5596240622343522  3.1865413540781162
  0.0000000000000000  6.3730827081562333  6.3730827081562333
  3.1865413540781162  9.5596240622343522  9.5596240622343522
  3.1865413540781162  9.5596240622343522  6.3730827081562333
  3.1865413540781162  6.3730827081562333  9.5596240622343522
  0.0000000000000000  9.5596240622343522  9.5596240622343522
  6.3730827081562333  0.0000000000000000  0.0000000000000000
  9.5596240622343522  3.1865413540781162  3.1865413540781162
  9.5596240622343522  3.1865413540781162  0.0000000000000000
  9.5596240622343522  0.0000000000000000  3.1865413540781162
  6.3730827081562333  3.1865413540781162  3.1865413540781162
  6.3730827081562333  0.0000000000000000  6.3730827081562333
  9.5596240622343522  3.1865413540781162  9.5596240622343522
  9.5596240622343522  3.1865413540781162  6.3730827081562333
  9.5596240622343522  0.0000000000000000  9.5596240622343522
  6.3730827081562333  3.1865413540781162  9.5596240622343522
  6.3730827081562333  6.3730827081562333  0.0000000000000000
  9.5596240622343522  9.5596240622343522  3.1865413540781162
  9.5596240622343522  9.5596240622343522  0.0000000000000000
  9.5596240622343522  6.3730827081562333  3.1865413540781162
  6.3730827081562333  9.5596240622343522  3.1865413540781162
  6.3730827081562333  6.3730827081562333  6.3730827081562333
  9.5596240622343522  9.5596240622343522  9.5596240622343522
  9.5596240622343522  9.5596240622343522  6.3730827081562333
  9.5596240622343522  6.3730827081562333  9.5596240622343522
  6.3730827081562333  9.5596240622343522  9.5596240622343522
