Cs Pb I  Cs Pb I  Cs Ge I  Cs Ge I  Cs Ge I  Cs Pb I  Cs Ge I  Cs Pb I 
 1.0000000000000000
    12.7320232806887379    0.0000000000000000    0.0000000000000000
     0.0000000000000000   12.7320232806887379    0.0000000000000000
     0.0000000000000000    0.0000000000000000   12.7320232806887379
 Cs  Pb  I   Cs  Pb  I   Cs  Ge  I   Cs  Ge  I   Cs  Ge  I   Cs  Pb  I   Cs  Ge  I   Cs  Pb  I  
   1   1   3   1   1   3   1   1   3   1   1   3   1   1   3   1   1   3   1   1   3   1   1   3
Cartesian
  0.0000000000000000  0.0000000000000000  0.0000000000000000
  3.1830058201721836  3.1830058201721836  3.1830058201721836
  3.1830058201721836  3.1830058201721836  0.0000000000000000
  3.1830058201721836  0.0000000000000000  3.1830058201721836
  0.0000000000000000  3.1830058201721836  3.1830058201721836
  0.0000000000000000  0.0000000000000000  6.3660116403443681
  3.1830058201721836  3.1830058201721836  9.5490174605165539
  3.1830058201721836  3.1830058201721836  6.3660116403443681
  3.1830058201721836  0.0000000000000000  9.5490174605165539
  0.0000000000000000  3.1830058201721836  9.5490174605165539
  0.0000000000000000  6.3660116403443681  0.0000000000000000
  3.1830058201721836  9.5490174605165539  3.1830058201721836
  3.1830058201721836  9.5490174605165539  0.0000000000000000
  3.1830058201721836  6.3660116403443681  3.1830058201721836
  0.0000000000000000  9.5490174605165539  3.1830058201721836
  0.0000000000000000  6.3660116403443681  6.3660116403443681
  3.1830058201721836  9.5490174605165539  9.5490174605165539
  3.1830058201721836  9.5490174605165539  6.3660116403443681
  3.1830058201721836  6.3660116403443681  9.5490174605165539
  0.0000000000000000  9.5490174605165539  9.5490174605165539
  6.3660116403443681  0.0000000000000000  0.0000000000000000
  9.5490174605165539  3.1830058201721836  3.1830058201721836
  9.5490174605165539  3.1830058201721836  0.0000000000000000
  9.5490174605165539  0.0000000000000000  3.1830058201721836
  6.3660116403443681  3.1830058201721836  3.1830058201721836
  6.3660116403443681  0.0000000000000000  6.3660116403443681
  9.5490174605165539  3.1830058201721836  9.5490174605165539
  9.5490174605165539  3.1830058201721836  6.3660116403443681
  9.5490174605165539  0.0000000000000000  9.5490174605165539
  6.3660116403443681  3.1830058201721836  9.5490174605165539
  6.3660116403443681  6.3660116403443681  0.0000000000000000
  9.5490174605165539  9.5490174605165539  3.1830058201721836
  9.5490174605165539  9.5490174605165539  0.0000000000000000
  9.5490174605165539  6.3660116403443681  3.1830058201721836
  6.3660116403443681  9.5490174605165539  3.1830058201721836
  6.3660116403443681  6.3660116403443681  6.3660116403443681
  9.5490174605165539  9.5490174605165539  9.5490174605165539
  9.5490174605165539  9.5490174605165539  6.3660116403443681
  9.5490174605165539  6.3660116403443681  9.5490174605165539
  6.3660116403443681  9.5490174605165539  9.5490174605165539
