Cs Pb I  Cs Pb I  Cs Pb I  Cs Pb I  Cs Pb I  Cs Pb I  Cs Sn I  Cs Pb I 
 1.0000000000000000
    13.5552369953461156    0.0000000000000000    0.0000000000000000
     0.0000000000000000   13.5552369953461156    0.0000000000000000
     0.0000000000000000    0.0000000000000000   13.5552369953461156
 Cs  Pb  I   Cs  Pb  I   Cs  Pb  I   Cs  Pb  I   Cs  Pb  I   Cs  Pb  I   Cs  Sn  I   Cs  Pb  I  
   1   1   3   1   1   3   1   1   3   1   1   3   1   1   3   1   1   3   1   1   3   1   1   3
Cartesian
  0.0000000000000000  0.0000000000000000  0.0000000000000000
  3.3888092488365280  3.3888092488365280  3.3888092488365280
  3.3888092488365280  3.3888092488365280  0.0000000000000000
  3.3888092488365280  0.0000000000000000  3.3888092488365280
  0.0000000000000000  3.3888092488365280  3.3888092488365280
  0.0000000000000000  0.0000000000000000  6.7776184976730569
  3.3888092488365280  3.3888092488365280 10.1664277465095871
  3.3888092488365280  3.3888092488365280  6.7776184976730569
  3.3888092488365280  0.0000000000000000 10.1664277465095871
  0.0000000000000000  3.3888092488365280 10.1664277465095871
  0.0000000000000000  6.7776184976730569  0.0000000000000000
  3.3888092488365280 10.1664277465095871  3.3888092488365280
  3.3888092488365280 10.1664277465095871  0.0000000000000000
  3.3888092488365280  6.7776184976730569  3.3888092488365280
  0.0000000000000000 10.1664277465095871  3.3888092488365280
  0.0000000000000000  6.7776184976730569  6.7776184976730569
  3.3888092488365280 10.1664277465095871 10.1664277465095871
  3.3888092488365280 10.1664277465095871  6.7776184976730569
  3.3888092488365280  6.7776184976730569 10.1664277465095871
  0.0000000000000000 10.1664277465095871 10.1664277465095871
  6.7776184976730569  0.0000000000000000  0.0000000000000000
 10.1664277465095871  3.3888092488365280  3.3888092488365280
 10.1664277465095871  3.3888092488365280  0.0000000000000000
 10.1664277465095871  0.0000000000000000  3.3888092488365280
  6.7776184976730569  3.3888092488365280  3.3888092488365280
  6.7776184976730569  0.0000000000000000  6.7776184976730569
 10.1664277465095871  3.3888092488365280 10.1664277465095871
 10.1664277465095871  3.3888092488365280  6.7776184976730569
 10.1664277465095871  0.0000000000000000 10.1664277465095871
  6.7776184976730569  3.3888092488365280 10.1664277465095871
  6.7776184976730569  6.7776184976730569  0.0000000000000000
 10.1664277465095871 10.1664277465095871  3.3888092488365280
 10.1664277465095871 10.1664277465095871  0.0000000000000000
 10.1664277465095871  6.7776184976730569  3.3888092488365280
  6.7776184976730569 10.1664277465095871  3.3888092488365280
  6.7776184976730569  6.7776184976730569  6.7776184976730569
 10.1664277465095871 10.1664277465095871 10.1664277465095871
 10.1664277465095871 10.1664277465095871  6.7776184976730569
 10.1664277465095871  6.7776184976730569 10.1664277465095871
  6.7776184976730569 10.1664277465095871 10.1664277465095871
