Cs Pb I  Cs Pb I  Cs Pb I  Cs Sn I  Cs Pb I  Cs Pb I  Cs Sn I  Cs Pb I 
 1.0000000000000000
    13.5487316129591981    0.0000000000000000    0.0000000000000000
     0.0000000000000000   13.5487316129591981    0.0000000000000000
     0.0000000000000000    0.0000000000000000   13.5487316129591981
 Cs  Pb  I   Cs  Pb  I   Cs  Pb  I   Cs  Sn  I   Cs  Pb  I   Cs  Pb  I   Cs  Sn  I   Cs  Pb  I  
   1   1   3   1   1   3   1   1   3   1   1   3   1   1   3   1   1   3   1   1   3   1   1   3
Cartesian
  0.0000000000000000  0.0000000000000000  0.0000000000000000
  3.3871829032397986  3.3871829032397986  3.3871829032397986
  3.3871829032397986  3.3871829032397986  0.0000000000000000
  3.3871829032397986  0.0000000000000000  3.3871829032397986
  0.0000000000000000  3.3871829032397986  3.3871829032397986
  0.0000000000000000  0.0000000000000000  6.7743658064795982
  3.3871829032397986  3.3871829032397986 10.1615487097193977
  3.3871829032397986  3.3871829032397986  6.7743658064795982
  3.3871829032397986  0.0000000000000000 10.1615487097193977
  0.0000000000000000  3.3871829032397986 10.1615487097193977
  0.0000000000000000  6.7743658064795982  0.0000000000000000
  3.3871829032397986 10.1615487097193977  3.3871829032397986
  3.3871829032397986 10.1615487097193977  0.0000000000000000
  3.3871829032397986  6.7743658064795982  3.3871829032397986
  0.0000000000000000 10.1615487097193977  3.3871829032397986
  0.0000000000000000  6.7743658064795982  6.7743658064795982
  3.3871829032397986 10.1615487097193977 10.1615487097193977
  3.3871829032397986 10.1615487097193977  6.7743658064795982
  3.3871829032397986  6.7743658064795982 10.1615487097193977
  0.0000000000000000 10.1615487097193977 10.1615487097193977
  6.7743658064795982  0.0000000000000000  0.0000000000000000
 10.1615487097193977  3.3871829032397986  3.3871829032397986
 10.1615487097193977  3.3871829032397986  0.0000000000000000
 10.1615487097193977  0.0000000000000000  3.3871829032397986
  6.7743658064795982  3.3871829032397986  3.3871829032397986
  6.7743658064795982  0.0000000000000000  6.7743658064795982
 10.1615487097193977  3.3871829032397986 10.1615487097193977
 10.1615487097193977  3.3871829032397986  6.7743658064795982
 10.1615487097193977  0.0000000000000000 10.1615487097193977
  6.7743658064795982  3.3871829032397986 10.1615487097193977
  6.7743658064795982  6.7743658064795982  0.0000000000000000
 10.1615487097193977 10.1615487097193977  3.3871829032397986
 10.1615487097193977 10.1615487097193977  0.0000000000000000
 10.1615487097193977  6.7743658064795982  3.3871829032397986
  6.7743658064795982 10.1615487097193977  3.3871829032397986
  6.7743658064795982  6.7743658064795982  6.7743658064795982
 10.1615487097193977 10.1615487097193977 10.1615487097193977
 10.1615487097193977 10.1615487097193977  6.7743658064795982
 10.1615487097193977  6.7743658064795982 10.1615487097193977
  6.7743658064795982 10.1615487097193977 10.1615487097193977
