Cs Sn I  Br Cl Cs Sn Cl Cs Sn Cl I  Cs Sn I  Cl I  Cs Sn Cl Br Cl Cs Sn Cl I  Cl Cs Sn I  Cl Cs Sn Br Cl
 1.0000000000000000
    12.4249975162975375    0.0000000000000000    0.0000000000000000
     0.0000000000000000   12.4249975162975375    0.0000000000000000
     0.0000000000000000    0.0000000000000000   12.4249975162975375
 Cs  Sn  I   Br  Cl  Cs  Sn  Cl  Cs  Sn  Cl  I   Cs  Sn  I   Cl  I   Cs  Sn  Cl  Br  Cl  Cs  Sn  Cl  I   Cl  Cs  Sn  I   Cl  Cs  Sn  Br  Cl 
   1   1   1   1   1   1   1   3   1   1   2   1   1   1   1   1   1   1   1   1   1   1   1   1   1   1   1   1   1   1   2   1   1   1   2
Cartesian
  0.0000000000000000  0.0000000000000000  0.0000000000000000
  3.1062493790743844  3.1062493790743844  3.1062493790743844
  3.1062493790743844  3.1062493790743844  0.0000000000000000
  3.1062493790743844  0.0000000000000000  3.1062493790743844
  0.0000000000000000  3.1062493790743844  3.1062493790743844
  0.0000000000000000  0.0000000000000000  6.2124987581487678
  3.1062493790743844  3.1062493790743844  9.3187481372231531
  3.1062493790743844  3.1062493790743844  6.2124987581487678
  3.1062493790743844  0.0000000000000000  9.3187481372231531
  0.0000000000000000  3.1062493790743844  9.3187481372231531
  0.0000000000000000  6.2124987581487678  0.0000000000000000
  3.1062493790743844  9.3187481372231531  3.1062493790743844
  3.1062493790743844  9.3187481372231531  0.0000000000000000
  3.1062493790743844  6.2124987581487678  3.1062493790743844
  0.0000000000000000  9.3187481372231531  3.1062493790743844
  0.0000000000000000  6.2124987581487678  6.2124987581487678
  3.1062493790743844  9.3187481372231531  9.3187481372231531
  3.1062493790743844  9.3187481372231531  6.2124987581487678
  3.1062493790743844  6.2124987581487678  9.3187481372231531
  0.0000000000000000  9.3187481372231531  9.3187481372231531
  6.2124987581487678  0.0000000000000000  0.0000000000000000
  9.3187481372231531  3.1062493790743844  3.1062493790743844
  9.3187481372231531  3.1062493790743844  0.0000000000000000
  9.3187481372231531  0.0000000000000000  3.1062493790743844
  6.2124987581487678  3.1062493790743844  3.1062493790743844
  6.2124987581487678  0.0000000000000000  6.2124987581487678
  9.3187481372231531  3.1062493790743844  9.3187481372231531
  9.3187481372231531  3.1062493790743844  6.2124987581487678
  9.3187481372231531  0.0000000000000000  9.3187481372231531
  6.2124987581487678  3.1062493790743844  9.3187481372231531
  6.2124987581487678  6.2124987581487678  0.0000000000000000
  9.3187481372231531  9.3187481372231531  3.1062493790743844
  9.3187481372231531  9.3187481372231531  0.0000000000000000
  9.3187481372231531  6.2124987581487678  3.1062493790743844
  6.2124987581487678  9.3187481372231531  3.1062493790743844
  6.2124987581487678  6.2124987581487678  6.2124987581487678
  9.3187481372231531  9.3187481372231531  9.3187481372231531
  9.3187481372231531  9.3187481372231531  6.2124987581487678
  9.3187481372231531  6.2124987581487678  9.3187481372231531
  6.2124987581487678  9.3187481372231531  9.3187481372231531
