Cs Pb I  Cs Pb I  Cs Pb I  Cs Pb I  Cs Pb I  Cs Pb I  K  Pb I  Cs Pb I 
 1.0000000000000000
    13.5600453214581833    0.0000000000000000    0.0000000000000000
     0.0000000000000000   13.5600453214581833    0.0000000000000000
     0.0000000000000000    0.0000000000000000   13.5600453214581833
 Cs  Pb  I   Cs  Pb  I   Cs  Pb  I   Cs  Pb  I   Cs  Pb  I   Cs  Pb  I   K   Pb  I   Cs  Pb  I  
   1   1   3   1   1   3   1   1   3   1   1   3   1   1   3   1   1   3   1   1   3   1   1   3
Cartesian
  0.0000000000000000  0.0000000000000000  0.0000000000000000
  3.3900113303645458  3.3900113303645458  3.3900113303645458
  3.3900113303645458  3.3900113303645458  0.0000000000000000
  3.3900113303645458  0.0000000000000000  3.3900113303645458
  0.0000000000000000  3.3900113303645458  3.3900113303645458
  0.0000000000000000  0.0000000000000000  6.7800226607290908
  3.3900113303645458  3.3900113303645458 10.1700339910936393
  3.3900113303645458  3.3900113303645458  6.7800226607290908
  3.3900113303645458  0.0000000000000000 10.1700339910936393
  0.0000000000000000  3.3900113303645458 10.1700339910936393
  0.0000000000000000  6.7800226607290908  0.0000000000000000
  3.3900113303645458 10.1700339910936393  3.3900113303645458
  3.3900113303645458 10.1700339910936393  0.0000000000000000
  3.3900113303645458  6.7800226607290908  3.3900113303645458
  0.0000000000000000 10.1700339910936393  3.3900113303645458
  0.0000000000000000  6.7800226607290908  6.7800226607290908
  3.3900113303645458 10.1700339910936393 10.1700339910936393
  3.3900113303645458 10.1700339910936393  6.7800226607290908
  3.3900113303645458  6.7800226607290908 10.1700339910936393
  0.0000000000000000 10.1700339910936393 10.1700339910936393
  6.7800226607290908  0.0000000000000000  0.0000000000000000
 10.1700339910936393  3.3900113303645458  3.3900113303645458
 10.1700339910936393  3.3900113303645458  0.0000000000000000
 10.1700339910936393  0.0000000000000000  3.3900113303645458
  6.7800226607290908  3.3900113303645458  3.3900113303645458
  6.7800226607290908  0.0000000000000000  6.7800226607290908
 10.1700339910936393  3.3900113303645458 10.1700339910936393
 10.1700339910936393  3.3900113303645458  6.7800226607290908
 10.1700339910936393  0.0000000000000000 10.1700339910936393
  6.7800226607290908  3.3900113303645458 10.1700339910936393
  6.7800226607290908  6.7800226607290908  0.0000000000000000
 10.1700339910936393 10.1700339910936393  3.3900113303645458
 10.1700339910936393 10.1700339910936393  0.0000000000000000
 10.1700339910936393  6.7800226607290908  3.3900113303645458
  6.7800226607290908 10.1700339910936393  3.3900113303645458
  6.7800226607290908  6.7800226607290908  6.7800226607290908
 10.1700339910936393 10.1700339910936393 10.1700339910936393
 10.1700339910936393 10.1700339910936393  6.7800226607290908
 10.1700339910936393  6.7800226607290908 10.1700339910936393
  6.7800226607290908 10.1700339910936393 10.1700339910936393
