Cs Ge Cl Cs Ge Cl Cs Ge Cl Cs Ge Cl Cs Ge Cl Cs Ge Cl Cs Ge Cl Cs Ge Cl
 1.0000000000000000
    10.1599930748007878    0.0000000000000000    0.0000000000000000
     0.0000000000000000   10.1599930748007878    0.0000000000000000
     0.0000000000000000    0.0000000000000000   10.1599930748007878
 Cs  Ge  Cl  Cs  Ge  Cl  Cs  Ge  Cl  Cs  Ge  Cl  Cs  Ge  Cl  Cs  Ge  Cl  Cs  Ge  Cl  Cs  Ge  Cl 
   1   1   3   1   1   3   1   1   3   1   1   3   1   1   3   1   1   3   1   1   3   1   1   3
Cartesian
  0.0000000000000000  0.0000000000000000  0.0000000000000000
  2.5399982687001970  2.5399982687001970  2.5399982687001970
  2.5399982687001970  2.5399982687001970  0.0000000000000000
  2.5399982687001970  0.0000000000000000  2.5399982687001970
  0.0000000000000000  2.5399982687001970  2.5399982687001970
  0.0000000000000000  0.0000000000000000  5.0799965374003930
  2.5399982687001970  2.5399982687001970  7.6199948061005909
  2.5399982687001970  2.5399982687001970  5.0799965374003930
  2.5399982687001970  0.0000000000000000  7.6199948061005909
  0.0000000000000000  2.5399982687001970  7.6199948061005909
  0.0000000000000000  5.0799965374003930  0.0000000000000000
  2.5399982687001970  7.6199948061005909  2.5399982687001970
  2.5399982687001970  7.6199948061005909  0.0000000000000000
  2.5399982687001970  5.0799965374003930  2.5399982687001970
  0.0000000000000000  7.6199948061005909  2.5399982687001970
  0.0000000000000000  5.0799965374003930  5.0799965374003930
  2.5399982687001970  7.6199948061005909  7.6199948061005909
  2.5399982687001970  7.6199948061005909  5.0799965374003930
  2.5399982687001970  5.0799965374003930  7.6199948061005909
  0.0000000000000000  7.6199948061005909  7.6199948061005909
  5.0799965374003930  0.0000000000000000  0.0000000000000000
  7.6199948061005909  2.5399982687001970  2.5399982687001970
  7.6199948061005909  2.5399982687001970  0.0000000000000000
  7.6199948061005909  0.0000000000000000  2.5399982687001970
  5.0799965374003930  2.5399982687001970  2.5399982687001970
  5.0799965374003930  0.0000000000000000  5.0799965374003930
  7.6199948061005909  2.5399982687001970  7.6199948061005909
  7.6199948061005909  2.5399982687001970  5.0799965374003930
  7.6199948061005909  0.0000000000000000  7.6199948061005909
  5.0799965374003930  2.5399982687001970  7.6199948061005909
  5.0799965374003930  5.0799965374003930  0.0000000000000000
  7.6199948061005909  7.6199948061005909  2.5399982687001970
  7.6199948061005909  7.6199948061005909  0.0000000000000000
  7.6199948061005909  5.0799965374003930  2.5399982687001970
  5.0799965374003930  7.6199948061005909  2.5399982687001970
  5.0799965374003930  5.0799965374003930  5.0799965374003930
  7.6199948061005909  7.6199948061005909  7.6199948061005909
  7.6199948061005909  7.6199948061005909  5.0799965374003930
  7.6199948061005909  5.0799965374003930  7.6199948061005909
  5.0799965374003930  7.6199948061005909  7.6199948061005909
