40
Lattice="12.615149141211768 0.0 0.0 0.002973755038370157 12.500029046989743 0.0 -0.0011960625841031022 0.0030014266348013423 12.615148727457987" Properties=species:S:1:pos:R:3:spacegroup_kinds:I:1:forces:R:3 spacegroup="P 1" unit_cell=conventional candidate_id=7602826b88fed968 formula=CsPbCl0.17I0.833 config_index=0 rattle_stdev=0.0 method=PBE fidelity=phase2_force energy=-117.30692819519967 stress="-0.0006525416647528234 -1.2206153081652563e-05 9.982395110232011e-06 -1.2206153081652563e-05 0.00015147480536277513 -1.2363738999596263e-05 9.982395110232011e-06 -1.2363738999596263e-05 -0.0006525851912407951" pbc="T T T"
Cs       0.00762519       0.03049040       0.02740445        0       0.00594431      -0.00007842      -0.00267221
Pb       3.49890657       3.14794064       3.14934541        1      -0.00340629       0.01054530      -0.00350903
I        3.24340438       3.20139723       0.00569798        2      -0.00611848      -0.00885400      -0.00529766
I        3.23374595       0.00073126       3.07353711        3      -0.00519331       0.00000639       0.00519122
I       12.56844057       3.24481785       3.16281428        4      -0.06159405       0.00528211       0.00132659
Cs       0.04229646      12.50152026       6.26765741        5       0.00554420       0.00000058      -0.00552877
Pb       3.16368086       3.43689265       9.47921808        6       0.01706287      -0.02741837       0.00890984
I        3.23736517       3.20494121       6.30632267        7      -0.00484369      -0.00524776       0.00464870
I        3.14394333      12.47026082       9.59694443        8      -0.00065454      -0.04312175       0.01262281
I        0.01144946       3.20739828       9.45308812        9      -0.01852492      -0.00763495      -0.00434616
Cs       0.01562948       6.21822319       0.02282874       10       0.01423868       0.00377393      -0.00419217
Pb       3.16018775       9.35350605       2.80911803       11       0.00398934      -0.01055801       0.00324915
Cl       3.15243162       9.25103121       0.02166650       12      -0.00329374      -0.01048304      -0.00143820
I        3.23674044       6.25074543       3.07202964       13      -0.01387759      -0.00000227       0.01384268
I        0.00317224       9.29731877       3.07037349       14      -0.00467502       0.00524520       0.00483926
Cs       0.03751795       6.25150652       6.27094873       15       0.00480749      -0.00000294      -0.00479858
Pb       3.15104803       9.23305351       9.60317774       16      -0.01217902       0.08805026      -0.10615682
I        3.14635967       9.25747564       6.35475483       17      -0.00134046      -0.00527354       0.06174317
Cl       3.15207294       6.23736704       9.59049825       18      -0.00484828       0.00396110       0.01754867
I        0.01180394       9.26177125       9.59187054       19      -0.02132851      -0.00923586       0.01905306
Cs       6.31648302      12.50302878      12.60801865       20       0.00106475       0.00000335      -0.00106397
Pb       9.32002402       3.27001166       3.15781195       21       0.10620010      -0.08807008       0.01280054
I        9.33261106       3.24403102       0.01089960       22      -0.01437055       0.00374581      -0.02379978
I        9.32548644       0.03280475       3.16568737       23      -0.01261200       0.04313382       0.00063634
Cl       6.28638166       3.24975419       3.15734161       24       0.00135512       0.01049528       0.00331119
Cs       6.28253931      12.47104407       6.29995383       25       0.00268857       0.00008258      -0.00594653
Pb       9.45599544       3.14157380       9.45850019       26      -0.00308244       0.02115770      -0.00957636
I        9.33102674       3.24203813       6.29706384       27      -0.01905433       0.00924767       0.02133096
I        9.47486568      12.50227740       9.44993551       28       0.00393221       0.00000278      -0.00392579
I        6.29628737       3.21635644       9.45206721       29       0.01731832      -0.00988972      -0.00503152
Cs       6.31061928       6.25301529      12.61239509       30      -0.00730600      -0.00000156       0.00730985
Pb       9.44536390       9.06613970       3.14381197       31      -0.00932385       0.02741855      -0.01654013
I        9.47286426       9.28592412       0.01115567       32       0.00509151       0.00988490      -0.01731919
Cl       9.33341635       6.26569471       3.15607556       33      -0.01757614      -0.00395757       0.00486636
I        6.30379815       9.29936239       3.06493116       34       0.00534081       0.00884896       0.00611637
Cs       6.28564358       6.28330863       6.29342203       35       0.00420250      -0.00378456      -0.01423702
Pb       9.46555258       9.36295795       9.46657803       36       0.00907783      -0.02115752       0.00258695
I        9.47124960       9.29637782       6.29599114       37       0.00435259       0.00764031       0.01852783
I        9.47245704       6.25226309       9.45085719       38       0.00840011      -0.00000475      -0.00834617
I        6.29796765       9.25828251       9.59088306       39       0.02382500      -0.00375113       0.01437839
40
Lattice="12.615149141211768 0.0 0.0 0.002973755038370157 12.500029046989743 0.0 -0.0011960625841031022 0.0030014266348013423 12.615148727457987" Properties=species:S:1:pos:R:3:spacegroup_kinds:I:1:forces:R:3 spacegroup="P 1" unit_cell=conventional candidate_id=7602826b88fed968 formula=CsPbCl0.17I0.833 config_index=1 rattle_stdev=0.08 method=PBE fidelity=phase2_force energy=-116.67053806989419 stress="-0.001915428453660339 -6.898353114820155e-05 1.3766475936191762e-05 -6.898353114820155e-05 -0.0007947321527945205 -0.0001751305035194913 1.3766475936191762e-05 -0.0001751305035194913 -0.003436073415914693" pbc="T T T"
Cs      -0.07929052      -0.04119481       0.00290050        0      -0.03441448       0.04109424       0.02770815
Pb       3.39171188       3.05141380       3.09800727        1       0.29225679       0.37202096       0.30361105
I        3.34804003       3.34903407       0.07202717        2      -0.06134244      -0.08263630      -0.11903050
I        3.23188205      -0.01595385       3.00020753        3       0.00164919      -0.01158471       0.00965674
I       12.48246116       3.23792637       3.25688136        4       0.39002842       0.00749814       0.02003013
Cs      -0.08851087      12.59977578       6.35376831        5       0.03907539       0.04737250      -0.05129996
Pb       3.19526269       3.40587658       9.52629022        6       0.05583331      -0.23708541      -0.09978956
I        3.12270126       3.17905523       6.40656145        7       0.02754536       0.02400418      -0.21437975
I        3.08548392      12.58453962       9.67251674        8      -0.00266790      -0.26929577      -0.01116759
I       -0.00967076       3.19434122       9.37595954        9       0.13592263      -0.00836437       0.01575822
Cs      -0.01178231       6.22213551      -0.01714182       10      -0.01173589      -0.03810032       0.01894851
Pb       2.98323539       9.37829300       2.68194593       11       0.91498284      -0.30781811      -0.05996846
Cl       3.21078798       9.24239911      -0.03034722       12      -0.08700007       0.01092453      -0.08872592
I        3.10129592       6.22126750       2.94479990       13      -0.00731457       0.06206367       0.09925195
I        0.12161271       9.33527398       3.14348259       14      -0.90264396       0.02209960       0.09867890
Cs       0.11435557       6.25826993       6.40832721       15       0.02371500      -0.04351131      -0.02926148
Pb       3.21919944       9.17266269       9.42016739       16       0.15792783       0.15057779       0.14633850
I        3.15509877       9.22146299       6.32171703       17      -0.00099394      -0.01657975       0.02597457
Cl       3.17759164       6.19407840       9.66639156       18      -0.02163366       0.32883764      -0.04677185
I        0.02391874       9.26792344       9.58711851       19       0.34563095      -0.00445797       0.04735717
Cs       6.31087192      12.45773685      12.63289908       20       0.02569600       0.01787166       0.01747174
Pb       9.37796072       3.31132766       3.23989440       21      -0.25503057      -0.23327451      -0.54468448
I        9.37422327       3.17444394       0.13094481       22       0.02465869       0.02355650      -0.51931690
I        9.41880422       0.07215790       3.10710639       23      -0.01264411      -0.04640601       0.11292039
Cl       6.34080615       3.29047394       3.09033872       24      -0.36870278      -0.01948750       0.05013602
Cs       6.33435090      12.47204723       6.42472096       25      -0.02206145       0.00336517      -0.02356068
Pb       9.53876307       3.16858922       9.35429136       26      -0.21963433       0.29943128       0.36780326
I        9.24154320       3.34679934       6.25560648       27      -0.05509935      -0.02843845       0.49680061
I        9.44341574      12.58571488       9.45591273       28       0.00127830      -0.19418393      -0.01369570
I        6.30344234       3.22066903       9.48554297       29       0.03225626      -0.00331175      -0.01065948
Cs       6.21240088       6.16585197      12.63776504       30       0.04300588       0.01058143       0.04060053
Pb       9.38293146       8.99764922       3.03822226       31      -0.07312958       0.23197784       0.33107494
I        9.50916679       9.36606611       0.12425444       32       0.02741055       0.00542812      -0.49929683
Cl       9.31820172       6.26810355       3.00620222       33       0.00613772      -0.01863736      -0.00080963
I        6.29445599       9.28916316       3.13710590       34       0.09703076      -0.02062408       0.04009785
Cs       6.18049381       6.27534457       6.30466602       35      -0.00308355      -0.02036530      -0.02900171
Pb       9.67585706       9.50342025       9.25572621       36      -0.51739481      -0.31812933       1.03976904
I        9.36831804       9.28264005       6.44002744       37      -0.01734019       0.02588689      -1.06252778
I        9.52115269       6.25478514       9.33354422       38      -0.00032071       0.24437028       0.08259651
I        6.32272291       9.34965993       9.55001553       39       0.02659088      -0.00374925       0.03512998
40
Lattice="12.615149141211768 0.0 0.0 0.002973755038370157 12.500029046989743 0.0 -0.0011960625841031022 0.0030014266348013423 12.615148727457987" Properties=species:S:1:pos:R:3:spacegroup_kinds:I:1:forces:R:3 spacegroup="P 1" unit_cell=conventional candidate_id=7602826b88fed968 formula=CsPbCl0.17I0.833 config_index=2 rattle_stdev=0.08 method=PBE fidelity=phase2_force energy=-116.85159875213911 stress="-0.0008731581355286811 -9.009722852150966e-05 2.9635066888463935e-05 -9.009722852150966e-05 -0.0018771285158181467 2.609956454018229e-05 2.9635066888463935e-05 2.609956454018229e-05 -0.0014194099669440532" pbc="T T T"
Cs      -0.00139186      -0.05563472       0.17020661        0       0.01157791       0.01032930      -0.05462799
Pb       3.38234790       3.12183498       3.04855370        1       0.13791887       0.38790627       0.21781700
I        3.27347370       3.13114544      -0.02230009        2      -0.02764519       0.02107272      -0.10486433
I        3.25747877       0.09680422       2.94801749        3      -0.04505606      -0.71140601       0.01541636
I       12.71676287       3.28433479       3.15235737        4      -0.32398950      -0.03981345      -0.04005661
Cs       0.01004680      12.42362728       6.23026007        5      -0.00316904      -0.00128065       0.03616699
Pb       3.10624714       3.53460411       9.41704208        6       0.44407125      -0.20153385       0.01461886
I        3.19028312       3.20033170       6.31268906        7       0.01067271      -0.07774226      -0.08311867
I        3.04928724      12.34636142       9.66992493        8       0.01329506       0.31379046       0.01602005
I        0.04446312       3.15173676       9.26998637        9      -0.19041706      -0.01215955       0.01645244
Cs      -0.04734984       6.13594186       0.03029339       10       0.04944788       0.01036465      -0.01922685
Pb       3.11785222       9.41592564       2.79305286       11       0.23043191      -0.32682783       0.00969870
Cl       3.11398293       9.16821024      -0.01855225       12       0.00704448       0.01178468       0.31590346
I        3.29993166       6.17674562       3.24883247       13      -0.02936330       0.63264521      -0.04402238
I       -0.10884666       9.27819098       3.08776074       14       0.58607388       0.03294011       0.03715823
Cs       0.00932713       6.25837656       6.27948089       15       0.00674476       0.00569389       0.00328959
Pb       3.13528553       9.34080822       9.63079166       16       0.05629753      -0.22535320      -0.11924957
I        3.19097123       9.20985283       6.41338140       17      -0.02764847       0.08100691      -0.17913253
Cl       3.25857316       6.17896440       9.55163778       18      -0.03150183       0.16224994       0.02858588
I        0.09795707       9.05414266       9.60522480       19      -0.22844942      -0.04153960       0.01489288
Cs       6.39959979      12.35834287      12.66870992       20      -0.01401351       0.03283946      -0.04912718
Pb       9.28001499       3.08246821       3.14917853       21      -0.09163180       0.23106845       0.14854693
I        9.21238804       3.28313331      -0.03335469       22       0.04241042       0.03258319       0.17087478
I        9.41008705      -0.03674068       3.15968008       23       0.00697236       0.09549261      -0.01928969
Cl       6.27780926       3.41765995       3.13009858       24       0.22248171      -0.13045765      -0.03794710
Cs       6.24030690      12.36747473       6.31708176       25       0.01308694      -0.01026041       0.02814509
Pb       9.54609700       3.17369667       9.51974701       26      -0.33486452      -0.04249500      -0.25845346
I        9.22277655       3.28794681       6.27945287       27       0.03120492      -0.05450458      -0.03651565
I        9.52648080      12.42189985       9.60191460       28       0.03485564       0.54970176       0.02401256
I        6.31363624       3.25635407       9.40193992       29       0.04196285      -0.05843523       0.00503154
Cs       6.23038855       6.19051048      12.62873731       30      -0.03478706      -0.03374466       0.02479319
Pb       9.48825126       8.98013990       2.96638359       31      -0.49032987      -0.14613533       0.69444746
I        9.52461867       9.26013726      -0.00264947       32       0.02005165      -0.00990561      -0.05838055
Cl       9.15034260       6.25673120       3.23250067       33       0.08512730      -0.04150896      -0.09555655
I        6.34017720       9.46431658       3.06992800       34      -0.35097055       0.04364916      -0.04273260
Cs       6.28587098       6.24702433       6.32330063       35       0.01098234      -0.01633963      -0.04466784
Pb       9.40050330       9.35483334       9.50223509       36       0.27114897       0.10857378      -0.38294635
I        9.36923931       9.30500437       6.36417009       37       0.04409517       0.08255913      -0.23471935
I        9.45990887       6.34736864       9.33307612       38       0.06300822      -0.69946666       0.01924207
I        6.36725091       9.18681134       9.54696541       39      -0.21860881       0.03418274       0.06872443
40
Lattice="12.615149141211768 0.0 0.0 0.002973755038370157 12.500029046989743 0.0 -0.0011960625841031022 0.0030014266348013423 12.615148727457987" Properties=species:S:1:pos:R:3:spacegroup_kinds:I:1:forces:R:3 spacegroup="P 1" unit_cell=conventional candidate_id=7602826b88fed968 formula=CsPbCl0.17I0.833 config_index=3 rattle_stdev=0.08 method=PBE fidelity=phase2_force energy=-116.61482895088677 stress="-0.002026737604898636 6.981515330001633e-05 -1.8728454991320502e-06 6.981515330001633e-05 -0.0007882091799321299 8.249983843719382e-05 -1.8728454991320502e-06 8.249983843719382e-05 -0.0016715098059114425" pbc="T T T"
Cs      -0.09805830       0.19183063       0.03120961        0       0.01622425       0.06720848       0.03737322
Pb       3.47989288       3.15467046       3.22610879        1      -0.19579177      -0.30360290      -0.70845777
I        3.18887650       3.24372286      -0.05629548        2       0.00364553       0.00610715      -0.06366930
I        3.34614245      -0.01724318       2.96906625        3       0.02257677      -0.21896682      -0.00315400
I       12.51415775       3.11514319       3.06041640        4       0.04717706       0.05390300       0.03889871
Cs       0.02435273      12.43347538       6.20719820        5      -0.02576831       0.02184623      -0.03028926
Pb       3.18473452       3.23247720       9.34559541        6      -0.03995652       0.30384622       0.50084388
I        3.18042635       3.00919916       6.20418789        7      -0.05756385      -0.04763943       0.37904555
I        3.19703313      12.36795410       9.53371166        8      -0.03130426       0.48991908       0.00890905
I       -0.10874020       3.11223508       9.63442333        9       0.47091564       0.01157137      -0.00418894
Cs      -0.02251275       6.28995631      -0.12156632       10       0.03720345      -0.09888454      -0.00951895
Pb       3.12089059       9.25754633       2.74470040       11       0.09553498       0.31231345      -0.04389029
Cl       3.26489711       9.23260596      -0.03542922       12      -0.04314872      -0.06096973       0.37214941
I        3.22373344       6.19643504       3.19315906       13      -0.04258981       0.28040977       0.04542165
I       -0.13663359       9.35000113       3.04284419       14       1.06691514       0.02654625      -0.02141161
Cs      -0.02317790       6.26526863       6.21836545       15      -0.02893305      -0.01652081      -0.00087349
Pb       3.19526366       9.26366217       9.57347451       16      -0.18404083      -0.44800764      -0.02823894
I        3.27261119       9.27481944       6.45168216       17      -0.02463224       0.00221100      -0.31733639
Cl       3.21059139       6.29128672       9.54407376       18      -0.02113284      -0.28955009      -0.04493107
I        0.00385677       9.13498206       9.58589323       19      -0.12389427       0.01105392      -0.01213536
Cs       6.41238773      12.48179496      12.55587468       20      -0.03268865       0.01408024      -0.00379438
Pb       9.16830109       3.14678774       3.12638609       21       0.32211693       0.21505047       0.05772742
I        9.29945259       3.30091644       0.06230163       22      -0.05101302      -0.01601738      -0.24431110
I        9.51727335       0.01922216       3.08461667       23      -0.09616027      -0.22152708       0.01442579
Cl       6.25089716       3.31743237       3.19689034       24       0.00934910      -0.02309826       0.03736472
Cs       6.30483037      12.51281135       6.32536317       25       0.01035747      -0.03743886       0.01090036
Pb       9.47416635       3.11034656       9.40105878       26      -0.18611356      -0.03639645       0.05004036
I        9.45455564       3.17300252       6.26835763       27      -0.00167200       0.01057135       0.12570250
I        9.48156983      12.63661516       9.35558853       28      -0.02490617      -1.09609651       0.04384393
I        6.26438920       3.18248529       9.49681415       29      -0.13065914      -0.02654772      -0.04995072
Cs       6.26443971       6.25871509      12.68177150       30      -0.02222148      -0.03830391      -0.04228059
Pb       9.47855662       9.04804092       3.20425942       31      -0.07892378      -0.28763973       0.22909236
I        9.49087465       9.25074388       0.06348201       32       0.02510413       0.01085710       0.04067838
Cl       9.26172649       6.15173881       3.29547429       33       0.03013114       0.21367315       0.00750351
I        6.53734420       9.24546437       3.00324922       34      -1.12562931       0.06978407      -0.01615295
Cs       6.37008297       6.37496567       6.30307188       35       0.02890247      -0.00171477      -0.00345602
Pb       9.46655205       9.30699623       9.61668196       36       0.03713089       0.00009745      -0.27887706
I        9.43519693       9.27187908       6.40901049       37       0.00730609       0.01658296      -0.09601712
I        9.42016976       6.07093777       9.49928535       38      -0.02058565       1.12940273       0.00130740
I        6.25602221       9.27488169       9.67859523       39       0.35378394       0.00151192       0.03085121
