40
Lattice="11.960218985779573 0.0 0.0 0.017706222415038005 11.931455931779661 0.0 -0.0019539061199355112 0.012586576484256769 12.020537107861525" Properties=species:S:1:pos:R:3:spacegroup_kinds:I:1:forces:R:3 spacegroup="P 1" unit_cell=conventional occupancy="_JSON {\"0\": {\"Cs\": 1.0}, \"1\": {\"Sn\": 1.0}, \"2\": {\"I\": 1.0}, \"3\": {\"I\": 1.0}, \"4\": {\"Br\": 1.0}, \"5\": {\"Cs\": 1.0}, \"6\": {\"Sn\": 1.0}, \"7\": {\"Cl\": 1.0}, \"8\": {\"Cl\": 1.0}, \"9\": {\"I\": 1.0}, \"10\": {\"Cs\": 1.0}, \"11\": {\"Sn\": 1.0}, \"12\": {\"Cl\": 1.0}, \"13\": {\"Cl\": 1.0}, \"14\": {\"I\": 1.0}, \"15\": {\"Cs\": 1.0}, \"16\": {\"Sn\": 1.0}, \"17\": {\"I\": 1.0}, \"18\": {\"Cl\": 1.0}, \"19\": {\"I\": 1.0}, \"20\": {\"Cs\": 1.0}, \"21\": {\"Sn\": 1.0}, \"22\": {\"Br\": 1.0}, \"23\": {\"I\": 1.0}, \"24\": {\"Cl\": 1.0}, \"25\": {\"Cs\": 1.0}, \"26\": {\"Sn\": 1.0}, \"27\": {\"Br\": 1.0}, \"28\": {\"I\": 1.0}, \"29\": {\"Cl\": 1.0}, \"30\": {\"Cs\": 1.0}, \"31\": {\"Sn\": 1.0}, \"32\": {\"I\": 1.0}, \"33\": {\"Cl\": 1.0}, \"34\": {\"Cl\": 1.0}, \"35\": {\"Cs\": 1.0}, \"36\": {\"Sn\": 1.0}, \"37\": {\"I\": 1.0}, \"38\": {\"Cl\": 1.0}, \"39\": {\"Cl\": 1.0}}" candidate_id=916e79b91a5c7b39 formula=CsSnBr0.11Cl0.46I0.433 config_index=0 rattle_stdev=0.0 method=PBE fidelity=phase2_force energy=-126.29344006333356 stress="0.0012721743704731752 0.00011234242087664692 -7.074700678845229e-05 0.00011234242087664692 0.0009857477726243115 8.453373674803126e-05 -7.074700678845229e-05 8.453373674803126e-05 -0.001526109031773234" pbc="T T T"
Cs      11.92147480       0.09125530       0.03448116        0      -0.01736908      -0.02067950      -0.00205241
Sn       3.06707419       3.16876874       3.18521769        1      -0.02548393      -0.01450675      -0.04677442
I        3.05016338       3.03370630      11.95123131        2       0.03052721      -0.00568961      -0.01026952
I        3.10271506       0.06484311       3.06065528        3       0.02944371      -0.01664501       0.02081788
Br       0.27902126       3.16819409       3.13810717        4      -0.11350922       0.03686935       0.03351327
Cs      11.95182222       0.07645599       5.96024624        5      -0.03392189      -0.01656911      -0.01277031
Sn       3.13937275       3.13166180       8.84043372        6       0.00540845      -0.02453375       0.02621337
Cl       3.11527213       3.29374864       5.93189437        7       0.02061838      -0.02076201      -0.00307278
Cl       3.37169869      11.56034810       9.18307993        8       0.00386475       0.17732027       0.01027699
I        0.01004489       3.12154209       8.95098817        9       0.03873285       0.00169505      -0.03088031
Cs       0.04505586       5.86755550       0.08078866       10      -0.01020726       0.02476561       0.01328548
Sn       3.16190834       8.72005945       2.77540849       11      -0.02047498       0.03604721       0.05604511
Cl       3.27490889       8.75351079       0.09536537       12       0.02137705      -0.02752362       0.07679868
Cl       3.11267492       6.01229184       2.90831624       13       0.00637626       0.03670907      -0.02313886
I        0.08122555       8.83018395       2.91944707       14      -0.06440893      -0.03393214      -0.03237078
Cs       0.07883784       5.90734250       5.94607006       15       0.01598056       0.01002179      -0.00678748
Sn       3.17748636       9.00852613       9.15376677       16       0.01703727      -0.16473903      -0.02319236
I        3.13753228       8.90495773       6.10859831       17       0.03248756       0.00647179      -0.07878109
Cl       3.22212552       5.66581777       8.89337535       18       0.00676099       0.02392593       0.00014311
I        0.11182468       8.91185779       9.12290057       19      -0.07140577       0.01050532       0.03795479
Cs       5.91831432       0.07202894      11.93691335       20       0.00932918      -0.02775475      -0.01120984
Sn       8.76394128       3.14640032       3.00427717       21      -0.01659652       0.01075584      -0.01408080
Br       8.73818261       3.12678550       0.02370618       22      -0.00160065       0.04409629       0.07898115
I        8.88679444       0.11016309       3.01281108       23      -0.02324693      -0.04907935       0.00146574
Cl       6.16604944       3.18366178       3.09739517       24       0.07369570       0.01331228       0.02200213
Cs       5.89068228       0.20763673       6.12952402       25       0.02207871       0.00001601       0.01615023
Sn       8.72001411       3.16668701       8.99588195       26       0.01359279      -0.04235561      -0.02460260
Br       8.82105290       3.13229851       6.06516033       27      -0.01573374       0.04548143      -0.05306855
I        8.83983530       0.08481339       9.01218357       28      -0.03482882      -0.03066596       0.00419407
Cl       6.00636443       3.15467115       8.90707730       29      -0.02514230      -0.03831765      -0.03756789
Cs       5.89706617       5.96243529      11.96447320       30       0.01529237       0.02206860      -0.00249845
Sn       8.68690083       8.68514459       2.99133409       31       0.04095525       0.05254184      -0.02775948
I        8.84956611       8.82515286      12.01255280       32       0.01092960       0.00711595      -0.00120171
Cl       8.75293357       6.05489523       2.99718372       33       0.00904411      -0.04839665       0.00345402
Cl       6.02928912       8.65348962       2.91570077       34       0.01623863      -0.03710910      -0.01642281
Cs       5.92360618       5.86056625       6.01691028       35       0.00651538      -0.00453433       0.00868125
Sn       8.71374710       8.69711503       9.00902698       36       0.03384220       0.08635906       0.01135344
I        8.81020597       8.83287343       5.99899603       37       0.00933315       0.00206338       0.01309498
Cl       8.64665400       6.03084812       9.00910835       38      -0.03147860      -0.02454104      -0.00182030
Cl       6.07242965       8.80618793       9.07015390       39       0.02741771      -0.03161105       0.02497219
40
Lattice="11.960218985779573 0.0 0.0 0.017706222415038005 11.931455931779661 0.0 -0.0019539061199355112 0.012586576484256769 12.020537107861525" Properties=species:S:1:pos:R:3:spacegroup_kinds:I:1:forces:R:3 spacegroup="P 1" unit_cell=conventional occupancy="_JSON {\"0\": {\"Cs\": 1.0}, \"1\": {\"Sn\": 1.0}, \"2\": {\"I\": 1.0}, \"3\": {\"I\": 1.0}, \"4\": {\"Br\": 1.0}, \"5\": {\"Cs\": 1.0}, \"6\": {\"Sn\": 1.0}, \"7\": {\"Cl\": 1.0}, \"8\": {\"Cl\": 1.0}, \"9\": {\"I\": 1.0}, \"10\": {\"Cs\": 1.0}, \"11\": {\"Sn\": 1.0}, \"12\": {\"Cl\": 1.0}, \"13\": {\"Cl\": 1.0}, \"14\": {\"I\": 1.0}, \"15\": {\"Cs\": 1.0}, \"16\": {\"Sn\": 1.0}, \"17\": {\"I\": 1.0}, \"18\": {\"Cl\": 1.0}, \"19\": {\"I\": 1.0}, \"20\": {\"Cs\": 1.0}, \"21\": {\"Sn\": 1.0}, \"22\": {\"Br\": 1.0}, \"23\": {\"I\": 1.0}, \"24\": {\"Cl\": 1.0}, \"25\": {\"Cs\": 1.0}, \"26\": {\"Sn\": 1.0}, \"27\": {\"Br\": 1.0}, \"28\": {\"I\": 1.0}, \"29\": {\"Cl\": 1.0}, \"30\": {\"Cs\": 1.0}, \"31\": {\"Sn\": 1.0}, \"32\": {\"I\": 1.0}, \"33\": {\"Cl\": 1.0}, \"34\": {\"Cl\": 1.0}, \"35\": {\"Cs\": 1.0}, \"36\": {\"Sn\": 1.0}, \"37\": {\"I\": 1.0}, \"38\": {\"Cl\": 1.0}, \"39\": {\"Cl\": 1.0}}" candidate_id=916e79b91a5c7b39 formula=CsSnBr0.11Cl0.46I0.433 config_index=1 rattle_stdev=0.08 method=PBE fidelity=phase2_force energy=-125.59561468610045 stress="-9.117597422917207e-06 -5.255107039464377e-06 -0.00013297374604318837 -5.255107039464377e-06 0.0007267823911435316 0.00018876555685896635 -0.00013297374604318837 0.00018876555685896635 -0.004794541711495882" pbc="T T T"
Cs      11.83455909       0.01957009       0.00997721        0      -0.00860542       0.03852977       0.00003659
Sn       2.95987949       3.07224190       3.13387954        1       0.11373751       0.29654154       0.13640704
I        3.15479903       3.18134313      12.01756051        2      -0.15475124      -0.17200364       0.03830181
I        3.10085116       0.04815799       2.98732570        3       0.00766736      -0.05087677       0.03855149
Br       0.19304185       3.16130261       3.23217425        4      -0.00579569      -0.00420462      -0.02029855
Cs      11.82101488       0.17471151       6.04635714        5       0.02503489       0.00353966      -0.06411657
Sn       3.17095458       3.10064573       8.88750586        6       0.10896282      -0.26870417      -0.15408304
Cl       3.00060823       3.26786267       6.03213314        7       0.07669165      -0.02113500      -0.03424120
Cl       3.31323928      11.67462691       9.25865224        8       0.01334117      -0.36836613      -0.14440045
I       -0.01107534       3.10848503       8.87385959        9       0.10436253      -0.00520007       0.05740343
Cs       0.01764407       5.87146782       0.04081810       10      -0.02274413      -0.02011018       0.03504466
Sn       2.98495598       8.74484640       2.64823638       11       1.02957132      -0.24917316       0.03948116
Cl       3.33326526       8.74487869       0.04335165       12      -0.10930890      -0.02427928       0.01008314
Cl       2.97723040       5.98281392       2.78108650       13      -0.02362764       0.11148502       0.01280734
I        0.19966602       8.86813917       2.99255617       14      -1.03888547      -0.00529260      -0.01028131
Cs       0.15567546       5.91410591       6.08344853       15       0.04397370      -0.01793520      -0.04750868
Sn       3.24563777       8.94813531       8.97075643       16       0.28367390       0.40485761       0.55997857
I        3.14627137       8.86894508       6.07556052       17       0.01558487       0.05619725      -0.34664375
Cl       3.24764422       5.62252913       8.96926867       18      -0.02497161       0.35779537      -0.05486646
I        0.12393949       8.91800999       9.11814854       19      -0.00411221      -0.01339128      -0.00628413
Cs       5.91270322       0.02673701      11.96179378       20      -0.00324312      -0.01430826      -0.02444330
Sn       8.82187799       3.18771633       3.08635962       21      -0.14537078      -0.15649185      -0.49935491
Br       8.77979482       3.05719841       0.14375139       22       0.07925744       0.09102128      -0.14785806
I        8.98011221       0.14951625       2.95423010       23      -0.03065541      -0.11758642       0.14461466
Cl       6.22047393       3.22438153       3.03039227       24      -0.05572259      -0.00318581       0.09640736
Cs       5.94249387       0.20863989       6.25429115       25      -0.06409906       0.00328383      -0.01725645
Sn       8.80278174       3.19370242       8.89167311       26      -0.20219565       0.35664444       0.27734831
Br       8.73156935       3.23705972       6.02370297       27       0.01496607      -0.02446558       0.25014801
I        8.80838536       0.16825087       9.01816079       28       0.04014640      -0.30850065      -0.02935363
Cl       6.01351939       3.15898374       8.94055306       29      -0.06923991      -0.04345655      -0.07742156
Cs       5.79884776       5.87527197      11.98984315       30       0.15132768       0.11066478       0.01000236
Sn       8.62446839       8.61665410       2.88574438       31      -0.08337284       0.36145414       0.53573135
I        8.88586865       8.90529485      12.12565157       32       0.00276316       0.01693754      -0.65190752
Cl       8.73771894       6.05730407       2.84731038       33       0.03332723      -0.17358397      -0.02064231
Cl       6.01994696       8.64329039       2.98787551       34       0.18566203      -0.04977952      -0.05489229
Cs       5.81845640       5.85260219       6.02815426       35       0.00939035      -0.04068850      -0.00159055
Sn       8.92405158       8.83757733       8.79817515       36      -0.29789430      -0.26035394       1.82688555
I        8.70727441       8.81913565       6.14303232       37      -0.02883605       0.04304192      -1.66341774
Cl       8.69534965       6.03337017       8.89179537       38       0.06205188       0.14470310       0.00222996
Cl       6.09718491       8.89756536       9.02928637       39      -0.02675159       0.01849584      -0.00108656
40
Lattice="11.960218985779573 0.0 0.0 0.017706222415038005 11.931455931779661 0.0 -0.0019539061199355112 0.012586576484256769 12.020537107861525" Properties=species:S:1:pos:R:3:spacegroup_kinds:I:1:forces:R:3 spacegroup="P 1" unit_cell=conventional occupancy="_JSON {\"0\": {\"Cs\": 1.0}, \"1\": {\"Sn\": 1.0}, \"2\": {\"I\": 1.0}, \"3\": {\"I\": 1.0}, \"4\": {\"Br\": 1.0}, \"5\": {\"Cs\": 1.0}, \"6\": {\"Sn\": 1.0}, \"7\": {\"Cl\": 1.0}, \"8\": {\"Cl\": 1.0}, \"9\": {\"I\": 1.0}, \"10\": {\"Cs\": 1.0}, \"11\": {\"Sn\": 1.0}, \"12\": {\"Cl\": 1.0}, \"13\": {\"Cl\": 1.0}, \"14\": {\"I\": 1.0}, \"15\": {\"Cs\": 1.0}, \"16\": {\"Sn\": 1.0}, \"17\": {\"I\": 1.0}, \"18\": {\"Cl\": 1.0}, \"19\": {\"I\": 1.0}, \"20\": {\"Cs\": 1.0}, \"21\": {\"Sn\": 1.0}, \"22\": {\"Br\": 1.0}, \"23\": {\"I\": 1.0}, \"24\": {\"Cl\": 1.0}, \"25\": {\"Cs\": 1.0}, \"26\": {\"Sn\": 1.0}, \"27\": {\"Br\": 1.0}, \"28\": {\"I\": 1.0}, \"29\": {\"Cl\": 1.0}, \"30\": {\"Cs\": 1.0}, \"31\": {\"Sn\": 1.0}, \"32\": {\"I\": 1.0}, \"33\": {\"Cl\": 1.0}, \"34\": {\"Cl\": 1.0}, \"35\": {\"Cs\": 1.0}, \"36\": {\"Sn\": 1.0}, \"37\": {\"I\": 1.0}, \"38\": {\"Cl\": 1.0}, \"39\": {\"Cl\": 1.0}}" candidate_id=916e79b91a5c7b39 formula=CsSnBr0.11Cl0.46I0.433 config_index=2 rattle_stdev=0.08 method=PBE fidelity=phase2_force energy=-125.2480908458655 stress="-0.002272600998231059 -0.00016801401458101721 0.00011448894419033268 -0.00016801401458101721 -0.004441862633562755 1.3010027804232813e-05 0.00011448894419033268 1.3010027804232813e-05 -0.0030650680230829147" pbc="T T T"
Cs      11.91245776       0.00513018       0.17728331        0       0.01742149      -0.02549752      -0.09012274
Sn       2.95051552       3.14266308       3.08442597        1       1.60820109       0.43592170       0.12908019
I        3.08023270       2.96345451      11.92323325        2      -0.07191015       0.04040697       0.01096449
I        3.12644788       0.16091606       2.93513566        3      -0.00540092      -0.74983229       0.05969031
Br       0.42734356       3.20771104       3.12765025        4      -1.74997836       0.03200082      -0.00064165
Cs      11.91957256      -0.00143699       5.92284890        5      -0.04155114      -0.05732459       0.04226091
Sn       3.08193903       3.22937326       8.77825772        6       0.39911955      -1.02726632      -0.15234020
Cl       3.06819008       3.28913913       5.93826076        7      -0.00896277      -0.06518239      -0.00645073
Cl       3.27704260      11.43644871       9.25606042        8       0.06431684       2.12435383       0.07345414
I        0.04305854       3.06588057       8.76788642        9      -0.18762938       0.03292313       0.06004631
Cs      -0.01792346       5.78527417       0.08825330       10       0.03270792       0.04040976      -0.01718130
Sn       3.11957281       8.78247904       2.75934331       11       0.13126042      -0.23712585       0.11276163
Cl       3.23646020       8.67068982       0.05514662       12       0.01247993      -0.00289832       0.36844420
Cl       3.17586613       5.93829203       3.08511906       13      -0.05018725       0.48750805      -0.12598880
I       -0.03079334       8.81105616       2.93683432       14       0.35017166      -0.03008191      -0.02631127
Cs       0.05064701       5.91421255       5.95460222       15       0.01503303       0.05433526      -0.00731055
Sn       3.16172386       9.11628084       9.18138069       16       0.01113704      -2.21389553      -0.01126269
I        3.18214383       8.85733492       6.16722489       17      -0.02055138       0.10661208      -0.42254553
Cl       3.32862573       5.60741513       8.85451488       18      -0.04298876       0.96930223       0.06183045
I        0.19797782       8.70422920       9.13625483       19      -0.26272736       0.05965048       0.05173740
Cs       6.00143109      -0.07265697      11.99760463       20      -0.03056730       0.02898509      -0.01070436
Sn       8.72393226       2.95885687       2.99564375       21      -0.25281522       0.70724951       0.15066371
Br       8.61795960       3.16588779      -0.02054811       22       0.08758302       0.02061395       0.11478426
I        8.97139504       0.04061766       3.00680379       23      -0.08158625      -0.18825428      -0.00130099
Cl       6.15747704       3.35156754       3.07015213       24       0.31708318      -0.27757676      -0.02946369
Cs       5.84844988       0.10406738       6.14665194       25       0.06518997       0.02733257       0.02105358
Sn       8.81011568       3.19880988       9.05712877       26      -0.46322233      -0.21347033      -0.22514109
Br       8.71280270       3.17820719       6.04754936       27       0.09068515      -0.08886016      -0.09914424
I        8.89145042       0.00443584       9.16416266       28      -0.01017547       0.42280468      -0.02944042
Cl       6.02371329       3.19466878       8.85695001       29       0.19780292      -0.09894018       0.01841182
Cs       5.81683543       5.89993047      11.98081542       30       0.00335873      -0.01163580       0.03087171
Sn       8.72978819       8.59914479       2.81390571       31      -0.22196627       0.02016647       1.04855034
I        8.90132053       8.79936599      11.99874767       32       0.03222620      -0.04420955      -0.06059271
Cl       8.56985982       6.04593172       3.07360883       33       0.11751091      -0.12815076      -0.11633537
Cl       6.06566817       8.81844381       2.92069761       34      -0.26982693       0.03624857      -0.14452712
Cs       5.92383357       5.82428195       6.04678888       35       0.00957415      -0.02221798      -0.05292945
Sn       8.64869782       8.68899043       9.04468403       36       0.54636361       0.32089052      -0.61655551
I        8.70819568       8.84149997       6.06717498       37       0.07391670       0.09795291      -0.31552788
Cl       8.63410583       6.12595366       8.89132727       38       0.02547595      -0.63208085       0.08095764
Cl       6.14171291       8.73471677       9.02623625       39      -0.43905523       0.04246179       0.12733836
40
Lattice="11.960218985779573 0.0 0.0 0.017706222415038005 11.931455931779661 0.0 -0.0019539061199355112 0.012586576484256769 12.020537107861525" Properties=species:S:1:pos:R:3:spacegroup_kinds:I:1:forces:R:3 spacegroup="P 1" unit_cell=conventional occupancy="_JSON {\"0\": {\"Cs\": 1.0}, \"1\": {\"Sn\": 1.0}, \"2\": {\"I\": 1.0}, \"3\": {\"I\": 1.0}, \"4\": {\"Br\": 1.0}, \"5\": {\"Cs\": 1.0}, \"6\": {\"Sn\": 1.0}, \"7\": {\"Cl\": 1.0}, \"8\": {\"Cl\": 1.0}, \"9\": {\"I\": 1.0}, \"10\": {\"Cs\": 1.0}, \"11\": {\"Sn\": 1.0}, \"12\": {\"Cl\": 1.0}, \"13\": {\"Cl\": 1.0}, \"14\": {\"I\": 1.0}, \"15\": {\"Cs\": 1.0}, \"16\": {\"Sn\": 1.0}, \"17\": {\"I\": 1.0}, \"18\": {\"Cl\": 1.0}, \"19\": {\"I\": 1.0}, \"20\": {\"Cs\": 1.0}, \"21\": {\"Sn\": 1.0}, \"22\": {\"Br\": 1.0}, \"23\": {\"I\": 1.0}, \"24\": {\"Cl\": 1.0}, \"25\": {\"Cs\": 1.0}, \"26\": {\"Sn\": 1.0}, \"27\": {\"Br\": 1.0}, \"28\": {\"I\": 1.0}, \"29\": {\"Cl\": 1.0}, \"30\": {\"Cs\": 1.0}, \"31\": {\"Sn\": 1.0}, \"32\": {\"I\": 1.0}, \"33\": {\"Cl\": 1.0}, \"34\": {\"Cl\": 1.0}, \"35\": {\"Cs\": 1.0}, \"36\": {\"Sn\": 1.0}, \"37\": {\"I\": 1.0}, \"38\": {\"Cl\": 1.0}, \"39\": {\"Cl\": 1.0}}" candidate_id=916e79b91a5c7b39 formula=CsSnBr0.11Cl0.46I0.433 config_index=3 rattle_stdev=0.08 method=PBE fidelity=phase2_force energy=-125.33794640829274 stress="-0.000548085154528726 0.0002351771238703948 -0.00017456525351576302 0.0002351771238703948 -0.00040251960968041856 0.0002863673367190171 -0.00017456525351576302 0.0002863673367190171 -0.0029993459546207506" pbc="T T T"
Cs      11.81579132       0.25259553       0.03828632        0       0.03996007       0.01443215       0.02613173
Sn       3.04806049       3.17549856       3.26198107        1      -0.25380497      -0.33656035      -0.83942962
I        2.99563550       3.07603193      11.88923785        2       0.10188731      -0.07001127      -0.23365869
I        3.21511156       0.04686867       2.95618442        3       0.04115674      -0.13634582       0.04881623
Br       0.22473844       3.03851943       3.03570929        4       0.10777284       0.09454022       0.12515416
Cs      11.93387849       0.00841111       5.89978704        5      -0.04324055      -0.00092708      -0.02834961
Sn       3.16042641       2.92724635       8.70681105        6       0.06860184       0.99400930       0.73307843
Cl       3.05833332       3.09800659       5.82975958        7       0.00612335       0.00688070       0.49967743
Cl       3.42478849      11.45804138       9.11984715        8       0.06541017       1.34623900       0.03162454
I       -0.11014478       3.02637890       9.13232339        9       0.40651322       0.05734537      -0.14893297
Cs       0.00691363       5.93928862      -0.06360640       10       0.01046650      -0.07090396       0.01636503
Sn       3.12261118       8.62409973       2.71099086       11      -0.14218755       0.40808959       0.05203074
Cl       3.38737438       8.73508554       0.03826965       12      -0.04424278      -0.09267143       0.48271397
Cl       3.09966792       5.95798145       3.02944565       13      -0.01430202       0.16261444      -0.01917451
I       -0.05858027       8.88286632       2.89191777       14       0.79699466      -0.10279673      -0.03283106
Cs       0.01814198       5.92110461       5.89348678       15      -0.02118548      -0.01268729       0.01610527
Sn       3.22170199       9.03913479       9.12406354       16      -0.10713577      -1.29646776       0.24125554
I        3.26378380       8.92230153       6.20552564       17      -0.01234289       0.01967795      -0.70259488
Cl       3.28064396       5.71973745       8.84695086       18      -0.06885057      -0.82828762      -0.14986490
I        0.10387751       8.78506860       9.11692326       19      -0.21865260       0.05937503      -0.00431999
Cs       6.01421902       0.05079512      11.88476938       20      -0.05273745       0.01110025      -0.00183936
Sn       8.61221836       3.02317641       2.97285131       21       0.73936074       0.57655007      -0.02696978
Br       8.70502414       3.18367092       0.07510821       22      -0.04582547      -0.03594580      -0.04030947
I        9.07858134       0.09658050       2.93174039       23      -0.16460216      -0.46506839       0.02497925
Cl       6.13056494       3.25133996       3.13694389       24      -0.54537748      -0.08764923       0.06387693
Cs       5.91297334       0.24940400       6.15493336       25       0.03491828      -0.04766058      -0.02314740
Sn       8.73818502       3.13545977       8.93844054       26       0.00231017       0.22019614       0.03043121
Br       8.94458179       3.06326290       6.03645412       27      -0.06625254       0.05623167       0.04715905
I        8.84653945       0.21915115       8.91783659       28      -0.04187437      -0.97017723       0.08440004
Cl       5.97446626       3.12080000       8.95182425       29      -0.36411895      -0.14780351      -0.14025043
Cs       5.85088659       5.96813508      12.03384961       30       0.01776468      -0.05049182      -0.08091118
Sn       8.72009355       8.66704581       3.05178154       31       0.51992452      -0.25625940       0.25050726
I        8.86757650       8.78997261      12.06487914       32       0.04669656       0.03634778       0.16392543
Cl       8.68124371       5.94093933       3.13658245       33       0.10224750       0.25909459       0.00202077
Cl       6.26283517       8.59959160       2.85401883       34      -1.16582742       0.01201436      -0.01849390
Cs       6.00804556       5.95222329       6.02656012       35      -0.00023893      -0.04269445       0.05345553
Sn       8.71474658       8.64115331       9.15913091       36       0.05003694      -0.08456664      -0.44682522
I        8.77415330       8.80837468       6.11201538       37       0.01715445       0.06246486      -0.13086572
Cl       8.59436671       5.84952280       9.05753650       38      -0.01104414       0.76250079       0.02140464
Cl       6.03048420       8.82278712       9.15786607       39       0.21192591      -0.02496119       0.06277844
