40
Lattice="11.436515135453366 0.0 0.0 0.0 11.440414853947338 0.0 0.0 -1.7081453403372218e-14 11.440414853947381" Properties=species:S:1:pos:R:3:spacegroup_kinds:I:1:forces:R:3 spacegroup="P 1" unit_cell=conventional occupancy="_JSON {\"0\": {\"Cs\": 1.0}, \"1\": {\"Sn\": 1.0}, \"2\": {\"Br\": 1.0}, \"3\": {\"Br\": 1.0}, \"4\": {\"Br\": 1.0}, \"5\": {\"Cs\": 1.0}, \"6\": {\"Sn\": 1.0}, \"7\": {\"Br\": 1.0}, \"8\": {\"Br\": 1.0}, \"9\": {\"Br\": 1.0}, \"10\": {\"Cs\": 1.0}, \"11\": {\"Ge\": 1.0}, \"12\": {\"Br\": 1.0}, \"13\": {\"Br\": 1.0}, \"14\": {\"Br\": 1.0}, \"15\": {\"Cs\": 1.0}, \"16\": {\"Ge\": 1.0}, \"17\": {\"Br\": 1.0}, \"18\": {\"Br\": 1.0}, \"19\": {\"Br\": 1.0}, \"20\": {\"Cs\": 1.0}, \"21\": {\"Ge\": 1.0}, \"22\": {\"Br\": 1.0}, \"23\": {\"Br\": 1.0}, \"24\": {\"Br\": 1.0}, \"25\": {\"Cs\": 1.0}, \"26\": {\"Sn\": 1.0}, \"27\": {\"Br\": 1.0}, \"28\": {\"Br\": 1.0}, \"29\": {\"Br\": 1.0}, \"30\": {\"Cs\": 1.0}, \"31\": {\"Ge\": 1.0}, \"32\": {\"Br\": 1.0}, \"33\": {\"Br\": 1.0}, \"34\": {\"Br\": 1.0}, \"35\": {\"Cs\": 1.0}, \"36\": {\"Sn\": 1.0}, \"37\": {\"Br\": 1.0}, \"38\": {\"Br\": 1.0}, \"39\": {\"Br\": 1.0}}" candidate_id=5d09787e28c59eb7 formula=CsGe0.45Sn0.55Br3 config_index=0 rattle_stdev=0.0 method=PBE fidelity=phase2_force energy=-126.01269582620276 stress="-0.002230692802705834 -9.72411903109935e-17 -9.724119031099325e-17 -9.72411903109935e-17 -0.002355861523850896 1.6799489472717458e-16 -9.724119031099325e-17 1.6799489472717458e-16 -0.002355861523850878" pbc="T T T"
Cs      11.43651514      11.30621588       0.13419897        0       0.00000000       0.08697463      -0.08697463
Sn       2.85912878       2.86010371       2.86010371        1      -0.00000000      -0.00000000      -0.00000000
Br       2.85912878       2.86010371      11.43649410        2       0.00000000       0.00000000       0.05914930
Br       2.85912878      11.42026765       2.86010371        3      -0.00000000      -0.40078079       0.00000000
Br      11.41509160       2.86010371       2.86010371        4      -0.34333000       0.00000000      -0.00000000
Cs      11.43651514      11.30621588       5.58600846        5       0.00000000       0.08697463       0.08697463
Sn       2.85912878       2.86010371       8.58031114        6      -0.00000000       0.00000000       0.00000000
Br       2.85912878       2.86010371       5.72412818        7      -0.00000000      -0.00000000      -0.05914930
Br       2.85912878      11.42144014       8.58031114        8       0.00000000      -0.39067462       0.00000000
Br      11.43651514       2.86010371       8.58031114        9       0.00000000      -0.00000000       0.00000000
Cs      11.43651514       5.85440640       0.13419897       10      -0.00000000      -0.08697463      -0.08697463
Ge       2.85912878       8.58031114       2.86010371       11      -0.00000000       0.00000000       0.00000000
Br       2.85912878       8.58031114      11.43980375       12      -0.00000000      -0.00000000       0.05779431
Br       2.85912878       5.74035463       2.86010371       13      -0.00000000       0.40078079      -0.00000000
Br       0.00000000       8.58031114       2.86010371       14       0.00000000       0.00000000      -0.00000000
Cs      11.43651514       5.85440640       5.58600846       15       0.00000000      -0.08697463       0.08697463
Ge       2.85912878       8.58031114       8.58031114       16       0.00000000      -0.00000000       0.00000000
Br       2.85912878       8.58031114       5.72081853       17      -0.00000000      -0.00000000      -0.05779431
Br       2.85912878       5.73918214       8.58031114       18       0.00000000       0.39067462       0.00000000
Br       0.02142354       8.58031114       8.58031114       19       0.34333000       0.00000000      -0.00000000
Cs       5.71825757      11.30621588       0.13419897       20       0.00000000       0.08697463      -0.08697463
Ge       8.57738635       2.86010371       2.86010371       21      -0.00000000      -0.00000000       0.00000000
Br       8.57738635       2.86010371       0.01897471       22      -0.00000000      -0.00000000       0.39067462
Br       8.57738635       0.00061111       2.86010371       23       0.00000000      -0.05779431       0.00000000
Br       5.73968111       2.86010371       2.86010371       24       0.34333000      -0.00000000      -0.00000000
Cs       5.71825757      11.30621588       5.58600846       25       0.00000000       0.08697463       0.08697463
Sn       8.57738635       2.86010371       8.58031114       26       0.00000000      -0.00000000      -0.00000000
Br       8.57738635       2.86010371       5.70123272       27      -0.00000000      -0.00000000      -0.39067462
Br       8.57738635       0.00392076       8.58031114       28      -0.00000000      -0.05914930      -0.00000000
Br       5.71825757       2.86010371       8.58031114       29       0.00000000       0.00000000      -0.00000000
Cs       5.71825757       5.85440640       0.13419897       30      -0.00000000      -0.08697463      -0.08697463
Ge       8.57738635       8.58031114       2.86010371       31       0.00000000      -0.00000000      -0.00000000
Br       8.57738635       8.58031114       0.02014720       32       0.00000000      -0.00000000       0.40078079
Br       8.57738635       5.71959632       2.86010371       33       0.00000000       0.05779431       0.00000000
Br       5.71825757       8.58031114       2.86010371       34       0.00000000      -0.00000000       0.00000000
Cs       5.71825757       5.85440640       5.58600846       35       0.00000000      -0.08697463       0.08697463
Sn       8.57738635       8.58031114       8.58031114       36       0.00000000       0.00000000       0.00000000
Br       8.57738635       8.58031114       5.70006022       37       0.00000000       0.00000000      -0.40078079
Br       8.57738635       5.71628667       8.58031114       38       0.00000000       0.05914930       0.00000000
Br       5.69683403       8.58031114       8.58031114       39      -0.34333000       0.00000000       0.00000000
40
Lattice="11.436515135453366 0.0 0.0 0.0 11.440414853947338 0.0 0.0 -1.7081453403372218e-14 11.440414853947381" Properties=species:S:1:pos:R:3:spacegroup_kinds:I:1:forces:R:3 spacegroup="P 1" unit_cell=conventional occupancy="_JSON {\"0\": {\"Cs\": 1.0}, \"1\": {\"Sn\": 1.0}, \"2\": {\"Br\": 1.0}, \"3\": {\"Br\": 1.0}, \"4\": {\"Br\": 1.0}, \"5\": {\"Cs\": 1.0}, \"6\": {\"Sn\": 1.0}, \"7\": {\"Br\": 1.0}, \"8\": {\"Br\": 1.0}, \"9\": {\"Br\": 1.0}, \"10\": {\"Cs\": 1.0}, \"11\": {\"Ge\": 1.0}, \"12\": {\"Br\": 1.0}, \"13\": {\"Br\": 1.0}, \"14\": {\"Br\": 1.0}, \"15\": {\"Cs\": 1.0}, \"16\": {\"Ge\": 1.0}, \"17\": {\"Br\": 1.0}, \"18\": {\"Br\": 1.0}, \"19\": {\"Br\": 1.0}, \"20\": {\"Cs\": 1.0}, \"21\": {\"Ge\": 1.0}, \"22\": {\"Br\": 1.0}, \"23\": {\"Br\": 1.0}, \"24\": {\"Br\": 1.0}, \"25\": {\"Cs\": 1.0}, \"26\": {\"Sn\": 1.0}, \"27\": {\"Br\": 1.0}, \"28\": {\"Br\": 1.0}, \"29\": {\"Br\": 1.0}, \"30\": {\"Cs\": 1.0}, \"31\": {\"Ge\": 1.0}, \"32\": {\"Br\": 1.0}, \"33\": {\"Br\": 1.0}, \"34\": {\"Br\": 1.0}, \"35\": {\"Cs\": 1.0}, \"36\": {\"Sn\": 1.0}, \"37\": {\"Br\": 1.0}, \"38\": {\"Br\": 1.0}, \"39\": {\"Br\": 1.0}}" candidate_id=5d09787e28c59eb7 formula=CsGe0.45Sn0.55Br3 config_index=1 rattle_stdev=0.08 method=PBE fidelity=phase2_force energy=-125.48474658652026 stress="-0.004478403902965441 7.718253453541954e-05 -0.00021896003849767006 7.718253453541954e-05 -0.004396666984597421 -7.172483886432235e-05 -0.00021896003849767006 -7.172483886432235e-05 -0.0052350675336152635" pbc="T T T"
Cs      11.34959943      11.23453067       0.10969502        0       0.02669759       0.16359397      -0.05637914
Sn       2.75193409       2.76357687       2.80876557        1       0.39172221       0.39229410       0.31732414
Br       2.96376443       3.00774055      11.50282329        2      -0.10347764      -0.08652625       0.01674073
Br       2.85726488      11.40358253       2.78677413        3      -0.03790587      -0.45520169       0.00768053
Br      11.32911219       2.85321223       2.95417080        4       0.04771022       0.01096434      -0.00115145
Cs      11.30570780      11.40447140       5.67211936        5       0.09194855       0.10545857      -0.00198045
Sn       2.89071061       2.82908765       8.62738328        6       0.10778077       0.04016527      -0.17291295
Br       2.74446488       2.83421774       5.82436696        7       0.06980025       0.01686194      -0.28572200
Br       2.80066938      11.53571895       8.65588345        8      -0.00374027      -0.78534310      -0.01552273
Br      11.41539491       2.84704665       8.50318256        9       0.14611654       0.00675873       0.03710621
Cs      11.40910335       5.85831872       0.09422841       10      -0.01388868      -0.11467313      -0.07238773
Ge       2.68217642       8.60509809       2.73293161       11       0.37026893      -0.23286236      -0.21973744
Br       2.91748515       8.57167904      11.38779003       12      -0.13335495       0.03374209       0.25959883
Br       2.72368426       5.71087671       2.73287398       13       0.00063780       0.36155756       0.12079472
Br       0.11844047       8.61826636       2.93321282       14      -0.32131197      -0.00361277      -0.02830624
Cs      11.51335276       5.86116980       5.72338693       15       0.00738437      -0.13787793       0.00248233
Ge       2.92728020       8.51992032       8.39730080       16       0.38126759      -0.06204657       0.12507993
Br       2.86786788       8.54429849       5.68778074       17      -0.01851543       0.02442181       0.16445440
Br       2.88464748       5.69589350       8.65620446       18      -0.02023680       0.86501582      -0.12346554
Br       0.03353834       8.58646334       8.57555911       19       0.70701600       0.01533698      -0.05645249
Cs       5.71264647      11.26092396       0.15907940       20       0.03523571       0.12086681      -0.06253104
Ge       8.63532306       2.90141972       2.94218617       21      -0.37081236      -0.24271121      -0.58782334
Br       8.61899856       2.79051663       0.13901992       22       0.06936924       0.05476837      -0.04669477
Br       8.67070412       0.03996426       2.80152274       23      -0.05760947      -0.12614226       0.18265792
Br       5.79410559       2.90082346       2.79310082       24      -0.08399202      -0.03467902       0.11157343
Cs       5.77006916      11.30721904       5.71077559       25      -0.07178483       0.12493166      -0.01610288
Sn       8.66015398       2.88711913       8.47610231       26      -0.28760941       0.35409361       0.46216393
Br       8.48790281       2.96486492       5.65977536       27       0.01050877      -0.05406872      -0.04042047
Br       8.54593641       0.08735824       8.58628836       28       0.04867333      -0.28080544      -0.08082547
Br       5.72541253       2.86441630       8.61378690       29      -0.03468780      -0.01113758      -0.03062505
Cs       5.62003916       5.76724307       0.15956892       30       0.06303405      -0.04594387      -0.07864038
Ge       8.51495391       8.51182066       2.75451400       31      -0.35535865       0.10841328      -0.29363326
Br       8.61368888       8.66045313       0.13324598       32      -0.05149834      -0.10407519       0.38202478
Br       8.56217172       5.72200516       2.71023038       33       0.04805880       0.27868050       0.10288379
Br       5.70891541       8.57011191       2.93227846       34       0.47924759      -0.00638956      -0.06193403
Cs       5.61310779       5.84644234       5.59725244       35       0.00459477      -0.12797503       0.04813529
Sn       8.78769083       8.72077345       8.36945932       36      -0.71253093      -0.41169158       1.33900671
Br       8.47445479       8.56657336       5.84409652       37       0.05052387       0.01150273      -1.39246888
Br       8.62608200       5.71880871       8.46299817       38       0.02645496       0.28844096       0.05174627
Br       5.72158929       8.67168857       8.53944361       39      -0.49909114      -0.05492410      -0.00700038
40
Lattice="11.436515135453366 0.0 0.0 0.0 11.440414853947338 0.0 0.0 -1.7081453403372218e-14 11.440414853947381" Properties=species:S:1:pos:R:3:spacegroup_kinds:I:1:forces:R:3 spacegroup="P 1" unit_cell=conventional occupancy="_JSON {\"0\": {\"Cs\": 1.0}, \"1\": {\"Sn\": 1.0}, \"2\": {\"Br\": 1.0}, \"3\": {\"Br\": 1.0}, \"4\": {\"Br\": 1.0}, \"5\": {\"Cs\": 1.0}, \"6\": {\"Sn\": 1.0}, \"7\": {\"Br\": 1.0}, \"8\": {\"Br\": 1.0}, \"9\": {\"Br\": 1.0}, \"10\": {\"Cs\": 1.0}, \"11\": {\"Ge\": 1.0}, \"12\": {\"Br\": 1.0}, \"13\": {\"Br\": 1.0}, \"14\": {\"Br\": 1.0}, \"15\": {\"Cs\": 1.0}, \"16\": {\"Ge\": 1.0}, \"17\": {\"Br\": 1.0}, \"18\": {\"Br\": 1.0}, \"19\": {\"Br\": 1.0}, \"20\": {\"Cs\": 1.0}, \"21\": {\"Ge\": 1.0}, \"22\": {\"Br\": 1.0}, \"23\": {\"Br\": 1.0}, \"24\": {\"Br\": 1.0}, \"25\": {\"Cs\": 1.0}, \"26\": {\"Sn\": 1.0}, \"27\": {\"Br\": 1.0}, \"28\": {\"Br\": 1.0}, \"29\": {\"Br\": 1.0}, \"30\": {\"Cs\": 1.0}, \"31\": {\"Ge\": 1.0}, \"32\": {\"Br\": 1.0}, \"33\": {\"Br\": 1.0}, \"34\": {\"Br\": 1.0}, \"35\": {\"Cs\": 1.0}, \"36\": {\"Sn\": 1.0}, \"37\": {\"Br\": 1.0}, \"38\": {\"Br\": 1.0}, \"39\": {\"Br\": 1.0}}" candidate_id=5d09787e28c59eb7 formula=CsGe0.45Sn0.55Br3 config_index=2 rattle_stdev=0.08 method=PBE fidelity=phase2_force energy=-125.26521897638588 stress="-0.004459667553543005 4.071746277591524e-05 7.416349728194185e-06 4.071746277591524e-05 -0.004426519984029137 -6.468305615236645e-06 7.416349728194185e-06 -6.468305615236645e-06 -0.003999591183707544" pbc="T T T"
Cs      11.42749809      11.22009077       0.27700112        0       0.03888533       0.10429954      -0.23967203
Sn       2.74257012       2.83399805       2.75931199        1       0.93536204       0.35845015       0.21792564
Br       2.88919810       2.78985192      11.40849603        2      -0.08387542       0.06990374       0.02905470
Br       2.88286160      11.51634060       2.73458409        3      -0.03389183      -1.04255793       0.10172842
Br      11.56341390       2.89962066       2.84964680        4      -1.30146674      -0.00245270      -0.03107678
Cs      11.40426548      11.22832290       5.54861111        5       0.00196325       0.07581080       0.18313928
Sn       2.80169507       2.95781518       8.51813514        6       0.54201621      -0.12875951      -0.02323101
Br       2.81204673       2.85549421       5.73049458        7       0.01968744      -0.10065842      -0.19635689
Br       2.76447270      11.29754075       8.65329163        8       0.02948184      -0.21940038      -0.02489464
Br      11.46952879       2.80444219       8.39720939        9      -0.17085758       0.04026035       0.05437993
Cs      11.37353581       5.77212506       0.14166362       10       0.03869112      -0.04527924      -0.07966789
Ge       2.81679325       8.64273073       2.84403854       11       0.27810077      -0.18926365       0.04025316
Br       2.82068010       8.49749017      11.39958500       12       0.01782635       0.00368435       0.39884254
Br       2.92232000       5.66635482       3.03690654       13      -0.08840202       0.79352062      -0.15013380
Br      -0.11201889       8.56118335       2.87749097       14       0.35082061      -0.06216959      -0.02357589
Cs      11.40832431       5.86127644       5.59454061       15      -0.01680777      -0.07158324       0.09509067
Ge       2.84336629       8.68806585       8.60792506       16      -0.28173761      -0.00610324      -0.09712044
Br       2.90374034       8.53268833       5.77944511       17      -0.07199822       0.12751276      -0.32616698
Br       2.96562900       5.68077950       8.54145068       18      -0.06024290       0.20749569       0.04827717
Br       0.10757668       8.37268255       8.59366540       19       0.29554334       0.09302765      -0.00948764
Cs       5.80137434      11.16152997       0.19489025       20      -0.05866523       0.21006642      -0.18600673
Ge       8.53737733       2.67256026       2.85147030       21      -0.48203310       0.28411121       0.25370444
Br       8.45716334       2.89920601      -0.02527957       22       0.11508084       0.00473726       0.56856264
Br       8.66198695      -0.06893432       2.85409643       23      -0.04863310       0.26811608      -0.01528812
Br       5.73110871       3.02800947       2.83286068       24       0.74393065      -0.27711339      -0.00232746
Cs       5.67602516      11.20264654       5.60313638       25       0.02397665       0.16648614       0.12836192
Sn       8.66748792       2.89222658       8.64155797       26      -0.52980953      -0.10935659      -0.33821562
Br       8.46913616       2.90601239       5.68362175       27       0.08561821      -0.14592916      -0.50645546
Br       8.62900147      -0.07645679       8.73229023       28       0.02522569       0.51975680      -0.00957315
Br       5.73560643       2.90010134       8.53018385       29       0.07137652      -0.06743293       0.00533638
Cs       5.63802683       5.79190158       0.15054119       30      -0.00475500      -0.09012890      -0.06317001
Ge       8.62027371       8.49431134       2.68267533       31      -0.30307002      -0.30705192       0.36257122
Br       8.62914077       8.55452428       0.00634207       32       0.00070359      -0.08937575       0.68777290
Br       8.39431261       5.71063281       2.93652882       33       0.22030507       0.23407277      -0.16195725
Br       5.75463662       8.74526534       2.86510055       34      -0.33360554      -0.14750515      -0.06440085
Cs       5.71848496       5.81812209       5.61588706       35       0.00790987      -0.09135257       0.07879668
Sn       8.51233707       8.57218654       8.61596820       36       0.29412970       0.09958572      -0.56629002
Br       8.47537606       8.58893769       5.76823917       37       0.10152371       0.07218671      -0.33045817
Br       8.56483818       5.81139221       8.46253007       38       0.05863258      -0.60850856       0.07847688
Br       5.76611730       8.50883998       8.53639349       39      -0.43590455       0.07761779       0.11019899
40
Lattice="11.436515135453366 0.0 0.0 0.0 11.440414853947338 0.0 0.0 -1.7081453403372218e-14 11.440414853947381" Properties=species:S:1:pos:R:3:spacegroup_kinds:I:1:forces:R:3 spacegroup="P 1" unit_cell=conventional occupancy="_JSON {\"0\": {\"Cs\": 1.0}, \"1\": {\"Sn\": 1.0}, \"2\": {\"Br\": 1.0}, \"3\": {\"Br\": 1.0}, \"4\": {\"Br\": 1.0}, \"5\": {\"Cs\": 1.0}, \"6\": {\"Sn\": 1.0}, \"7\": {\"Br\": 1.0}, \"8\": {\"Br\": 1.0}, \"9\": {\"Br\": 1.0}, \"10\": {\"Cs\": 1.0}, \"11\": {\"Ge\": 1.0}, \"12\": {\"Br\": 1.0}, \"13\": {\"Br\": 1.0}, \"14\": {\"Br\": 1.0}, \"15\": {\"Cs\": 1.0}, \"16\": {\"Ge\": 1.0}, \"17\": {\"Br\": 1.0}, \"18\": {\"Br\": 1.0}, \"19\": {\"Br\": 1.0}, \"20\": {\"Cs\": 1.0}, \"21\": {\"Ge\": 1.0}, \"22\": {\"Br\": 1.0}, \"23\": {\"Br\": 1.0}, \"24\": {\"Br\": 1.0}, \"25\": {\"Cs\": 1.0}, \"26\": {\"Sn\": 1.0}, \"27\": {\"Br\": 1.0}, \"28\": {\"Br\": 1.0}, \"29\": {\"Br\": 1.0}, \"30\": {\"Cs\": 1.0}, \"31\": {\"Ge\": 1.0}, \"32\": {\"Br\": 1.0}, \"33\": {\"Br\": 1.0}, \"34\": {\"Br\": 1.0}, \"35\": {\"Cs\": 1.0}, \"36\": {\"Sn\": 1.0}, \"37\": {\"Br\": 1.0}, \"38\": {\"Br\": 1.0}, \"39\": {\"Br\": 1.0}}" candidate_id=5d09787e28c59eb7 formula=CsGe0.45Sn0.55Br3 config_index=3 rattle_stdev=0.08 method=PBE fidelity=phase2_force energy=-125.2406469229513 stress="-0.0038890199141007804 0.00016738802826874832 8.193807492380731e-05 0.00016738802826874832 -0.004419543624278654 -9.822016905771065e-05 8.193807492380731e-05 -9.822016905771065e-05 -0.003726781697048329" pbc="T T T"
Cs      11.33083165      11.46755611       0.13800413        0       0.11644609       0.07432938      -0.10685165
Sn       2.84011509       2.86683353       2.93686709        1      -0.34795550      -0.37356032      -0.92498341
Br       2.80460090       2.90242935      11.37450064        2       0.04749275      -0.02529106      -0.04906337
Br       2.97152528      11.40229321       2.75563286        3      -0.00849226      -0.49279402       0.02640091
Br      11.36080878       2.73042905       2.75770583        4      -0.06740995       0.10216263       0.08444281
Cs      11.41857140      11.23817100       5.52554925        5       0.00198181       0.10026023       0.09069725
Sn       2.88018245       2.65568827       8.44668847        6      -0.03457107       0.64180312       0.69997882
Br       2.80218997       2.66436166       5.62199340        7      -0.03885026      -0.02777101       0.37528828
Br       2.91221859      11.31913342       8.51707836        8      -0.03766533      -0.01853321       0.03245667
Br      11.31632547       2.76494052       8.76164635        9       0.48767354       0.02927790      -0.05250383
Cs      11.39837291       5.92613952      -0.01019609       10       0.06396100      -0.19982088      -0.02740414
Ge       2.81983161       8.48435141       2.79568609       11       0.01388618       0.27721487      -0.12452270
Br       2.97159427       8.56188589      11.38270803       12      -0.12424707      -0.03390526       0.59083908
Br       2.84612178       5.68604424       2.98123313       13      -0.03218196       0.72364221      -0.02697230
Br      -0.13980583       8.63299351       2.83257441       14       0.85417812      -0.13366520       0.00159204
Cs      11.37581928       5.86816850       5.53342518       15      -0.00767802      -0.09129665       0.11014758
Ge       2.90334442       8.61091980       8.55060791       16       0.02549970      -0.63500858      -0.07808841
Br       2.98538030       8.59765494       5.81774586       17      -0.07074340       0.01333609      -0.36141256
Br       2.91764723       5.79310182       8.53388665       18      -0.02803798       0.05583626      -0.05086896
Br       0.01347637       8.45352195       8.57433383       19       0.10038098       0.07270387       0.00037233
Cs       5.81416228      11.28498207       0.08205500       20      -0.06152236       0.11918603      -0.04227309
Ge       8.42566342       2.73687979       2.82867785       21       0.35729942       0.31219361      -0.08918392
Br       8.54422788       2.91698914       0.07037674       22      -0.10265752      -0.07238155       0.28075511
Br       8.76917326      -0.01297148       2.77903302       23      -0.27816986      -0.22123114       0.07480267
Br       5.70419661       2.92778189       2.89965243       24       0.33228112      -0.09670316       0.02350491
Cs       5.74054863      11.34798316       5.61141779       25       0.03016001       0.01154862       0.03668116
Sn       8.59555726       2.82887647       8.52286973       26      -0.16739262      -0.04546638       0.04657616
Br       8.70091524       2.79106810       5.67252651       27      -0.04973954      -0.00885381      -0.19632402
Br       8.58409050       0.13825852       8.48596416       28      -0.02952239      -1.19908657       0.08307340
Br       5.68635940       2.82623257       8.62505809       29      -0.21594215      -0.06136122      -0.08005684
Cs       5.67207799       5.86010619       0.20357538       30      -0.00153796      -0.16021469      -0.14875957
Ge       8.61057907       8.56221236       2.92055116       31      -0.21254878      -0.15596515       0.09956773
Br       8.59539674       8.54513090       0.07247355       32       0.03081726       0.00578492       0.46758437
Br       8.50569649       5.60564043       2.99950244       33       0.10442662       0.22882019      -0.08371976
Br       5.95180362       8.52641312       2.79842177       34      -0.61619523       0.09260111       0.07093279
Cs       5.80269695       5.94606344       5.59565830       35      -0.03325428      -0.09523818       0.13394865
Sn       8.57838582       8.52434942       8.73041507       36       0.07229166       0.02108620      -0.41597653
Br       8.54133368       8.55581240       5.81307957       37       0.03206426       0.03830563      -0.44472549
Br       8.52509907       5.53496134       8.62873930       38      -0.00164517       1.20399336      -0.00233823
Br       5.65488859       8.59691032       8.66802331       39      -0.10500487       0.01792045      -0.02343697
