40
Lattice="12.663955790825192 0.0 0.0 0.0 12.66129247749311 0.0 0.0 -2.7344186957429516e-14 12.663955790825181" Properties=species:S:1:pos:R:3:spacegroup_kinds:I:1:forces:R:3 spacegroup="P 1" unit_cell=conventional candidate_id=70394866ea49e45d formula=FAPb0.33Sn0.67I3 config_index=0 rattle_stdev=0.0 method=PBE fidelity=phase2_force energy=-112.62646039437024 stress="0.0006115829480504873 -2.433025163099046e-12 6.492564104774921e-11 -2.433025163099046e-12 0.0004267435732920914 2.4330260845296226e-12 6.492564104774921e-11 2.4330260845296226e-12 0.000611582948050489" pbc="T T T"
Cs      12.65323363      12.62380856       0.01072216        0      -0.00283035      -0.00573745       0.00283035
Pb       3.16598895       3.16532312       3.16598895        1       0.00014597       0.00013273       0.00033497
I        3.16598895       3.16532312       0.00918314        2      -0.00000110      -0.00000087      -0.03782179
I        3.16598895      12.57978847       3.16598895        3      -0.00000266       0.24445718      -0.00000157
I       12.58732598       3.16532312       3.16598895        4       0.24784058      -0.00000251      -0.00000180
Cs      12.65323363      12.62380856       6.32125573        5      -0.00282849      -0.00573521      -0.00282514
Pb       3.16598895       3.16532312       9.49796684        6       0.00029464       0.00010379      -0.00029464
I        3.16598895       3.16532312       6.32279476        7       0.00000017      -0.00000028       0.03783448
I        3.16598895      12.56837920       9.49796684        8      -0.00000175       0.29604857       0.00000175
I       12.65477265       3.16532312       9.49796684        9       0.03782179      -0.00000087       0.00000110
Cs      12.65323363       6.36813015       0.01072216       10      -0.00283042       0.00572191       0.00283042
Sn       3.16598895       9.49596936       3.16598895       11       0.00019396      -0.00019610       0.00019850
I        3.16598895       9.49596936       0.00059941       12      -0.00000357       0.00000311       0.00577961
I        3.16598895       6.41215024       3.16598895       13      -0.00000191      -0.24453739      -0.00000085
I       12.65707924       9.49596936       3.16598895       14       0.01131644       0.00000271      -0.00000354
Cs      12.65323363       6.36813015       6.32125573       15      -0.00282866       0.00571964      -0.00282535
Sn       3.16598895       9.49596936       9.49796684       16       0.00019895      -0.00018658      -0.00019895
I        3.16598895       9.49596936       6.33137848       17      -0.00000221       0.00000248      -0.00577935
I        3.16598895       6.42355952       9.49796684       18      -0.00000097      -0.29613707       0.00000097
I       12.66335638       9.49596936       9.49796684       19      -0.00577961       0.00000311       0.00000357
Cs       6.34270006      12.62380856       0.01072216       20       0.00282514      -0.00573521       0.00282849
Sn       9.49796684       3.16532312       3.16598895       21      -0.00020020       0.00019066       0.00020020
I        9.49796684       3.16532312       0.07662981       22       0.00000180      -0.00000251      -0.24784058
I        9.49796684      12.64750881       3.16598895       23       0.00000269       0.01249671      -0.00000269
I        6.40860771       3.16532312       3.16598895       24      -0.24791682      -0.00000175      -0.00000039
Cs       6.34270006      12.62380856       6.32125573       25       0.00282333      -0.00573354      -0.00282333
Pb       9.49796684       3.16532312       9.49796684       26      -0.00033497       0.00013273      -0.00014597
I        9.49796684       3.16532312       6.25534808       27       0.00000039      -0.00000175       0.24791682
I        9.49796684      12.57978847       9.49796684       28       0.00000157       0.24445718       0.00000266
I        6.34116103       3.16532312       9.49796684       29      -0.03783448      -0.00000028      -0.00000017
Cs       6.34270006       6.36813015       0.01072216       30       0.00282535       0.00571964       0.00282866
Sn       9.49796684       9.49596936       3.16598895       31      -0.00020159      -0.00020550       0.00020159
I        9.49796684       9.49596936       0.00687655       32       0.00000354       0.00000271      -0.01131644
I        9.49796684       6.34442991       3.16598895       33       0.00000230      -0.01249940      -0.00000230
I        6.33885445       9.49596936       3.16598895       34      -0.01131782       0.00000227      -0.00000210
Cs       6.34270006       6.36813015       6.32125573       35       0.00282310       0.00571691      -0.00282310
Sn       9.49796684       9.49596936       9.49796684       36      -0.00019850      -0.00019610      -0.00019396
I        9.49796684       9.49596936       6.32510134       37       0.00000210       0.00000227       0.01131782
I        9.49796684       6.41215024       9.49796684       38       0.00000085      -0.24453739       0.00000191
I        6.33257731       9.49596936       9.49796684       39       0.00577935       0.00000248       0.00000221
40
Lattice="12.663955790825192 0.0 0.0 0.0 12.66129247749311 0.0 0.0 -2.7344186957429516e-14 12.663955790825181" Properties=species:S:1:pos:R:3:spacegroup_kinds:I:1:forces:R:3 spacegroup="P 1" unit_cell=conventional candidate_id=70394866ea49e45d formula=FAPb0.33Sn0.67I3 config_index=1 rattle_stdev=0.08 method=PBE fidelity=phase2_force energy=-112.19665746163025 stress="-0.0011254973571269643 1.625910297382072e-05 2.096075292413782e-05 1.625910297382072e-05 -0.00016443942531848196 -5.189731068806943e-05 2.096075292413782e-05 -5.189731068806943e-05 -0.0015353225613602985" pbc="T T T"
Cs      12.56631792      12.55212335      -0.01378179        0      -0.02135864       0.01875752       0.02871416
Pb       3.05879425       3.06879627       3.11465080        1       0.19580627       0.19426171       0.27789440
I        3.27062460       3.31295995       0.07551233        2      -0.04720260      -0.01737374      -0.11993196
I        3.16412504      12.56310336       3.09265937        3       0.01248289       0.30696778       0.00034727
I       12.50134657       3.15843164       3.26005603        4       0.77357016       0.00013388       0.01619868
Cs      12.52242629      12.72206408       6.40736663        5       0.03528169       0.02506302      -0.03985672
Pb       3.19757078       3.13430705       9.54503898        6       0.06435701      -0.05500834      -0.11006935
I        3.05132504       3.13943714       6.42303353        7       0.03198272       0.02447428      -0.19279044
I        3.10752954      12.68265801       9.57353915        8      -0.01412409      -0.13807512       0.00709660
I       12.63365243       3.15226606       9.42083826        9       0.17645762       0.00734889       0.02939985
Cs      12.62582184       6.37204248      -0.02924840       10      -0.01122663      -0.01467629       0.02048213
Sn       2.98903659       9.52075631       3.03881685       11       0.52442358      -0.28612033      -0.12422445
I        3.22434532       9.48733726      -0.05141431       12      -0.05515763       0.02025330       0.06952089
I        3.03054443       6.38267232       3.03875921       13       0.00430525      -0.18371081       0.06133375
I       12.77551970       9.53392457       3.23909805       14      -0.57771575       0.01231486       0.01947682
Cs      12.73007125       6.37489356       6.45863421       15       0.01409756      -0.02910440      -0.02260920
Sn       3.23414037       9.43557853       9.31495650       16       0.25123115       0.14654234       0.18652736
I        3.17472804       9.45995671       6.29834069       17       0.00251225      -0.01451649      -0.01545769
I        3.19150765       6.38027088       9.57386016       18      -0.01983434       0.04212162      -0.04204546
I       12.67547118       9.50212155       9.49321481       19       0.19298834       0.02367499      -0.01988617
Cs       6.33708896      12.57851664       0.03560259       20       0.01705464       0.00736342       0.02410260
Sn       9.55590355       3.20663912       3.24807140       21      -0.45128423      -0.20534313      -0.50749363
I        9.53957905       3.09573604       0.19667503       22       0.04485104       0.01709006      -0.58367302
I        9.59128462      12.68686197       3.10740797       23      -0.01388111      -0.07953001       0.10809550
I        6.46303220       3.20604287       3.09898605       24      -0.51386116      -0.01408826       0.05059897
Cs       6.39451165      12.62481172       6.44602286       25      -0.02673180       0.00082507      -0.02724425
Pb       9.58073447       3.19233853       9.39375801       26      -0.22676760       0.23738957       0.23053791
I        9.40848330       3.27008433       6.21389072       27      -0.01967035      -0.02563273       0.71260940
I        9.46651690      12.66322595       9.50394406       28       0.02828362       0.12157872      -0.02985845
I        6.34831599       3.16963571       9.53144260       29      -0.02873527      -0.00117799      -0.00560369
Cs       6.24448165       6.28096683       0.03609211       30       0.01646788       0.00062908       0.02901958
Sn       9.43553440       9.42747887       3.06039924       31      -0.20462255       0.19007599       0.03787146
I        9.53426938       9.57611135       0.11997533       32       0.00033575      -0.02260450      -0.12857067
I        9.48275221       6.34683875       3.01611561       33       0.03245208       0.09517650       0.02288662
I        6.32951229       9.48577013       3.23816369       34       0.27999101      -0.00710153      -0.01172841
Cs       6.23755028       6.36016609       6.33249972       35       0.00102868      -0.00656747      -0.01617597
Sn       9.70827132       9.63643166       9.28711502       36      -0.38686528      -0.33832577       0.60659718
I        9.39503528       9.48223158       6.46913764       37       0.05889941       0.04934120      -0.60666083
I        9.54666249       6.41467229       9.38065387       38       0.01466082      -0.08973707       0.05387062
I        6.35733257       9.58734679       9.45709931       39      -0.15493355      -0.01639887       0.01000525
40
Lattice="12.663955790825192 0.0 0.0 0.0 12.66129247749311 0.0 0.0 -2.7344186957429516e-14 12.663955790825181" Properties=species:S:1:pos:R:3:spacegroup_kinds:I:1:forces:R:3 spacegroup="P 1" unit_cell=conventional candidate_id=70394866ea49e45d formula=FAPb0.33Sn0.67I3 config_index=2 rattle_stdev=0.08 method=PBE fidelity=phase2_force energy=-112.22219025709954 stress="-0.0002947941273342298 4.969986638067876e-05 1.9266593557367558e-05 4.969986638067876e-05 -0.0010233814958118413 -3.1113638372975275e-05 1.9266593557367558e-05 -3.1113638372975275e-05 -0.00018601233995398266" pbc="T T T"
Cs      12.64421658      12.53768344       0.15352432        0       0.01570104      -0.01158328      -0.04384537
Pb       3.04943028       3.13921746       3.06519723        1       0.46905248       0.21816100       0.18079358
I        3.19605827       3.09507133      -0.01881493        2      -0.02501482       0.02189096      -0.10275600
I        3.18972176      12.67586143       3.04046933        3      -0.01957839      -0.26638005       0.03319902
I       12.73564828       3.20484006       3.15553203        4      -0.52840252       0.01590139      -0.02720808
Cs      12.62098397      12.54591558       6.28385839        5      -0.01851983      -0.01880499       0.03842749
Pb       3.10855523       3.26303458       9.43579084        6       0.38329268       0.09000721       0.00479259
I        3.11890690       3.16071361       6.32916115        7       0.02500194      -0.08425837      -0.07486726
I        3.07133286      12.44447980       9.57094734        8      -0.00597054       0.83004201       0.00081567
I       12.68778631       3.10966160       9.31486509        9      -0.12287389      -0.00380813       0.02057356
Cs      12.59025431       6.28584882       0.01818681       10       0.02255210       0.02604767      -0.01303087
Sn       3.12365341       9.55838895       3.14992377       11       0.20391148      -0.22405816       0.04338010
I        3.12754026       9.41314839      -0.03961934       12       0.01284783      -0.02611415       0.32945150
I        3.22918016       6.33815043       3.34279177       13      -0.01806716       0.22237369      -0.06378893
I       12.54506034       9.47684157       3.18337620       14       0.45370493      -0.00799709       0.01645035
Cs      12.62504280       6.37500020       6.32978789       15       0.00005781       0.01691508       0.00900581
Sn       3.15022645       9.60372407       9.52558076       16      -0.09551623      -0.58673452      -0.09840196
I        3.21060050       9.44834654       6.39000506       17      -0.02552903       0.08123350      -0.28059175
I        3.27248916       6.36515688       9.45910638       18      -0.02116382      -0.31186633       0.03010700
I       12.74950952       9.28834076       9.51132110       19      -0.04448670       0.03300505      -0.00844521
Cs       6.42581683      12.47912265       0.07141344       20      -0.01868973       0.02974259      -0.01797918
Sn       9.45795782       2.97777967       3.15735553       21      -0.16292537       0.24232167       0.13289785
I        9.37774383       3.20442541       0.03237553       22       0.07249856       0.02518184      -0.12881272
I        9.58256745      12.57796338       3.15998166       23      -0.00167207       0.17198352      -0.00849520
I        6.40003531       3.33322888       3.13874591       24       0.09615140      -0.12189133      -0.00880661
Cs       6.30046765      12.52023922       6.33838365       25       0.02432212      -0.00322483       0.01198850
Pb       9.58806841       3.19744599       9.55921367       26      -0.37316928      -0.05369042      -0.14247915
I        9.38971665       3.21123180       6.23773711       27       0.04789781      -0.06383654       0.14560996
I        9.54958196      12.49941093       9.64994593       28       0.03295706       0.65995451       0.00368563
I        6.35850990       3.20532075       9.44783956       29       0.03118540      -0.05669758       0.00072197
Cs       6.26246932       6.30562534       0.02706438       30      -0.01751146      -0.03058563       0.00635306
Sn       9.54085420       9.40996956       2.98856057       31      -0.32365467      -0.21776541       0.40823543
I        9.54972126       9.47018249      -0.00692858       32       0.00619092      -0.03856292       0.06497139
I        9.31489310       6.33546640       3.24241405       33       0.09991692       0.00913494      -0.06536185
I        6.37523350       9.66092355       3.17098578       34      -0.32527727       0.00961843      -0.04327553
Cs       6.34292745       6.33184585       6.35113433       35       0.00350314      -0.00810332      -0.00899316
Sn       9.43291756       9.48784476       9.53362390       36       0.11701863       0.08649451      -0.41767827
I        9.39595655       9.50459590       6.39328029       37       0.06282838       0.06870209      -0.05176376
I        9.48541868       6.50725578       9.38018577       38       0.04961341      -0.78028780       0.04681252
I        6.40186057       9.42449820       9.45404919       39      -0.08518565       0.05696093       0.07873607
40
Lattice="12.663955790825192 0.0 0.0 0.0 12.66129247749311 0.0 0.0 -2.7344186957429516e-14 12.663955790825181" Properties=species:S:1:pos:R:3:spacegroup_kinds:I:1:forces:R:3 spacegroup="P 1" unit_cell=conventional candidate_id=70394866ea49e45d formula=FAPb0.33Sn0.67I3 config_index=3 rattle_stdev=0.08 method=PBE fidelity=phase2_force energy=-112.00867148945417 stress="-0.0007100431999188049 7.628435352552261e-05 -2.2880208069791005e-06 7.628435352552261e-05 -0.0006761216606872494 5.774916080829128e-05 -2.2880208069791005e-06 5.774916080829128e-05 -0.00023256559149487208" pbc="T T T"
Cs      12.54755015      12.78514879       0.01452732        0       0.02386360       0.03820986       0.02749272
Pb       3.14697525       3.17205293       3.24275233        1      -0.23697077      -0.22403773      -0.71461331
I        3.11146107       3.20764875      -0.05281032        2       0.02356161      -0.00219739      -0.10013583
I        3.27838544      12.56181403       3.06151809        3       0.01679197       0.04769531       0.01061947
I       12.53304316       3.03564846       3.06359106        4       0.34640273       0.05259876       0.03161549
Cs      12.63528989      12.55576368       6.26079652        5      -0.03319093       0.00602482      -0.02037291
Pb       3.18704261       2.96090768       9.36434417        6      -0.02503016       0.29868288       0.44888083
I        3.10905013       2.96958107       6.22065997        7      -0.03364034      -0.03334424       0.44619214
I        3.21907875      12.46607248       9.43473407        8      -0.03292486       0.85624451       0.01235177
I       12.53458299       3.07015992       9.67930206        9       0.51749099       0.02131272      -0.00525739
Cs      12.61509140       6.43986327      -0.13367290       10       0.01749664      -0.05837792      -0.00919316
Sn       3.12669178       9.40000963       3.10157132       11       0.00380265       0.33726080      -0.03340497
I        3.27845444       9.47754411      -0.05649631       12      -0.04442596      -0.04545959       0.44273944
I        3.15298194       6.35783985       3.28711836       13      -0.00989904      -0.08324342       0.01497244
I       12.51727341       9.54865173       3.13845965       14       0.93939826      -0.06580414       0.01449530
Cs      12.59253778       6.38189226       6.26867245       15      -0.03589086       0.00622276       0.00670198
Sn       3.21020459       9.52657802       9.46826361       16      -0.08961406      -0.62709370       0.00598928
I        3.29224046       9.51331316       6.42830582       17      -0.01339175       0.01205237      -0.42435436
I        3.22450739       6.47747920       9.45154235       18      -0.01558175      -0.51617512      -0.03175889
I       12.65540921       9.36918017       9.49198953       19      -0.14207149       0.02699740       0.01185573
Cs       6.43860477      12.60257475      -0.04142181       20      -0.02818928       0.00569882       0.00963832
Sn       9.34624392       3.04209920       3.13456309       21       0.42722426       0.22490615       0.04479595
I        9.46480838       3.22220854       0.12803185       22      -0.05662101      -0.01705589      -0.39195156
I        9.68975375      12.63392622       3.08491825       23      -0.11587889      -0.19396987       0.01788879
I        6.37312322       3.23300130       3.20553767       24      -0.42074938      -0.03162847       0.02738269
Cs       6.36499112      12.66557584       6.34666507       25       0.01849805      -0.04015753      -0.00114552
Pb       9.51613775       3.13409588       9.44052544       26      -0.18112283      -0.04709897      -0.03604225
I        9.62149574       3.09628751       6.22664187       27      -0.00751588      -0.01051458       0.36450366
I        9.50467099      12.71412624       9.40361987       28      -0.02419723      -0.56902583       0.06017700
I        6.30926286       3.13145197       9.54271379       29      -0.22195978      -0.02847787      -0.04034842
Cs       6.29652048       6.37382994       0.08009857       30      -0.00391575      -0.02015568      -0.02962746
Sn       9.53115956       9.47787058       3.22643640       31      -0.15212079      -0.17813721       0.15720584
I        9.51597723       9.46078911       0.05920290       32       0.02252015      -0.00344236      -0.01758371
I        9.42627698       6.23047401       3.30538768       33       0.06604008       0.19153398      -0.00824854
I        6.57240050       9.44207134       3.10430701       34      -0.80880080       0.02786456       0.01081152
Cs       6.42713944       6.45978719       6.33090558       35       0.01881791       0.02917317       0.01507442
Sn       9.49896632       9.44000764       9.64807077       36       0.07181155       0.02237539      -0.23371167
I        9.46191417       9.47147061       6.43812069       37       0.00960608       0.00928069      -0.09010927
I        9.44567956       6.23082492       9.54639500       38      -0.00909359       0.56959188       0.00454506
I        6.29063187       9.51256854       9.58567901       39       0.21854183       0.00883514       0.00225816
