Cs Pb I  Cs Pb Br I  Cs Pb Cl I  Cs Pb I  Cl I  Cs Pb I  Cl Cs Pb Br I  Cl Cs Pb I  Cl Cs Pb I  Cl
 1.0000000000000000
    12.8550598606151958    0.0000000000000000    0.0000000000000000
     0.0000000000000000   12.8550598606151958    0.0000000000000000
     0.0000000000000000    0.0000000000000000   12.8550598606151958
 Cs  Pb  I   Cs  Pb  Br  I   Cs  Pb  Cl  I   Cs  Pb  I   Cl  I   Cs  Pb  I   Cl  Cs  Pb  Br  I   Cl  Cs  Pb  I   Cl  Cs  Pb  I   Cl 
   1   1   3   1   1   2   1   1   1   2   1   1   1   1   1   1   1   1   2   1   1   1   1   1   1   1   1   1   2   1   1   1   2
Cartesian
  0.0000000000000000  0.0000000000000000  0.0000000000000000
  3.2137649651537989  3.2137649651537989  3.2137649651537989
  3.2137649651537989  3.2137649651537989  0.0000000000000000
  3.2137649651537989  0.0000000000000000  3.2137649651537989
  0.0000000000000000  3.2137649651537989  3.2137649651537989
  0.0000000000000000  0.0000000000000000  6.4275299303075970
  3.2137649651537989  3.2137649651537989  9.6412948954613960
  3.2137649651537989  3.2137649651537989  6.4275299303075970
  3.2137649651537989  0.0000000000000000  9.6412948954613960
  0.0000000000000000  3.2137649651537989  9.6412948954613960
  0.0000000000000000  6.4275299303075970  0.0000000000000000
  3.2137649651537989  9.6412948954613960  3.2137649651537989
  3.2137649651537989  9.6412948954613960  0.0000000000000000
  3.2137649651537989  6.4275299303075970  3.2137649651537989
  0.0000000000000000  9.6412948954613960  3.2137649651537989
  0.0000000000000000  6.4275299303075970  6.4275299303075970
  3.2137649651537989  9.6412948954613960  9.6412948954613960
  3.2137649651537989  9.6412948954613960  6.4275299303075970
  3.2137649651537989  6.4275299303075970  9.6412948954613960
  0.0000000000000000  9.6412948954613960  9.6412948954613960
  6.4275299303075970  0.0000000000000000  0.0000000000000000
  9.6412948954613960  3.2137649651537989  3.2137649651537989
  9.6412948954613960  3.2137649651537989  0.0000000000000000
  9.6412948954613960  0.0000000000000000  3.2137649651537989
  6.4275299303075970  3.2137649651537989  3.2137649651537989
  6.4275299303075970  0.0000000000000000  6.4275299303075970
  9.6412948954613960  3.2137649651537989  9.6412948954613960
  9.6412948954613960  3.2137649651537989  6.4275299303075970
  9.6412948954613960  0.0000000000000000  9.6412948954613960
  6.4275299303075970  3.2137649651537989  9.6412948954613960
  6.4275299303075970  6.4275299303075970  0.0000000000000000
  9.6412948954613960  9.6412948954613960  3.2137649651537989
  9.6412948954613960  9.6412948954613960  0.0000000000000000
  9.6412948954613960  6.4275299303075970  3.2137649651537989
  6.4275299303075970  9.6412948954613960  3.2137649651537989
  6.4275299303075970  6.4275299303075970  6.4275299303075970
  9.6412948954613960  9.6412948954613960  9.6412948954613960
  9.6412948954613960  9.6412948954613960  6.4275299303075970
  9.6412948954613960  6.4275299303075970  9.6412948954613960
  6.4275299303075970  9.6412948954613960  9.6412948954613960
