Cs Pb I  Cs Pb Br I  Cs Pb Cl I  Cs Pb I  Cl I  Cs Pb I  Cl Cs Pb Br I  Br Cs Pb I  Cl Br Cs Pb I  Br Cl
 1.0000000000000000
    12.9300131794209694    0.0000000000000000    0.0000000000000000
     0.0000000000000000   12.9300131794209694    0.0000000000000000
     0.0000000000000000    0.0000000000000000   12.9300131794209694
 Cs  Pb  I   Cs  Pb  Br  I   Cs  Pb  Cl  I   Cs  Pb  I   Cl  I   Cs  Pb  I   Cl  Cs  Pb  Br  I   Br  Cs  Pb  I   Cl  Br  Cs  Pb  I   Br  Cl 
   1   1   3   1   1   2   1   1   1   2   1   1   1   1   1   1   1   1   2   1   1   1   1   1   1   1   1   1   1   1   1   1   1   1   1
Cartesian
  0.0000000000000000  0.0000000000000000  0.0000000000000000
  3.2325032948552423  3.2325032948552423  3.2325032948552423
  3.2325032948552423  3.2325032948552423  0.0000000000000000
  3.2325032948552423  0.0000000000000000  3.2325032948552423
  0.0000000000000000  3.2325032948552423  3.2325032948552423
  0.0000000000000000  0.0000000000000000  6.4650065897104838
  3.2325032948552423  3.2325032948552423  9.6975098845657275
  3.2325032948552423  3.2325032948552423  6.4650065897104838
  3.2325032948552423  0.0000000000000000  9.6975098845657275
  0.0000000000000000  3.2325032948552423  9.6975098845657275
  0.0000000000000000  6.4650065897104838  0.0000000000000000
  3.2325032948552423  9.6975098845657275  3.2325032948552423
  3.2325032948552423  9.6975098845657275  0.0000000000000000
  3.2325032948552423  6.4650065897104838  3.2325032948552423
  0.0000000000000000  9.6975098845657275  3.2325032948552423
  0.0000000000000000  6.4650065897104838  6.4650065897104838
  3.2325032948552423  9.6975098845657275  9.6975098845657275
  3.2325032948552423  9.6975098845657275  6.4650065897104838
  3.2325032948552423  6.4650065897104838  9.6975098845657275
  0.0000000000000000  9.6975098845657275  9.6975098845657275
  6.4650065897104838  0.0000000000000000  0.0000000000000000
  9.6975098845657275  3.2325032948552423  3.2325032948552423
  9.6975098845657275  3.2325032948552423  0.0000000000000000
  9.6975098845657275  0.0000000000000000  3.2325032948552423
  6.4650065897104838  3.2325032948552423  3.2325032948552423
  6.4650065897104838  0.0000000000000000  6.4650065897104838
  9.6975098845657275  3.2325032948552423  9.6975098845657275
  9.6975098845657275  3.2325032948552423  6.4650065897104838
  9.6975098845657275  0.0000000000000000  9.6975098845657275
  6.4650065897104838  3.2325032948552423  9.6975098845657275
  6.4650065897104838  6.4650065897104838  0.0000000000000000
  9.6975098845657275  9.6975098845657275  3.2325032948552423
  9.6975098845657275  9.6975098845657275  0.0000000000000000
  9.6975098845657275  6.4650065897104838  3.2325032948552423
  6.4650065897104838  9.6975098845657275  3.2325032948552423
  6.4650065897104838  6.4650065897104838  6.4650065897104838
  9.6975098845657275  9.6975098845657275  9.6975098845657275
  9.6975098845657275  9.6975098845657275  6.4650065897104838
  9.6975098845657275  6.4650065897104838  9.6975098845657275
  6.4650065897104838  9.6975098845657275  9.6975098845657275
