40
Lattice="11.348263160987926 0.0 0.0 0.0 11.352203305404192 0.0 0.0 -2.199113750973217e-14 11.352203305404117" Properties=species:S:1:pos:R:3:spacegroup_kinds:I:1:forces:R:3 spacegroup="P 1" unit_cell=conventional occupancy="_JSON {\"0\": {\"K\": 1.0}, \"1\": {\"Sn\": 1.0}, \"2\": {\"Br\": 1.0}, \"3\": {\"Br\": 1.0}, \"4\": {\"Br\": 1.0}, \"5\": {\"K\": 1.0}, \"6\": {\"Sn\": 1.0}, \"7\": {\"Br\": 1.0}, \"8\": {\"Br\": 1.0}, \"9\": {\"Br\": 1.0}, \"10\": {\"K\": 1.0}, \"11\": {\"Ge\": 1.0}, \"12\": {\"Br\": 1.0}, \"13\": {\"Br\": 1.0}, \"14\": {\"Br\": 1.0}, \"15\": {\"K\": 1.0}, \"16\": {\"Ge\": 1.0}, \"17\": {\"Br\": 1.0}, \"18\": {\"Br\": 1.0}, \"19\": {\"Br\": 1.0}, \"20\": {\"K\": 1.0}, \"21\": {\"Ge\": 1.0}, \"22\": {\"Br\": 1.0}, \"23\": {\"Br\": 1.0}, \"24\": {\"Br\": 1.0}, \"25\": {\"K\": 1.0}, \"26\": {\"Sn\": 1.0}, \"27\": {\"Br\": 1.0}, \"28\": {\"Br\": 1.0}, \"29\": {\"Br\": 1.0}, \"30\": {\"K\": 1.0}, \"31\": {\"Ge\": 1.0}, \"32\": {\"Br\": 1.0}, \"33\": {\"Br\": 1.0}, \"34\": {\"Br\": 1.0}, \"35\": {\"K\": 1.0}, \"36\": {\"Sn\": 1.0}, \"37\": {\"Br\": 1.0}, \"38\": {\"Br\": 1.0}, \"39\": {\"Br\": 1.0}}" candidate_id=93308c652dce0584 formula=KGe0.49Sn0.51Br3 config_index=0 rattle_stdev=0.0 method=PBE fidelity=phase2_force energy=-125.28765758319327 stress="-0.0008404294727314323 -4.726568942950305e-16 -4.726568942950347e-16 -4.726568942950305e-16 -0.0010168093662773646 8.606116986532238e-16 -4.726568942950347e-16 8.606116986532238e-16 -0.0010168093662773778" pbc="T T T"
K        0.00000000      11.12820878       0.22399453        0       0.00000000       0.04701930      -0.04701930
Sn       2.83706579       2.83805083       2.83805083        1      -0.00000000      -0.00000000      -0.00000000
Br       2.83706579       2.83805083       0.00241777        2      -0.00000000       0.00000000       0.03420133
Br       2.83706579      11.33214199       2.83805083        3      -0.00000000      -0.45716266       0.00000000
Br      11.33663749       2.83805083       2.83805083        4      -0.42903070       0.00000000       0.00000000
K        0.00000000      11.12820878       5.45210713        5      -0.00000000       0.04701930       0.04701930
Sn       2.83706579       2.83805083       8.51415248        6       0.00000000      -0.00000000       0.00000000
Br       2.83706579       2.83805083       5.67368388        7       0.00000000       0.00000000      -0.03420133
Br       2.83706579      11.33678657       8.51415248        8      -0.00000000      -0.46345231       0.00000000
Br      11.34826316       2.83805083       8.51415248        9       0.00000000       0.00000000      -0.00000000
K        0.00000000       5.90009618       0.22399453       10       0.00000000      -0.04701930      -0.04701930
Ge       2.83706579       8.51415248       2.83805083       11      -0.00000000      -0.00000000      -0.00000000
Br       2.83706579       8.51415248       0.00864669       12      -0.00000000       0.00000000       0.04773304
Br       2.83706579       5.69616297       2.83805083       13      -0.00000000       0.45716266       0.00000000
Br       0.00000000       8.51415248       2.83805083       14       0.00000000      -0.00000000       0.00000000
K        0.00000000       5.90009618       5.45210713       15       0.00000000      -0.04701930       0.04701930
Ge       2.83706579       8.51415248       8.51415248       16      -0.00000000      -0.00000000      -0.00000000
Br       2.83706579       8.51415248       5.66745496       17      -0.00000000      -0.00000000      -0.04773304
Br       2.83706579       5.69151839       8.51415248       18      -0.00000000       0.46345231      -0.00000000
Br       0.01162567       8.51415248       8.51415248       19       0.42903070      -0.00000000      -0.00000000
K        5.67413158      11.12820878       0.22399453       20       0.00000000       0.04701930      -0.04701930
Ge       8.51119737       2.83805083       2.83805083       21       0.00000000       0.00000000       0.00000000
Br       8.51119737       2.83805083       0.01541674       22       0.00000000      -0.00000000       0.46345231
Br       8.51119737      11.34355662       2.83805083       23       0.00000000      -0.04773304      -0.00000000
Br       5.68575725       2.83805083       2.83805083       24       0.42903070       0.00000000      -0.00000000
K        5.67413158      11.12820878       5.45210713       25       0.00000000       0.04701930       0.04701930
Sn       8.51119737       2.83805083       8.51415248       26      -0.00000000      -0.00000000       0.00000000
Br       8.51119737       2.83805083       5.66068491       27       0.00000000       0.00000000      -0.46345231
Br       8.51119737      11.34978554       8.51415248       28       0.00000000      -0.03420133      -0.00000000
Br       5.67413158       2.83805083       8.51415248       29       0.00000000       0.00000000      -0.00000000
K        5.67413158       5.90009618       0.22399453       30      -0.00000000      -0.04701930      -0.04701930
Ge       8.51119737       8.51415248       2.83805083       31       0.00000000       0.00000000       0.00000000
Br       8.51119737       8.51415248       0.02006132       32       0.00000000      -0.00000000       0.45716266
Br       8.51119737       5.68474834       2.83805083       33       0.00000000       0.04773304       0.00000000
Br       5.67413158       8.51415248       2.83805083       34       0.00000000      -0.00000000       0.00000000
K        5.67413158       5.90009618       5.45210713       35       0.00000000      -0.04701930       0.04701930
Sn       8.51119737       8.51415248       8.51415248       36       0.00000000       0.00000000       0.00000000
Br       8.51119737       8.51415248       5.65604034       37       0.00000000      -0.00000000      -0.45716266
Br       8.51119737       5.67851942       8.51415248       38      -0.00000000       0.03420133      -0.00000000
Br       5.66250591       8.51415248       8.51415248       39      -0.42903070       0.00000000      -0.00000000
40
Lattice="11.348263160987926 0.0 0.0 0.0 11.352203305404192 0.0 0.0 -2.199113750973217e-14 11.352203305404117" Properties=species:S:1:pos:R:3:spacegroup_kinds:I:1:forces:R:3 spacegroup="P 1" unit_cell=conventional occupancy="_JSON {\"0\": {\"K\": 1.0}, \"1\": {\"Sn\": 1.0}, \"2\": {\"Br\": 1.0}, \"3\": {\"Br\": 1.0}, \"4\": {\"Br\": 1.0}, \"5\": {\"K\": 1.0}, \"6\": {\"Sn\": 1.0}, \"7\": {\"Br\": 1.0}, \"8\": {\"Br\": 1.0}, \"9\": {\"Br\": 1.0}, \"10\": {\"K\": 1.0}, \"11\": {\"Ge\": 1.0}, \"12\": {\"Br\": 1.0}, \"13\": {\"Br\": 1.0}, \"14\": {\"Br\": 1.0}, \"15\": {\"K\": 1.0}, \"16\": {\"Ge\": 1.0}, \"17\": {\"Br\": 1.0}, \"18\": {\"Br\": 1.0}, \"19\": {\"Br\": 1.0}, \"20\": {\"K\": 1.0}, \"21\": {\"Ge\": 1.0}, \"22\": {\"Br\": 1.0}, \"23\": {\"Br\": 1.0}, \"24\": {\"Br\": 1.0}, \"25\": {\"K\": 1.0}, \"26\": {\"Sn\": 1.0}, \"27\": {\"Br\": 1.0}, \"28\": {\"Br\": 1.0}, \"29\": {\"Br\": 1.0}, \"30\": {\"K\": 1.0}, \"31\": {\"Ge\": 1.0}, \"32\": {\"Br\": 1.0}, \"33\": {\"Br\": 1.0}, \"34\": {\"Br\": 1.0}, \"35\": {\"K\": 1.0}, \"36\": {\"Sn\": 1.0}, \"37\": {\"Br\": 1.0}, \"38\": {\"Br\": 1.0}, \"39\": {\"Br\": 1.0}}" candidate_id=93308c652dce0584 formula=KGe0.49Sn0.51Br3 config_index=1 rattle_stdev=0.08 method=PBE fidelity=phase2_force energy=-124.70025205106926 stress="-0.003099608848418097 0.00014466130916248454 -0.0002497966169359597 0.00014466130916248454 -0.003040423104235996 -0.00012954379007848322 -0.0002497966169359597 -0.00012954379007848322 -0.004041462770409482" pbc="T T T"
K       -0.08691571      11.05652357       0.19949058        0      -0.04865543       0.09070884      -0.02341557
Sn       2.72987110       2.74152398       2.78671268        1       0.41425851       0.41836663       0.36312597
Br       2.94170144       2.98568766       0.06874697        2      -0.06439585      -0.03000832      -0.05379456
Br       2.83520189      11.31545687       2.76472125        3      -0.02369958      -0.53717940      -0.03490280
Br      11.25065808       2.83115935       2.93211791        4      -0.01216042      -0.00014399       0.02377442
K       -0.13080734      11.22646430       5.53821803        5       0.03550292       0.12867405      -0.00793870
Sn       2.86864762       2.80703476       8.56122462        6       0.10683339       0.07062758      -0.17271797
Br       2.72240188       2.81216485       5.77392266        7       0.05444934       0.02403875      -0.30290934
Br       2.77860638      11.45106537       8.58972479        8      -0.01882966      -0.92326975       0.00544549
Br      11.32714294       2.82499376       8.43702390        9       0.17431255       0.00115631       0.01799907
K       -0.02741179       5.90400850       0.18402397       10       0.00259136      -0.09456070      -0.02885731
Ge       2.66011343       8.53893943       2.71087872       11       0.53615423      -0.24170622      -0.18284732
Br       2.89542216       8.50552038      -0.04336703       12      -0.11089508       0.03959896       0.21160610
Br       2.70162127       5.66668505       2.71082109       13      -0.02936539       0.42681283       0.08542070
Br       0.11844047       8.55210770       2.91115993       14      -0.52770674       0.00835000      -0.01725316
K        0.07683762       5.90685958       5.58948560       15       0.04710894      -0.11652600       0.04163995
Ge       2.90521721       8.45376165       8.33114213       16       0.37976866      -0.06959519       0.17835091
Br       2.84580489       8.47813983       5.63441717       17      -0.01483934      -0.02320620       0.10991453
Br       2.86258449       5.64822975       8.59004580       18      -0.01947621       0.96132553      -0.11664882
Br       0.02374048       8.52030467       8.50940045       19       0.88647189       0.00588542      -0.05665584
K        5.66852048      11.08291686       0.24887495       20       0.01933094       0.06951652      -0.03292527
Ge       8.56913408       2.87936683       2.92013328       21      -0.37308080      -0.24371176      -0.59706027
Br       8.55280958       2.76846374       0.13546195       22       0.08770657       0.04283241      -0.03301620
Br       8.60451514      11.38290978       2.77946985       23      -0.00921455      -0.14481940       0.18051805
Br       5.74018174       2.87877057       2.77104793       24      -0.05459139      -0.00440261       0.09403453
K        5.72594317      11.12921194       5.57687426       25      -0.02273413       0.05193769       0.03357559
Sn       8.59396500       2.86506624       8.40994365       26      -0.28998252       0.34839581       0.48910497
Br       8.42171383       2.94281204       5.61922755       27      -0.01042467      -0.05301533      -0.09244413
Br       8.47974743      11.43322302       8.52012970       28       0.05264600      -0.26884478      -0.10903123
Br       5.68128654       2.84236342       8.54762824       29      -0.02833097      -0.01058283      -0.03019487
K        5.57591318       5.81293285       0.24936448       30      -0.03283679      -0.10293714      -0.01746745
Ge       8.44876493       8.44566200       2.73246111       31      -0.25437933       0.14066550      -0.18402130
Br       8.54749990       8.59429447       0.13316009       32      -0.00394527      -0.05543907       0.27658565
Br       8.49598274       5.68715718       2.68817749       33       0.05403240       0.25188543       0.04736712
Br       5.66478943       8.50395325       2.91022557       34       0.39373833      -0.01059098      -0.05015437
K        5.56898181       5.89213212       5.46335112       35      -0.01551906      -0.07841524       0.03435464
Sn       8.72150185       8.65461479       8.30330065       36      -0.79930447      -0.40597768       1.54933880
Br       8.40826581       8.50041470       5.80007663       37       0.01355688       0.02383322      -1.67692392
Br       8.55989302       5.68104147       8.39683950       38       0.05330156       0.31153091       0.03082674
Br       5.68726117       8.60552991       8.47328495       39      -0.53450933      -0.01562245      -0.03011322
40
Lattice="11.348263160987926 0.0 0.0 0.0 11.352203305404192 0.0 0.0 -2.199113750973217e-14 11.352203305404117" Properties=species:S:1:pos:R:3:spacegroup_kinds:I:1:forces:R:3 spacegroup="P 1" unit_cell=conventional occupancy="_JSON {\"0\": {\"K\": 1.0}, \"1\": {\"Sn\": 1.0}, \"2\": {\"Br\": 1.0}, \"3\": {\"Br\": 1.0}, \"4\": {\"Br\": 1.0}, \"5\": {\"K\": 1.0}, \"6\": {\"Sn\": 1.0}, \"7\": {\"Br\": 1.0}, \"8\": {\"Br\": 1.0}, \"9\": {\"Br\": 1.0}, \"10\": {\"K\": 1.0}, \"11\": {\"Ge\": 1.0}, \"12\": {\"Br\": 1.0}, \"13\": {\"Br\": 1.0}, \"14\": {\"Br\": 1.0}, \"15\": {\"K\": 1.0}, \"16\": {\"Ge\": 1.0}, \"17\": {\"Br\": 1.0}, \"18\": {\"Br\": 1.0}, \"19\": {\"Br\": 1.0}, \"20\": {\"K\": 1.0}, \"21\": {\"Ge\": 1.0}, \"22\": {\"Br\": 1.0}, \"23\": {\"Br\": 1.0}, \"24\": {\"Br\": 1.0}, \"25\": {\"K\": 1.0}, \"26\": {\"Sn\": 1.0}, \"27\": {\"Br\": 1.0}, \"28\": {\"Br\": 1.0}, \"29\": {\"Br\": 1.0}, \"30\": {\"K\": 1.0}, \"31\": {\"Ge\": 1.0}, \"32\": {\"Br\": 1.0}, \"33\": {\"Br\": 1.0}, \"34\": {\"Br\": 1.0}, \"35\": {\"K\": 1.0}, \"36\": {\"Sn\": 1.0}, \"37\": {\"Br\": 1.0}, \"38\": {\"Br\": 1.0}, \"39\": {\"Br\": 1.0}}" candidate_id=93308c652dce0584 formula=KGe0.49Sn0.51Br3 config_index=2 rattle_stdev=0.08 method=PBE fidelity=phase2_force energy=-124.53511832921626 stress="-0.003201058154573458 1.0492537900617686e-05 1.5016378688735263e-05 1.0492537900617686e-05 -0.0031841997778534518 -7.614912612284964e-05 1.5016378688735263e-05 -7.614912612284964e-05 -0.0024402034343821025" pbc="T T T"
K       -0.00901704      11.04208366       0.36679668        0       0.02969475       0.03572003      -0.12488637
Sn       2.72050713       2.81194516       2.73725911        1       1.10118339       0.37863766       0.23640371
Br       2.86713511       2.76779904      -0.02558029        2      -0.07750774       0.08297445      -0.01953754
Br       2.86079861      11.42821494       2.71253121        3      -0.04858669      -1.14406412       0.06626182
Br      11.48495979       2.87756777       2.82759391        4      -1.56091488       0.03197536      -0.04050959
K       -0.03224966      11.05031580       5.41470979        5      -0.02041876       0.02766716       0.12454907
Sn       2.77963207       2.93576229       8.45197648        6       0.57561730      -0.18154252      -0.01029466
Br       2.78998374       2.83344132       5.68005027        7       0.02447895      -0.11123767      -0.21685944
Br       2.74240971      11.21288717       8.58713297        8       0.02203339      -0.21171098      -0.02060221
Br      11.38127682       2.78238931       8.33105073        9      -0.17992438       0.03846685       0.02827442
K       -0.06297932       5.81781484       0.23145917       10       0.02145249      -0.01217195      -0.06730201
Ge       2.79473026       8.57657207       2.82198565       11       0.26686184      -0.19387187       0.05083232
Br       2.79861710       8.43133151      -0.03157206       12       0.02241973      -0.02139994       0.40739601
Br       2.90025701       5.62216316       3.01485365       13      -0.05821337       0.88735900      -0.10210704
Br      -0.11201889       8.49502469       2.85543808       14       0.43557613      -0.03753507      -0.01305186
K       -0.02819082       5.90696622       5.46063929       15      -0.00634050      -0.03762044       0.09647703
Ge       2.82130329       8.62190719       8.54176640       16      -0.27375870      -0.02394290      -0.10018243
Br       2.88167734       8.46652967       5.72608154       17      -0.04686852       0.14110278      -0.33942099
Br       2.94356600       5.63311576       8.47529202       18      -0.02044593       0.31721224       0.04318710
Br       0.09777881       8.30652389       8.52750673       19       0.32000284       0.04081076      -0.02480724
K        5.75724835      10.98352287       0.28468580       20      -0.02945888       0.10045150      -0.08873639
Ge       8.47118835       2.65050737       2.82941741       21      -0.47273261       0.33309346       0.25766782
Br       8.39097436       2.87715312      -0.02883754       22       0.10248149       0.03637327       0.66625207
Br       8.59579797      11.27401119       2.83204354       23       0.01481137       0.24170693      -0.04029462
Br       5.67718486       3.00595659       2.81080779       24       0.79048246      -0.21155776      -0.01157217
K        5.63189917      11.02463943       5.46923505       25       0.01997930       0.03388798       0.08423506
Sn       8.60129894       2.87017369       8.57539930       26      -0.54773499      -0.11320994      -0.37425172
Br       8.40294717       2.88395951       5.64307394       27       0.06538094      -0.12655255      -0.56950822
Br       8.56281249      11.26940799       8.66613156       28       0.02930603       0.58843097       0.02548742
Br       5.69148045       2.87804846       8.46402519       29       0.06322761      -0.06047378      -0.00846269
K        5.59390084       5.83759136       0.24033674       30      -0.03087083      -0.12122509      -0.01069399
Ge       8.55408473       8.42815268       2.66062245       31      -0.36746114      -0.27524122       0.42811600
Br       8.56295179       8.48836562       0.00625618       32       0.01360546      -0.07490386       0.70780577
Br       8.32812363       5.67578483       2.91447593       33       0.17541406       0.18489365      -0.13659636
Br       5.71051064       8.67910668       2.84304766       34      -0.33429450      -0.04240670      -0.09742255
K        5.67435898       5.86381187       5.48198573       35       0.01777136      -0.08750946       0.04580427
Sn       8.44614809       8.50602788       8.54980954       36       0.38032971       0.12113920      -0.56129191
Br       8.40918708       8.52277902       5.72421929       37       0.07689818       0.09665309      -0.44286898
Br       8.49864920       5.77362496       8.39637141       38       0.06166754      -0.68928077       0.04425802
Br       5.73178918       8.44268132       8.47023483       39      -0.58106515       0.07146789       0.09659261
40
Lattice="11.348263160987926 0.0 0.0 0.0 11.352203305404192 0.0 0.0 -2.199113750973217e-14 11.352203305404117" Properties=species:S:1:pos:R:3:spacegroup_kinds:I:1:forces:R:3 spacegroup="P 1" unit_cell=conventional occupancy="_JSON {\"0\": {\"K\": 1.0}, \"1\": {\"Sn\": 1.0}, \"2\": {\"Br\": 1.0}, \"3\": {\"Br\": 1.0}, \"4\": {\"Br\": 1.0}, \"5\": {\"K\": 1.0}, \"6\": {\"Sn\": 1.0}, \"7\": {\"Br\": 1.0}, \"8\": {\"Br\": 1.0}, \"9\": {\"Br\": 1.0}, \"10\": {\"K\": 1.0}, \"11\": {\"Ge\": 1.0}, \"12\": {\"Br\": 1.0}, \"13\": {\"Br\": 1.0}, \"14\": {\"Br\": 1.0}, \"15\": {\"K\": 1.0}, \"16\": {\"Ge\": 1.0}, \"17\": {\"Br\": 1.0}, \"18\": {\"Br\": 1.0}, \"19\": {\"Br\": 1.0}, \"20\": {\"K\": 1.0}, \"21\": {\"Ge\": 1.0}, \"22\": {\"Br\": 1.0}, \"23\": {\"Br\": 1.0}, \"24\": {\"Br\": 1.0}, \"25\": {\"K\": 1.0}, \"26\": {\"Sn\": 1.0}, \"27\": {\"Br\": 1.0}, \"28\": {\"Br\": 1.0}, \"29\": {\"Br\": 1.0}, \"30\": {\"K\": 1.0}, \"31\": {\"Ge\": 1.0}, \"32\": {\"Br\": 1.0}, \"33\": {\"Br\": 1.0}, \"34\": {\"Br\": 1.0}, \"35\": {\"K\": 1.0}, \"36\": {\"Sn\": 1.0}, \"37\": {\"Br\": 1.0}, \"38\": {\"Br\": 1.0}, \"39\": {\"Br\": 1.0}}" candidate_id=93308c652dce0584 formula=KGe0.49Sn0.51Br3 config_index=3 rattle_stdev=0.08 method=PBE fidelity=phase2_force energy=-124.55035483973771 stress="-0.002477654902579023 0.00016881285509515756 3.626667187531123e-05 0.00016881285509515756 -0.002866191683214941 -6.947524155864434e-05 3.626667187531123e-05 -6.947524155864434e-05 -0.0022487413031880327" pbc="T T T"
K       -0.10568348      11.28954901       0.22779968        0       0.03352991       0.16558645      -0.00793590
Sn       2.81805210       2.84478064       2.91481421        1      -0.37612364      -0.39242714      -1.02673703
Br       2.78253791       2.88037646      -0.05957569        2       0.03962796      -0.01035311      -0.04590582
Br       2.94946229      11.31416755       2.73357997        3       0.03176816      -0.54275702       0.00905218
Br      11.28235467       2.70837616       2.73565294        4      -0.13767643       0.03790656       0.04271439
K       -0.01794374      11.06016390       5.39164792        5      -0.02638519       0.08352145       0.02068784
Sn       2.85811945       2.63363538       8.38052981        6      -0.05695838       0.71151604       0.72448087
Br       2.78012698       2.64230878       5.57154910        7      -0.05340694      -0.08255502       0.47173868
Br       2.89015559      11.23447985       8.45091970        8      -0.03264396      -0.08028915       0.02091326
Br      11.22807350       2.74288763       8.69548769        9       0.53445908       0.00474485      -0.00090547
K       -0.03814223       5.97182930       0.07959947       10       0.03090245      -0.12435360      -0.09808063
Ge       2.79776862       8.41819275       2.77363320       11       0.05957629       0.29590307      -0.09101148
Br       2.94953128       8.49572723      -0.04844903       12      -0.08688421      -0.07264888       0.58001590
Br       2.82405879       5.64185258       2.95918024       13      -0.03844839       0.77990324       0.00785030
Br      -0.13980583       8.56683485       2.81052153       14       0.94498990      -0.12929681       0.02879911
K       -0.06069585       5.91385828       5.39952385       15      -0.04419978      -0.04368891       0.05351453
Ge       2.88128143       8.54476114       8.48444925       16       0.01944777      -0.66873407      -0.05417864
Br       2.96331731       8.53149628       5.76438230       17      -0.03383720       0.02315742      -0.42011991
Br       2.89558424       5.74543808       8.46772799       18      -0.02415121       0.07606802      -0.05964656
Br       0.00367850       8.38736329       8.50817517       19       0.18893703       0.02057473       0.02290280
K        5.77003629      11.10697496       0.17185056       20      -0.05652695       0.04888281      -0.03955582
Ge       8.35947444       2.71482691       2.80662497       21       0.37087868       0.33255023      -0.09383460
Br       8.47803890       2.89493625       0.06681877       22      -0.11024253      -0.07890729       0.31842076
Br       8.70298428      11.32997403       2.75698013       23      -0.20667242      -0.24176807       0.03033911
Br       5.65027276       2.90572900       2.87759955       24       0.41298798      -0.07626011       0.02645514
K        5.69642264      11.16997605       5.47751646       25      -0.01023137      -0.00031328       0.04942472
Sn       8.52936828       2.80682359       8.45671107       26      -0.19291101      -0.04059578       0.06284356
Br       8.63472626       2.76901522       5.63197871       27      -0.02917998      -0.02284853      -0.24907366
Br       8.51790152      11.48412330       8.41980550       28      -0.03963233      -1.26580081       0.07853608
Br       5.64223341       2.80417968       8.55889943       29      -0.18857331      -0.07104635      -0.07705378
K        5.62795200       5.90579597       0.29337093       30      -0.01634117      -0.09489764      -0.08995161
Ge       8.54439009       8.49605370       2.89849828       31      -0.19006955      -0.17618719       0.11717106
Br       8.52920776       8.47897224       0.07238766       32       0.05021870      -0.00550639       0.57235439
Br       8.43950751       5.57079245       2.97744956       33       0.08699934       0.25860966      -0.01803144
Br       5.90767763       8.46025446       2.77636889       34      -0.77499847       0.05969970       0.04327228
K        5.75857096       5.99175322       5.46175697       35       0.01900744      -0.00732737       0.06232175
Sn       8.51219684       8.45819076       8.66425641       36       0.05276222       0.02256153      -0.46312861
Br       8.47514470       8.48965374       5.76905969       37       0.01245108       0.01897424      -0.52064478
Br       8.45891009       5.49719410       8.56258064       38      -0.00650680       1.25057940       0.00608638
Br       5.62056047       8.53075166       8.60186465       39      -0.15624916       0.03160197       0.00728842
