Rb Pb I  Rb Pb I  Rb Ge I  Rb Ge I  Rb Ge I  Rb Pb I  Rb Ge I  Rb Pb I 
 1.0000000000000000
    12.6771517944686600    0.0000000000000000    0.0000000000000000
     0.0000000000000000   12.6771517944686600    0.0000000000000000
     0.0000000000000000    0.0000000000000000   12.6771517944686600
 Rb  Pb  I   Rb  Pb  I   Rb  Ge  I   Rb  Ge  I   Rb  Ge  I   Rb  Pb  I   Rb  Ge  I   Rb  Pb  I  
   1   1   3   1   1   3   1   1   3   1   1   3   1   1   3   1   1   3   1   1   3   1   1   3
Cartesian
  0.0000000000000000  0.0000000000000000  0.0000000000000000
  3.1692879486171641  3.1692879486171641  3.1692879486171641
  3.1692879486171641  3.1692879486171641  0.0000000000000000
  3.1692879486171641  0.0000000000000000  3.1692879486171641
  0.0000000000000000  3.1692879486171641  3.1692879486171641
  0.0000000000000000  0.0000000000000000  6.3385758972343291
  3.1692879486171641  3.1692879486171641  9.5078638458514959
  3.1692879486171641  3.1692879486171641  6.3385758972343291
  3.1692879486171641  0.0000000000000000  9.5078638458514959
  0.0000000000000000  3.1692879486171641  9.5078638458514959
  0.0000000000000000  6.3385758972343291  0.0000000000000000
  3.1692879486171641  9.5078638458514959  3.1692879486171641
  3.1692879486171641  9.5078638458514959  0.0000000000000000
  3.1692879486171641  6.3385758972343291  3.1692879486171641
  0.0000000000000000  9.5078638458514959  3.1692879486171641
  0.0000000000000000  6.3385758972343291  6.3385758972343291
  3.1692879486171641  9.5078638458514959  9.5078638458514959
  3.1692879486171641  9.5078638458514959  6.3385758972343291
  3.1692879486171641  6.3385758972343291  9.5078638458514959
  0.0000000000000000  9.5078638458514959  9.5078638458514959
  6.3385758972343291  0.0000000000000000  0.0000000000000000
  9.5078638458514959  3.1692879486171641  3.1692879486171641
  9.5078638458514959  3.1692879486171641  0.0000000000000000
  9.5078638458514959  0.0000000000000000  3.1692879486171641
  6.3385758972343291  3.1692879486171641  3.1692879486171641
  6.3385758972343291  0.0000000000000000  6.3385758972343291
  9.5078638458514959  3.1692879486171641  9.5078638458514959
  9.5078638458514959  3.1692879486171641  6.3385758972343291
  9.5078638458514959  0.0000000000000000  9.5078638458514959
  6.3385758972343291  3.1692879486171641  9.5078638458514959
  6.3385758972343291  6.3385758972343291  0.0000000000000000
  9.5078638458514959  9.5078638458514959  3.1692879486171641
  9.5078638458514959  9.5078638458514959  0.0000000000000000
  9.5078638458514959  6.3385758972343291  3.1692879486171641
  6.3385758972343291  9.5078638458514959  3.1692879486171641
  6.3385758972343291  6.3385758972343291  6.3385758972343291
  9.5078638458514959  9.5078638458514959  9.5078638458514959
  9.5078638458514959  9.5078638458514959  6.3385758972343291
  9.5078638458514959  6.3385758972343291  9.5078638458514959
  6.3385758972343291  9.5078638458514959  9.5078638458514959
