Cs Pb I  Cs Pb I  Cs Ge I  Cs Ge I  Cs Ge I  Cs Pb I  Cs Ge I  Cs Pb I 
 1.0000000000000000
    12.5846622274894600    0.0000000000000000    0.0000000000000000
     0.0000000000000000   12.5846622274894600    0.0000000000000000
     0.0000000000000000    0.0000000000000000   12.5846622274894600
 Cs  Pb  I   Cs  Pb  I   Cs  Ge  I   Cs  Ge  I   Cs  Ge  I   Cs  Pb  I   Cs  Ge  I   Cs  Pb  I  
   1   1   3   1   1   3   1   1   3   1   1   3   1   1   3   1   1   3   1   1   3   1   1   3
Cartesian
  0.0000000000000000  0.0000000000000000  0.0000000000000000
  3.1461655568723650  3.1461655568723650  3.1461655568723650
  3.1461655568723650  3.1461655568723650  0.0000000000000000
  3.1461655568723650  0.0000000000000000  3.1461655568723650
  0.0000000000000000  3.1461655568723650  3.1461655568723650
  0.0000000000000000  0.0000000000000000  6.2923311137447291
  3.1461655568723650  3.1461655568723650  9.4384966706170950
  3.1461655568723650  3.1461655568723650  6.2923311137447291
  3.1461655568723650  0.0000000000000000  9.4384966706170950
  0.0000000000000000  3.1461655568723650  9.4384966706170950
  0.0000000000000000  6.2923311137447291  0.0000000000000000
  3.1461655568723650  9.4384966706170950  3.1461655568723650
  3.1461655568723650  9.4384966706170950  0.0000000000000000
  3.1461655568723650  6.2923311137447291  3.1461655568723650
  0.0000000000000000  9.4384966706170950  3.1461655568723650
  0.0000000000000000  6.2923311137447291  6.2923311137447291
  3.1461655568723650  9.4384966706170950  9.4384966706170950
  3.1461655568723650  9.4384966706170950  6.2923311137447291
  3.1461655568723650  6.2923311137447291  9.4384966706170950
  0.0000000000000000  9.4384966706170950  9.4384966706170950
  6.2923311137447291  0.0000000000000000  0.0000000000000000
  9.4384966706170950  3.1461655568723650  3.1461655568723650
  9.4384966706170950  3.1461655568723650  0.0000000000000000
  9.4384966706170950  0.0000000000000000  3.1461655568723650
  6.2923311137447291  3.1461655568723650  3.1461655568723650
  6.2923311137447291  0.0000000000000000  6.2923311137447291
  9.4384966706170950  3.1461655568723650  9.4384966706170950
  9.4384966706170950  3.1461655568723650  6.2923311137447291
  9.4384966706170950  0.0000000000000000  9.4384966706170950
  6.2923311137447291  3.1461655568723650  9.4384966706170950
  6.2923311137447291  6.2923311137447291  0.0000000000000000
  9.4384966706170950  9.4384966706170950  3.1461655568723650
  9.4384966706170950  9.4384966706170950  0.0000000000000000
  9.4384966706170950  6.2923311137447291  3.1461655568723650
  6.2923311137447291  9.4384966706170950  3.1461655568723650
  6.2923311137447291  6.2923311137447291  6.2923311137447291
  9.4384966706170950  9.4384966706170950  9.4384966706170950
  9.4384966706170950  9.4384966706170950  6.2923311137447291
  9.4384966706170950  6.2923311137447291  9.4384966706170950
  6.2923311137447291  9.4384966706170950  9.4384966706170950
