Cs Sn I  Cs Sn I  Cs Sn I  Cs Ge I  Cs Sn I  Cs Sn I  Cs Ge I  Cs Sn I 
 1.0000000000000000
    13.0469686410292240    0.0000000000000000    0.0000000000000000
     0.0000000000000000   13.0469686410292240    0.0000000000000000
     0.0000000000000000    0.0000000000000000   13.0469686410292240
 Cs  Sn  I   Cs  Sn  I   Cs  Sn  I   Cs  Ge  I   Cs  Sn  I   Cs  Sn  I   Cs  Ge  I   Cs  Sn  I  
   1   1   3   1   1   3   1   1   3   1   1   3   1   1   3   1   1   3   1   1   3   1   1   3
Cartesian
  0.0000000000000000  0.0000000000000000  0.0000000000000000
  3.2617421602573060  3.2617421602573060  3.2617421602573060
  3.2617421602573060  3.2617421602573060  0.0000000000000000
  3.2617421602573060  0.0000000000000000  3.2617421602573060
  0.0000000000000000  3.2617421602573060  3.2617421602573060
  0.0000000000000000  0.0000000000000000  6.5234843205146111
  3.2617421602573060  3.2617421602573060  9.7852264807719198
  3.2617421602573060  3.2617421602573060  6.5234843205146111
  3.2617421602573060  0.0000000000000000  9.7852264807719198
  0.0000000000000000  3.2617421602573060  9.7852264807719198
  0.0000000000000000  6.5234843205146111  0.0000000000000000
  3.2617421602573060  9.7852264807719198  3.2617421602573060
  3.2617421602573060  9.7852264807719198  0.0000000000000000
  3.2617421602573060  6.5234843205146111  3.2617421602573060
  0.0000000000000000  9.7852264807719198  3.2617421602573060
  0.0000000000000000  6.5234843205146111  6.5234843205146111
  3.2617421602573060  9.7852264807719198  9.7852264807719198
  3.2617421602573060  9.7852264807719198  6.5234843205146111
  3.2617421602573060  6.5234843205146111  9.7852264807719198
  0.0000000000000000  9.7852264807719198  9.7852264807719198
  6.5234843205146111  0.0000000000000000  0.0000000000000000
  9.7852264807719198  3.2617421602573060  3.2617421602573060
  9.7852264807719198  3.2617421602573060  0.0000000000000000
  9.7852264807719198  0.0000000000000000  3.2617421602573060
  6.5234843205146111  3.2617421602573060  3.2617421602573060
  6.5234843205146111  0.0000000000000000  6.5234843205146111
  9.7852264807719198  3.2617421602573060  9.7852264807719198
  9.7852264807719198  3.2617421602573060  6.5234843205146111
  9.7852264807719198  0.0000000000000000  9.7852264807719198
  6.5234843205146111  3.2617421602573060  9.7852264807719198
  6.5234843205146111  6.5234843205146111  0.0000000000000000
  9.7852264807719198  9.7852264807719198  3.2617421602573060
  9.7852264807719198  9.7852264807719198  0.0000000000000000
  9.7852264807719198  6.5234843205146111  3.2617421602573060
  6.5234843205146111  9.7852264807719198  3.2617421602573060
  6.5234843205146111  6.5234843205146111  6.5234843205146111
  9.7852264807719198  9.7852264807719198  9.7852264807719198
  9.7852264807719198  9.7852264807719198  6.5234843205146111
  9.7852264807719198  6.5234843205146111  9.7852264807719198
  6.5234843205146111  9.7852264807719198  9.7852264807719198
