Cs Pb I  Cs Pb I  Cs Pb Br I  Cs Pb I  Br I  Cs Pb I  Br Cs Pb I  Br Cs Pb I  Br Cs Pb I  Br
 1.0000000000000000
    13.2445342756927449    0.0000000000000000    0.0000000000000000
     0.0000000000000000   13.2445342756927449    0.0000000000000000
     0.0000000000000000    0.0000000000000000   13.2445342756927449
 Cs  Pb  I   Cs  Pb  I   Cs  Pb  Br  I   Cs  Pb  I   Br  I   Cs  Pb  I   Br  Cs  Pb  I   Br  Cs  Pb  I   Br  Cs  Pb  I   Br 
   1   1   3   1   1   3   1   1   2   1   1   1   1   1   1   1   1   2   1   1   1   2   1   1   1   1   2   1   1   2   1
Cartesian
  0.0000000000000000  0.0000000000000000  0.0000000000000000
  3.3111335689231853  3.3111335689231853  3.3111335689231853
  3.3111335689231853  3.3111335689231853  0.0000000000000000
  3.3111335689231853  0.0000000000000000  3.3111335689231853
  0.0000000000000000  3.3111335689231853  3.3111335689231853
  0.0000000000000000  0.0000000000000000  6.6222671378463716
  3.3111335689231853  3.3111335689231853  9.9334007067695591
  3.3111335689231853  3.3111335689231853  6.6222671378463716
  3.3111335689231853  0.0000000000000000  9.9334007067695591
  0.0000000000000000  3.3111335689231853  9.9334007067695591
  0.0000000000000000  6.6222671378463716  0.0000000000000000
  3.3111335689231853  9.9334007067695591  3.3111335689231853
  3.3111335689231853  9.9334007067695591  0.0000000000000000
  3.3111335689231853  6.6222671378463716  3.3111335689231853
  0.0000000000000000  9.9334007067695591  3.3111335689231853
  0.0000000000000000  6.6222671378463716  6.6222671378463716
  3.3111335689231853  9.9334007067695591  9.9334007067695591
  3.3111335689231853  9.9334007067695591  6.6222671378463716
  3.3111335689231853  6.6222671378463716  9.9334007067695591
  0.0000000000000000  9.9334007067695591  9.9334007067695591
  6.6222671378463716  0.0000000000000000  0.0000000000000000
  9.9334007067695591  3.3111335689231853  3.3111335689231853
  9.9334007067695591  3.3111335689231853  0.0000000000000000
  9.9334007067695591  0.0000000000000000  3.3111335689231853
  6.6222671378463716  3.3111335689231853  3.3111335689231853
  6.6222671378463716  0.0000000000000000  6.6222671378463716
  9.9334007067695591  3.3111335689231853  9.9334007067695591
  9.9334007067695591  3.3111335689231853  6.6222671378463716
  9.9334007067695591  0.0000000000000000  9.9334007067695591
  6.6222671378463716  3.3111335689231853  9.9334007067695591
  6.6222671378463716  6.6222671378463716  0.0000000000000000
  9.9334007067695591  9.9334007067695591  3.3111335689231853
  9.9334007067695591  9.9334007067695591  0.0000000000000000
  9.9334007067695591  6.6222671378463716  3.3111335689231853
  6.6222671378463716  9.9334007067695591  3.3111335689231853
  6.6222671378463716  6.6222671378463716  6.6222671378463716
  9.9334007067695591  9.9334007067695591  9.9334007067695591
  9.9334007067695591  9.9334007067695591  6.6222671378463716
  9.9334007067695591  6.6222671378463716  9.9334007067695591
  6.6222671378463716  9.9334007067695591  9.9334007067695591
