40
Lattice="12.097676636905202 0.0 0.0 2.7576354761759533e-06 12.097676636904884 0.0 2.7576353767856934e-06 -2.7576359689794827e-06 12.097676636904664" Properties=species:S:1:pos:R:3:spacegroup_kinds:I:1:forces:R:3 spacegroup="P 1" unit_cell=conventional occupancy="_JSON {\"0\": {\"Cs\": 1.0}, \"1\": {\"Pb\": 1.0}, \"2\": {\"I\": 1.0}, \"3\": {\"Br\": 1.0}, \"4\": {\"Br\": 1.0}, \"5\": {\"Cs\": 1.0}, \"6\": {\"Pb\": 1.0}, \"7\": {\"Br\": 1.0}, \"8\": {\"Br\": 1.0}, \"9\": {\"Br\": 1.0}, \"10\": {\"Cs\": 1.0}, \"11\": {\"Pb\": 1.0}, \"12\": {\"Br\": 1.0}, \"13\": {\"Br\": 1.0}, \"14\": {\"I\": 1.0}, \"15\": {\"Cs\": 1.0}, \"16\": {\"Pb\": 1.0}, \"17\": {\"Br\": 1.0}, \"18\": {\"Br\": 1.0}, \"19\": {\"Br\": 1.0}, \"20\": {\"Cs\": 1.0}, \"21\": {\"Pb\": 1.0}, \"22\": {\"Br\": 1.0}, \"23\": {\"Br\": 1.0}, \"24\": {\"Br\": 1.0}, \"25\": {\"Cs\": 1.0}, \"26\": {\"Pb\": 1.0}, \"27\": {\"Br\": 1.0}, \"28\": {\"I\": 1.0}, \"29\": {\"Br\": 1.0}, \"30\": {\"Cs\": 1.0}, \"31\": {\"Pb\": 1.0}, \"32\": {\"Br\": 1.0}, \"33\": {\"Br\": 1.0}, \"34\": {\"Br\": 1.0}, \"35\": {\"Cs\": 1.0}, \"36\": {\"Pb\": 1.0}, \"37\": {\"Br\": 1.0}, \"38\": {\"Br\": 1.0}, \"39\": {\"Br\": 1.0}}" candidate_id=719d8ffa5c675fe3 formula=FAPbBr0.88I0.123 config_index=0 rattle_stdev=0.0 method=PBE fidelity=phase2_force energy=-125.82721878615727 stress="0.00017696653924563485 -1.8015607504402438e-05 -1.8015611611015227e-05 -1.8015607504402438e-05 0.00017696654745886115 1.801561571762934e-05 -1.8015611611015227e-05 1.801561571762934e-05 0.00017696655567208986" pbc="T T T"
Cs      12.09768215      12.09767388      12.09767664        0      -0.00000000      -0.00000000       0.00000000
Pb       3.02848591       3.03047039       3.11914284        1       0.00925807      -0.00356831      -0.00495298
I        3.02783308       3.02782688      12.09767664        2      -0.00593769      -0.00593769       0.00000000
Br       3.07145098      12.09767594       3.07144752        3       0.01585858      -0.00000000       0.01585858
Br       0.00530136       3.02494421       3.07034828        4      -0.04787271      -0.00818698       0.01627592
Cs       0.03778223       0.03777946       6.04883832        5       0.00917661       0.00917661       0.00000000
Pb       3.03047384       3.02848246       8.97853380        6      -0.00356831       0.00925807       0.00495298
Br       3.02535923       3.02535578       6.04883832        7      -0.00833373      -0.00833373       0.00000000
Br       3.02494697       0.00529791       9.02732836        8      -0.00818699      -0.04787271      -0.01627592
Br      12.09767939       3.07144546       9.02622912        9       0.00000000       0.01585858      -0.01585858
Cs      12.05989992       6.04883557      12.05989579       10      -0.00917661       0.00000000      -0.00917661
Pb       3.11914559       9.06720485       3.02848451       11      -0.00495297       0.00356831       0.00925807
Br       3.07035034       9.07273173       0.00529997       12       0.01627591       0.00818698      -0.04787271
Br       3.07232561       6.04883762       3.07232353       13       0.01749757      -0.00000000       0.01749757
I       12.09767939       9.06984631       3.02782963       14       0.00000000       0.00593769      -0.00593769
Cs      12.09767939       6.01129684       6.08637841       15      -0.00000000      -0.00671728       0.00671727
Pb       3.02975297       9.06792574       9.06792780       16       0.00892227      -0.00892227      -0.00892228
Br       3.07161373       9.07348704       6.04467500       17       0.01659392       0.00834411       0.04800590
Br       3.02419166       6.04467294       9.02606635       18      -0.00834411       0.04800590      -0.01659390
Br      12.09238079       9.02732629       9.07273173       19       0.04787271      -0.01627592       0.00818697
Cs       6.04884108      12.05989579       0.03778084       20      -0.00000000      -0.00917661       0.00917661
Pb       9.06792918       3.02974814       3.02974883       21      -0.00892227       0.00892227       0.00892228
Br       9.07273518       3.07034552      12.09237667       22       0.00818699       0.01627591       0.04787271
Br       9.02733181      12.09237598       3.02494491       23      -0.01627591       0.04787272      -0.00818697
Br       6.04467639       3.02418752       3.07161028       24       0.04800590      -0.00834412       0.01659390
Cs       6.01130236      12.09767527       6.01129823       25      -0.00671728       0.00000000      -0.00671727
Pb       9.06720832       3.11914077       9.06919213       26       0.00356831      -0.00495297      -0.00925807
Br       9.07349049       3.07160890       6.05300164       27       0.00834411       0.01659391      -0.04800590
I        9.06985183      12.09767457       9.06984700       28       0.00593769      -0.00000000       0.00593769
Br       6.04884108       3.07232148       9.02535310       29       0.00000000       0.01749757      -0.01749757
Cs       6.08638255       6.08637565      12.09767664       30       0.00671728       0.00671727       0.00000000
Pb       8.97853656       9.06919144       3.03047110       31       0.00495297      -0.00925807      -0.00356831
Br       9.02623393       9.02622636      12.09767664       32      -0.01585858      -0.01585858       0.00000000
Br       9.02606842       6.05300095       3.02418822       33      -0.01659392      -0.04800590      -0.00834412
Br       6.04884108       9.07231879       3.02535716       34       0.00000000       0.00833373      -0.00833373
Cs       6.04884108       6.04883694       6.04883832       35       0.00000000       0.00000000       0.00000000
Pb       9.06919624       8.97853173       9.06720554       36      -0.00925807       0.00495298       0.00356831
Br       9.02535654       9.02535172       6.04883832       37      -0.01749757      -0.01749757       0.00000000
Br       9.07232292       6.04883625       9.07231948       38       0.00833373      -0.00000000       0.00833373
Br       6.05300576       9.02606429       9.07348841       39      -0.04800590      -0.01659390       0.00834412
40
Lattice="12.097676636905202 0.0 0.0 2.7576354761759533e-06 12.097676636904884 0.0 2.7576353767856934e-06 -2.7576359689794827e-06 12.097676636904664" Properties=species:S:1:pos:R:3:spacegroup_kinds:I:1:forces:R:3 spacegroup="P 1" unit_cell=conventional occupancy="_JSON {\"0\": {\"Cs\": 1.0}, \"1\": {\"Pb\": 1.0}, \"2\": {\"I\": 1.0}, \"3\": {\"Br\": 1.0}, \"4\": {\"Br\": 1.0}, \"5\": {\"Cs\": 1.0}, \"6\": {\"Pb\": 1.0}, \"7\": {\"Br\": 1.0}, \"8\": {\"Br\": 1.0}, \"9\": {\"Br\": 1.0}, \"10\": {\"Cs\": 1.0}, \"11\": {\"Pb\": 1.0}, \"12\": {\"Br\": 1.0}, \"13\": {\"Br\": 1.0}, \"14\": {\"I\": 1.0}, \"15\": {\"Cs\": 1.0}, \"16\": {\"Pb\": 1.0}, \"17\": {\"Br\": 1.0}, \"18\": {\"Br\": 1.0}, \"19\": {\"Br\": 1.0}, \"20\": {\"Cs\": 1.0}, \"21\": {\"Pb\": 1.0}, \"22\": {\"Br\": 1.0}, \"23\": {\"Br\": 1.0}, \"24\": {\"Br\": 1.0}, \"25\": {\"Cs\": 1.0}, \"26\": {\"Pb\": 1.0}, \"27\": {\"Br\": 1.0}, \"28\": {\"I\": 1.0}, \"29\": {\"Br\": 1.0}, \"30\": {\"Cs\": 1.0}, \"31\": {\"Pb\": 1.0}, \"32\": {\"Br\": 1.0}, \"33\": {\"Br\": 1.0}, \"34\": {\"Br\": 1.0}, \"35\": {\"Cs\": 1.0}, \"36\": {\"Pb\": 1.0}, \"37\": {\"Br\": 1.0}, \"38\": {\"Br\": 1.0}, \"39\": {\"Br\": 1.0}}" candidate_id=719d8ffa5c675fe3 formula=FAPbBr0.88I0.123 config_index=1 rattle_stdev=0.08 method=PBE fidelity=phase2_force energy=-125.17467127050357 stress="-0.002045062150040764 3.1529164135709306e-05 -1.3043896510174612e-05 3.1529164135709306e-05 -0.0008544272827923425 -7.697926311822517e-05 -1.3043896510174612e-05 -7.697926311822517e-05 -0.0024726046886572157" pbc="T T T"
Cs      12.01076644      12.02598867      12.07317269        0      -0.02718395       0.04158285       0.04133811
Pb       2.92129122       2.93394354       3.06780469        1       0.27595134       0.25013263       0.36185545
I        3.13246873       3.17546371      12.16400583        2      -0.07640954      -0.04596007      -0.12055426
Br       3.06958707      12.08099082       2.99811794        3       0.00269276       0.03571318       0.00006628
Br      -0.08067805       3.01805273       3.16441536        4       0.43103030      -0.01911474       0.03083032
Cs      -0.09302511       0.13603498       6.13494922        5       0.06003113       0.05539946      -0.05657053
Pb       3.06205567       2.99746640       9.02560594        6       0.08057203       0.02626523      -0.08507962
Br       2.91069532       2.99946981       6.14907709        7       0.01899321       0.01477626      -0.28697459
Br       2.96648756       0.11957672       9.10290067        8      -0.01746716      -0.49711006      -0.02388259
Br      12.07655917       3.05838840       8.94910053        9       0.08660681       0.02252798       0.00345714
Cs      12.03248814       6.05274789      12.01992524       10      -0.02042641      -0.03126675       0.02665492
Pb       2.94219323       9.09199180       2.90131241       11       1.20796978      -0.25966752      -0.11808580
Br       3.12870671       9.06409963      -0.04671375       12      -0.04190303       0.02270186      -0.08211300
Br       2.93688109       6.01935969       2.94509380       13       0.00311524       0.00798227       0.08195370
I       12.21611986       9.10780153       3.10093874       14      -1.28093100       0.02177425       0.09579290
Cs      12.17451701       6.01806025       6.22375688       15       0.02783070      -0.05140519      -0.03000856
Pb       3.09790439       9.00753491       8.88491746       16       0.25223382       0.07420700       0.32738621
Br       3.08035282       9.03747439       6.01163720       17       0.00853233      -0.01768139      -0.01656390
Br       3.04971036       6.00138431       9.10195967       18      -0.02973678       0.40984743      -0.08109137
Br      12.10449559       9.03347849       9.06797969       19       0.38121347       0.00017805      -0.03107690
Cs       6.04322998      12.01460386       0.06266127       20       0.01881456       0.01201754       0.04379331
Pb       9.12586589       3.07106415       3.11183129       21      -0.44010979      -0.21177227      -0.50801342
Br       9.11434739       3.00075844      12.21242188       22       0.06784988       0.04151253      -0.33118970
Br       9.12064958      12.13172913       2.96636393       23      -0.01122720      -0.11141542       0.08287705
Br       6.09910088       3.06490727       3.00460739       24      -0.28106970      -0.01986842       0.08368090
Cs       6.06311395      12.09867842       6.13606536       25      -0.04117696       0.00785733      -0.05299506
Pb       9.14997594       3.14615618       8.96498330       26      -0.19387611       0.30170307       0.33291395
Br       8.98400695       3.17637011       6.01154428       27       0.00495656      -0.01579210       0.38551623
I        9.03840188      12.18111205       9.07582422       28      -0.00015703      -0.20096254      -0.00279519
Br       6.05599604       3.07663407       9.05882886       29      -0.00553459       0.00451306      -0.05010499
Cs       5.98816415       5.99921233      12.12304659       30       0.04573029       0.01512517       0.03336256
Pb       8.91610411       9.00070095       2.92488139       31      -0.04127507       0.21420579       0.14418069
Br       9.06253646       9.10636835      12.21077541       32       0.00139526      -0.00321026      -0.23795879
Br       9.01085379       6.05540979       2.87431489       33       0.01937173       0.09142618       0.00545697
Br       6.03949892       9.06211956       3.09753190       34       0.15733036       0.00257283       0.00416532
Cs       5.94369130       6.04087288       6.06008231       35       0.00307879      -0.01979639      -0.02523436
Pb       9.27950072       9.11899404       8.85635371       36      -0.54366492      -0.41701321       0.89893440
Br       8.92242498       9.01161395       6.19287461       37       0.00970496       0.01339860      -0.88053773
Br       9.12101857       6.05135830       8.95500650       38       0.04046350       0.23982275       0.03624901
Br       6.07776102       9.11744171       9.03262088       39      -0.15752993      -0.00879224      -0.01159916
40
Lattice="12.097676636905202 0.0 0.0 2.7576354761759533e-06 12.097676636904884 0.0 2.7576353767856934e-06 -2.7576359689794827e-06 12.097676636904664" Properties=species:S:1:pos:R:3:spacegroup_kinds:I:1:forces:R:3 spacegroup="P 1" unit_cell=conventional occupancy="_JSON {\"0\": {\"Cs\": 1.0}, \"1\": {\"Pb\": 1.0}, \"2\": {\"I\": 1.0}, \"3\": {\"Br\": 1.0}, \"4\": {\"Br\": 1.0}, \"5\": {\"Cs\": 1.0}, \"6\": {\"Pb\": 1.0}, \"7\": {\"Br\": 1.0}, \"8\": {\"Br\": 1.0}, \"9\": {\"Br\": 1.0}, \"10\": {\"Cs\": 1.0}, \"11\": {\"Pb\": 1.0}, \"12\": {\"Br\": 1.0}, \"13\": {\"Br\": 1.0}, \"14\": {\"I\": 1.0}, \"15\": {\"Cs\": 1.0}, \"16\": {\"Pb\": 1.0}, \"17\": {\"Br\": 1.0}, \"18\": {\"Br\": 1.0}, \"19\": {\"Br\": 1.0}, \"20\": {\"Cs\": 1.0}, \"21\": {\"Pb\": 1.0}, \"22\": {\"Br\": 1.0}, \"23\": {\"Br\": 1.0}, \"24\": {\"Br\": 1.0}, \"25\": {\"Cs\": 1.0}, \"26\": {\"Pb\": 1.0}, \"27\": {\"Br\": 1.0}, \"28\": {\"I\": 1.0}, \"29\": {\"Br\": 1.0}, \"30\": {\"Cs\": 1.0}, \"31\": {\"Pb\": 1.0}, \"32\": {\"Br\": 1.0}, \"33\": {\"Br\": 1.0}, \"34\": {\"Br\": 1.0}, \"35\": {\"Cs\": 1.0}, \"36\": {\"Pb\": 1.0}, \"37\": {\"Br\": 1.0}, \"38\": {\"Br\": 1.0}, \"39\": {\"Br\": 1.0}}" candidate_id=719d8ffa5c675fe3 formula=FAPbBr0.88I0.123 config_index=2 rattle_stdev=0.08 method=PBE fidelity=phase2_force energy=-125.25453242757014 stress="-0.001095838006046802 -2.839111166873306e-05 -2.9041197048292903e-06 -2.839111166873306e-05 -0.0013635988617610166 -3.7058900031805896e-05 -2.9041197048292903e-06 -3.7058900031805896e-05 -0.0007845659075086964" pbc="T T T"
Cs      12.08866511      12.01154876      12.24047879        0       0.03958832       0.00032448      -0.07581265
Pb       2.91192725       3.00436473       3.01835112        1       0.73765910       0.29103431       0.29384194
I        3.05790240       2.95757509      12.06967858        2      -0.03906400       0.02034710      -0.11512833
Br       3.09518379      12.19374889       2.94592790        3      -0.02093003      -0.59806256       0.04574815
Br       0.15362366       3.06446116       3.05989136        4      -0.96593391      -0.01005515      -0.02430474
Cs       0.00553257      -0.04011352       6.01144098        5      -0.00542895       0.00848788       0.07909156
Pb       2.97304012       3.12619393       8.91635780        6       0.36653324      -0.07576377       0.03488698
Br       2.97827718       3.02074627       6.05520471        7      -0.00342298      -0.09822314      -0.17360209
Br       2.93029088      -0.11860148       9.10030886        8      -0.01514888       0.38238161      -0.02612001
Br      12.13069305       3.01578394       8.84312737        9      -0.16478020       0.05055312       0.03577693
Cs      11.99692060       5.96655424      12.06736044       10       0.02585043       0.03017248      -0.03798597
Pb       3.07681006       9.12962444       3.01241933       11       0.23629186      -0.22667000       0.10007170
Br       3.03190166       8.98991076      -0.03491878       12       0.02470274      -0.00515844       0.34808426
Br       3.13551683       5.97483781       3.24912636       13      -0.03944485       0.47077791      -0.07535990
I       11.98566050       9.05071852       3.04521689       14       0.75861231      -0.00709768       0.05660027
Cs      12.06948857       6.01816688       6.09491056       15       0.00472221       0.00888687       0.02843180
Pb       3.01399047       9.17568044       9.09554172       16      -0.03959268      -0.39615739      -0.12615290
Br       3.11622528       9.02586422       6.10330157       17      -0.02279922       0.10322178      -0.31589655
Br       3.13069187       5.98627031       8.98720589       18      -0.04553745       0.04792897       0.01687646
Br      12.17853393       8.81969770       9.08608598       19      -0.05233773       0.01053798       0.00535743
Cs       6.13195785      11.91520988       0.09847212       20      -0.04293675       0.03958479      -0.02545699
Pb       9.02792016       2.84220469       3.02111542       21      -0.28988878       0.44309740       0.19548726
Br       8.95251217       3.10944781      12.04812238       22       0.08412564       0.03686280       0.23012319
Br       9.11193241      12.02283055       3.01893762       23       0.00320244       0.16941077      -0.02912208
Br       6.03610399       3.19209328       3.04436725       24       0.41226982      -0.16811060      -0.01955158
Cs       5.96906995      11.99410592       6.02842615       25       0.02310213       0.00723041       0.03061619
Pb       9.15730988       3.15126364       9.13043895       26      -0.37271918      -0.10474512      -0.30504842
Br       8.96524030       3.11751758       6.03539067       27       0.07309484      -0.08697892      -0.13680063
I        9.12146695      12.01729702       9.22182609       28       0.04475026       0.61534977       0.00973557
Br       6.06618994       3.11231911       8.97522582       29       0.08988707      -0.03148955       0.00168329
Cs       6.00615181       6.02387083      12.11401886       30      -0.01429424      -0.04959934       0.00498427
Pb       9.02142392       8.98319164       2.85304272       31      -0.57076282      -0.26582497       0.51117862
Br       9.07798835       9.00043950      12.08387150       32      -0.00993124      -0.04231780       0.05462767
Br       8.84299468       6.04403744       3.10061333       33       0.09383681      -0.10623638      -0.09039478
Br       6.08522013       9.23727298       3.03035400       34      -0.41544296       0.06921861      -0.05023532
Cs       6.04906847       6.01255263       6.07871692       35       0.01045847      -0.02433673      -0.01049332
Pb       9.00414696       8.97040713       9.10286259       36       0.21468217       0.08801070      -0.43951383
Br       8.92334625       9.03397827       6.11701727       37       0.05399577       0.05563049      -0.15632785
Br       9.05977475       6.14394179       8.95453840       38       0.06169200      -0.69025166       0.04698992
Br       6.12228903       8.95459312       9.02957077       39      -0.22547483       0.04002446       0.09243634
40
Lattice="12.097676636905202 0.0 0.0 2.7576354761759533e-06 12.097676636904884 0.0 2.7576353767856934e-06 -2.7576359689794827e-06 12.097676636904664" Properties=species:S:1:pos:R:3:spacegroup_kinds:I:1:forces:R:3 spacegroup="P 1" unit_cell=conventional occupancy="_JSON {\"0\": {\"Cs\": 1.0}, \"1\": {\"Pb\": 1.0}, \"2\": {\"I\": 1.0}, \"3\": {\"Br\": 1.0}, \"4\": {\"Br\": 1.0}, \"5\": {\"Cs\": 1.0}, \"6\": {\"Pb\": 1.0}, \"7\": {\"Br\": 1.0}, \"8\": {\"Br\": 1.0}, \"9\": {\"Br\": 1.0}, \"10\": {\"Cs\": 1.0}, \"11\": {\"Pb\": 1.0}, \"12\": {\"Br\": 1.0}, \"13\": {\"Br\": 1.0}, \"14\": {\"I\": 1.0}, \"15\": {\"Cs\": 1.0}, \"16\": {\"Pb\": 1.0}, \"17\": {\"Br\": 1.0}, \"18\": {\"Br\": 1.0}, \"19\": {\"Br\": 1.0}, \"20\": {\"Cs\": 1.0}, \"21\": {\"Pb\": 1.0}, \"22\": {\"Br\": 1.0}, \"23\": {\"Br\": 1.0}, \"24\": {\"Br\": 1.0}, \"25\": {\"Cs\": 1.0}, \"26\": {\"Pb\": 1.0}, \"27\": {\"Br\": 1.0}, \"28\": {\"I\": 1.0}, \"29\": {\"Br\": 1.0}, \"30\": {\"Cs\": 1.0}, \"31\": {\"Pb\": 1.0}, \"32\": {\"Br\": 1.0}, \"33\": {\"Br\": 1.0}, \"34\": {\"Br\": 1.0}, \"35\": {\"Cs\": 1.0}, \"36\": {\"Pb\": 1.0}, \"37\": {\"Br\": 1.0}, \"38\": {\"Br\": 1.0}, \"39\": {\"Br\": 1.0}}" candidate_id=719d8ffa5c675fe3 formula=FAPbBr0.88I0.123 config_index=3 rattle_stdev=0.08 method=PBE fidelity=phase2_force energy=-125.02233967821611 stress="-0.0015444746841785531 5.484040393814192e-05 2.033962495176619e-05 5.484040393814192e-05 -0.0015135032875087848 8.69785017911204e-05 2.033962495176619e-05 8.69785017911204e-05 -0.0007765782153684038" pbc="T T T"
Cs      11.99199867      12.25901411      12.10148179        0       0.01515433       0.07889564       0.03800404
Pb       3.00947222       3.03720020       3.19590622        1      -0.24179099      -0.25169716      -0.95906407
I        2.97330520       3.07015251      12.03568318        2       0.02921545      -0.00557079      -0.07631715
Br       3.18384747      12.07970150       2.96697666        3       0.02645391      -0.19134045       0.04063186
Br      -0.04898146       2.89526955       2.96795039        4       0.09401293       0.02586618       0.06970456
Cs       0.01983849      -0.03026542       5.98837911        5      -0.03908161       0.03277014      -0.02296808
Pb       3.05152750       2.82406702       8.84491113        6       0.02218592       0.48735663       0.64747019
Br       2.96842042       2.82961373       5.94670353        7      -0.04529383      -0.07128554       0.49635983
Br       3.07803677      -0.09700880       8.96409558        8      -0.01328686       0.39813401      -0.02493706
Br      11.97748973       2.97628227       9.20756433        9       0.41718790       0.03044417      -0.06316669
Cs      12.02175770       6.12056869      11.91550073       10       0.01878468      -0.08761216      -0.02281737
Pb       3.07984842       8.97124512       2.96406688       11       0.07040558       0.29785572       0.03164416
Br       3.18281583       9.05430647      -0.05179575       12      -0.01894540      -0.04004365       0.44329222
Br       3.05931861       5.99452723       3.19345295       13      -0.00560865       0.23929326       0.03439366
I       11.95787357       9.12252868       3.00030033       14       1.39553909      -0.04927433      -0.02048226
Cs      12.03698354       6.02505895       6.03379513       15      -0.03828711      -0.01291395       0.01663328
Pb       3.07396861       9.09853440       9.03822457       16      -0.12709809      -0.58538328       0.05478445
Br       3.19786525       9.09083084       6.14160233       17       0.00400818       0.02399311      -0.51375177
Br       3.08271010       6.09859263       8.97964186       18      -0.02936390      -0.23889409      -0.06819345
Br      12.08443362       8.90053710       9.06675441       19      -0.11893654      -0.00045815       0.01864796
Cs       6.14474578      12.03866197      -0.01436313       20      -0.04783457       0.01663896       0.00976924
Pb       8.91620626       2.90652423       2.99832298       21       0.39543208       0.32748559       0.01733127
Br       9.03957672       3.12723094      12.14377870       22      -0.04823254      -0.03520031      -0.09323120
Br       9.21911871      12.07879339       2.94387422       23      -0.11282520      -0.19818543      -0.00313606
Br       6.00919189       3.09186570       3.11115900       24      -0.11232361      -0.04656994       0.04981357
Cs       6.03359342      12.13944254       6.03670757       25       0.00542665      -0.03914686      -0.00654093
Pb       9.08537922       3.08791353       9.01175072       26      -0.11350312      -0.02382723       0.05026198
Br       9.19701939       3.00257329       6.02429543       27      -0.00713863       0.01287358       0.03637302
I        9.07655597      12.23201233       8.97550002       28      -0.02359240      -1.24045438       0.05876646
Br       6.01694291       3.03845033       9.07010005       29      -0.24111725      -0.05279317      -0.10144951
Cs       6.04020298       6.09207544      12.16705305       30      -0.00014759      -0.04186829      -0.03998130
Pb       9.01172928       9.05109266       3.09091855       31      -0.09277968      -0.23813653       0.21360645
Br       9.04424432       8.99104612      12.15000298       32       0.00614545      -0.01389715       0.02010622
Br       8.95437856       5.93904505       3.16358695       33       0.03815507       0.20148665      -0.00118999
Br       6.28238713       9.01842076       2.96367522       34      -1.35354368       0.02238972      -0.04020894
Cs       6.13328046       6.14049398       6.05848816       35       0.01400036       0.01669350       0.02558990
Pb       9.07019571       8.92257002       9.21730947       36       0.03364960       0.07370563      -0.28465565
Br       8.98930387       9.00085298       6.16185767       37      -0.00405325      -0.01174313      -0.06829640
Br       9.02003564       5.86751093       9.12074763       38      -0.00419352       1.16660599       0.01846200
Br       6.01106032       9.04266347       9.16120058       39       0.23319908       0.00685558       0.01958829
