40
Lattice="12.529662419685481 0.0 0.0 0.0 12.52966241968554 0.0 0.0 5.047686002612633e-14 12.438743673361829" Properties=species:S:1:pos:R:3:spacegroup_kinds:I:1:forces:R:3 spacegroup="P 1" unit_cell=conventional candidate_id=c837f4088def2d17 formula=CsSnCl0.061I0.943 config_index=0 rattle_stdev=0.0 method=PBE fidelity=phase2_force energy=-113.34702319395561 stress="-0.00024053239937021995 8.906655667628728e-12 -3.614363663951835e-26 8.906655667628728e-12 -0.0002405323993702174 9.760889502660804e-19 -3.614363663951835e-26 9.760889502660804e-19 0.0004522219843103234" pbc="T T T"
Cs       0.01186548      12.51779694      12.43874367        0      -0.01343743       0.01343743       0.00000000
Sn       3.13241560       3.13241560       3.09217450        1       0.00021381       0.00020168       0.00599467
I        3.13241560       3.13241560       0.00000000        2      -0.00000176      -0.00001750       0.00000000
I        3.13241560      12.51180060       2.96896850        3      -0.00000261       0.05700095       0.00238160
I        0.00384542       3.13241560       3.10975807        4      -0.00601873      -0.00000213       0.00710970
Cs       0.06087236      12.46879006       6.21937184        5       0.00649030      -0.00649030       0.00000000
Sn       3.13241560       3.13241560       9.34656917        6       0.00021381       0.00020168      -0.00599467
I        3.13241560       3.13241560       6.21937184        7      -0.00000160      -0.00000200       0.00000000
I        3.13241560      12.51180060       9.46977518        8      -0.00000261       0.05700095      -0.00238160
I        0.00384542       3.13241560       9.32898561        9      -0.00601873      -0.00000213      -0.00710970
Cs       0.01186548       6.27669669      12.43874367       10      -0.01343599      -0.01344166       0.00000000
Sn       3.13241560       9.39724681       2.79665148       11       0.00021275      -0.00021275       0.23563840
Cl       3.13241560       9.39724681      12.43874367       12      -0.00000403       0.00000403       0.00000000
I        3.13241560       6.28269303       2.96896850       13      -0.00000258      -0.05699987       0.00238183
I        0.01786182       9.39724681       2.96896850       14      -0.05700095       0.00000261       0.00238160
Cs       0.06087236       6.32570357       6.21937184       15       0.00649030       0.00648107       0.00000000
Sn       3.13241560       9.39724681       9.64209220       16       0.00021275      -0.00021275      -0.23563840
I        3.13241560       9.39724681       6.21937184       17      -0.00000137       0.00000137       0.00000000
I        3.13241560       6.28269303       9.46977518       18      -0.00000258      -0.05699987      -0.00238183
I        0.01786182       9.39724681       9.46977518       19      -0.05700095       0.00000261      -0.00238160
Cs       6.25296573      12.51779694      12.43874367       20       0.01344166       0.01343599       0.00000000
Sn       9.39724681       3.13241560       3.11449270       21      -0.00021110       0.00021110       0.00265568
I        9.39724681       3.13241560       0.00000000       22       0.00000155      -0.00000155       0.00000000
I        9.39724681      12.52581700       3.10975807       23       0.00000213       0.00601873       0.00710970
I        6.26098579       3.13241560       3.10975807       24       0.00601821      -0.00000214       0.00711013
Cs       6.20395885      12.46879006       6.21937184       25      -0.00648107      -0.00649030       0.00000000
Sn       9.39724681       3.13241560       9.32425098       26      -0.00021110       0.00021110      -0.00265568
I        9.39724681       3.13241560       6.21937184       27       0.00000183      -0.00000183       0.00000000
I        9.39724681      12.52581700       9.32898561       28       0.00000213       0.00601873      -0.00710970
I        6.26098579       3.13241560       9.32898561       29       0.00601821      -0.00000214      -0.00711013
Cs       6.25296573       6.27669669      12.43874367       30       0.01344029      -0.01344029       0.00000000
Sn       9.39724681       9.39724681       3.09217450       31      -0.00020168      -0.00021381       0.00599467
I        9.39724681       9.39724681       0.00000000       32       0.00001750       0.00000176       0.00000000
I        9.39724681       6.26867663       3.10975807       33       0.00000214      -0.00601821       0.00711013
I        6.24696939       9.39724681       2.96896850       34       0.05699987       0.00000258       0.00238183
Cs       6.20395885       6.32570357       6.21937184       35      -0.00648078       0.00648078       0.00000000
Sn       9.39724681       9.39724681       9.34656917       36      -0.00020168      -0.00021381      -0.00599467
I        9.39724681       9.39724681       6.21937184       37       0.00000200       0.00000160       0.00000000
I        9.39724681       6.26867663       9.32898561       38       0.00000214      -0.00601821      -0.00711013
I        6.24696939       9.39724681       9.46977518       39       0.05699987       0.00000258      -0.00238183
