40
Lattice="12.586540141164754 0.0 0.0 0.0 12.58997323641609 0.0 0.0 9.579299662742174e-14 12.586540141164717" Properties=species:S:1:pos:R:3:spacegroup_kinds:I:1:forces:R:3 spacegroup="P 1" unit_cell=conventional candidate_id=2f888839cc606f1c formula=FAGe0.2Pb0.8I3 config_index=0 rattle_stdev=0.0 method=PBE fidelity=phase2_force energy=-112.6395989388541 stress="-0.00046692589320155876 2.8292917806555365e-31 8.957857598696036e-11 2.8292917806555365e-31 -0.0005456988849429795 4.1531771923532254e-18 8.957857598696036e-11 4.1531771923532254e-18 -0.00046692589320156125" pbc="T T T"
Cs      12.58654014      12.51464772      12.58654014        0       0.00000000      -0.01184152      -0.00000000
Pb       3.14663504       3.14749331       3.14663504        1       0.00024924       0.00022296       0.00024924
I        3.14663504       3.14749331      12.57964708        2      -0.00000722      -0.00000583       0.01616215
I        3.14663504      12.56633557       3.14663504        3      -0.00000621       0.05565997      -0.00000621
I       12.57964708       3.14749331       3.14663504        4       0.01616215      -0.00000583      -0.00000722
Cs       0.00000000      12.51464772       6.29327007        5      -0.00000000      -0.01183956       0.00000000
Pb       3.14663504       3.14749331       9.43990511        6       0.00027967      -0.00001620      -0.00027967
I        3.14663504       3.14749331       6.30016313        7      -0.00000541      -0.00000505      -0.01616994
I        3.14663504      12.41762961       9.43990511        8      -0.00000751       0.26045175       0.00000751
I        0.00689306       3.14749331       9.43990511        9      -0.01616215      -0.00000583       0.00000722
Cs       0.00000000       6.37031213      12.58654014       10      -0.00000000       0.01183466       0.00000000
Pb       3.14663504       9.44247993       3.14663504       11       0.00001293      -0.00031429       0.00001293
I        3.14663504       9.44247993      12.43361334       12      -0.00000669       0.00000707       0.24049604
I        3.14663504       6.31862428       3.14663504       13      -0.00000534      -0.05568559      -0.00000534
I       12.43361334       9.44247993       3.14663504       14       0.24049604       0.00000707      -0.00000669
Cs      12.58654014       6.37031213       6.29327007       15      -0.00000000       0.01183296       0.00000000
Ge       3.14663504       9.44247993       9.43990511       16      -0.00002960       0.00003198       0.00002960
I        3.14663504       9.44247993       6.44619687       17      -0.00000536       0.00000604      -0.24053330
I        3.14663504       6.46733024       9.43990511       18      -0.00000665      -0.26050106       0.00000665
I        0.15292680       9.44247993       9.43990511       19      -0.24049604       0.00000707       0.00000669
Cs       6.29327007      12.51464772      12.58654014       20       0.00000000      -0.01183956       0.00000000
Pb       9.43990511       3.14749331       3.14663504       21      -0.00027967      -0.00001620       0.00027967
I        9.43990511       3.14749331       0.00689306       22       0.00000722      -0.00000583      -0.01616215
I        9.43990511      12.41762961       3.14663504       23       0.00000751       0.26045175      -0.00000751
I        6.30016313       3.14749331       3.14663504       24      -0.01616994      -0.00000505      -0.00000541
Cs       6.29327007      12.51464772       6.29327007       25       0.00000000      -0.01183727       0.00000000
Pb       9.43990511       3.14749331       9.43990511       26      -0.00024924       0.00022296      -0.00024924
I        9.43990511       3.14749331       6.28637701       27       0.00000541      -0.00000505       0.01616994
I        9.43990511      12.56633557       9.43990511       28       0.00000621       0.05565997       0.00000621
I        6.28637701       3.14749331       9.43990511       29       0.01616994      -0.00000505       0.00000541
Cs       6.29327007       6.37031213      12.58654014       30       0.00000000       0.01183296       0.00000000
Ge       9.43990511       9.44247993       3.14663504       31       0.00002960       0.00003198      -0.00002960
I        9.43990511       9.44247993       0.15292680       32       0.00000669       0.00000707      -0.24049604
I        9.43990511       6.46733024       3.14663504       33       0.00000665      -0.26050106      -0.00000665
I        6.44619687       9.44247993       3.14663504       34      -0.24053330       0.00000604      -0.00000536
Cs       6.29327007       6.37031213       6.29327007       35       0.00000000       0.01183025       0.00000000
Pb       9.43990511       9.44247993       9.43990511       36      -0.00001293      -0.00031429      -0.00001293
I        9.43990511       9.44247993       6.14034327       37       0.00000536       0.00000604       0.24053330
I        9.43990511       6.31862428       9.43990511       38       0.00000534      -0.05568559       0.00000534
I        6.14034327       9.44247993       9.43990511       39       0.24053330       0.00000604       0.00000536
40
Lattice="12.586540141164754 0.0 0.0 0.0 12.58997323641609 0.0 0.0 9.579299662742174e-14 12.586540141164717" Properties=species:S:1:pos:R:3:spacegroup_kinds:I:1:forces:R:3 spacegroup="P 1" unit_cell=conventional candidate_id=2f888839cc606f1c formula=FAGe0.2Pb0.8I3 config_index=1 rattle_stdev=0.08 method=PBE fidelity=phase2_force energy=-112.36089295429638 stress="-0.0018417720789565876 6.703737989269304e-05 -4.768923529354203e-06 6.703737989269304e-05 -0.001134094720248865 -7.512470170551076e-05 -4.768923529354203e-06 -7.512470170551076e-05 -0.0024303297061651283" pbc="T T T"
Cs      12.49962443      12.44296251      12.56203619        0      -0.00837669       0.01843637       0.03151308
Pb       3.03944034       3.05096646       3.09529689        1       0.29482916       0.27777806       0.29169646
I        3.25127069       3.29513014      12.64597628        2      -0.04874289      -0.01075303      -0.08162139
I        3.14477113      12.54965046       3.07330546        3       0.03539942       0.07596327       0.00574569
I       12.49366768       3.14060183       3.24070212        4       0.58760344      -0.00781507       0.02028584
Cs      -0.13080734      12.61290324       6.37938097        5       0.04019373       0.00969334      -0.04530170
Pb       3.17821686       3.11647724       9.48697725        6       0.04978833      -0.12768743      -0.09630076
I        3.03197113       3.12160733       6.40040190        7       0.03601261       0.02672753      -0.27556002
I        3.08817563      12.53190842       9.51547742        8      -0.00540407      -0.02011365      -0.01341311
I       -0.01422717       3.13443624       9.36277652        9       0.13290521       0.00765401       0.03125347
Cs      -0.02741179       6.37422446      12.54656958       10      -0.00318403      -0.00793802       0.01888766
Pb       2.96968267       9.46726688       3.01946293       11       0.28886802      -0.30745475      -0.19518443
I        3.20499140       9.43384783      12.38159963       12      -0.04248947       0.02344854       0.35438317
I        3.01119051       6.28914636       3.01940530       13       0.01741687      -0.01882753       0.06910005
I       12.55205381       9.48043514       3.21974414       14      -0.18346689      -0.00043251       0.03883463
Cs      12.66337776       6.37707554       6.43064855       15       0.01261071      -0.01671749      -0.02440123
Ge       3.21478645       9.38208910       9.25689476       16       0.26685200       0.02290772       0.18871992
I        3.15537413       9.40646728       6.41315907       17       0.00769988      -0.00237787      -0.18092990
I        3.17215374       6.42404161       9.51579842       18      -0.01062940       0.10291129      -0.07093155
I        0.16504160       9.44863212       9.43515307       19      -0.14968584       0.01990988      -0.00144290
Cs       6.28765897      12.46935580      12.61142057       20       0.01126315       0.01410305       0.02342439
Pb       9.49784181       3.18880931       3.22871749       21      -0.47958501      -0.18838448      -0.50769369
I        9.48151731       3.07790623       0.12693827       22       0.03631677       0.01301521      -0.49709350
I        9.53322288      12.45698277       3.08805406       23      -0.01453584       0.16725425       0.11862442
I        6.35458762       3.18821306       3.07963214       24      -0.39626443      -0.00347354       0.04828852
Cs       6.34508166      12.51565088       6.41803720       25      -0.02912938       0.00035430      -0.03209854
Pb       9.52267274       3.17450872       9.33569627       26      -0.21059805       0.26554703       0.38952130
I        9.35042156       3.25225452       6.24491965       27      -0.04240549      -0.02016000       0.48490440
I        9.40845516      12.64977305       9.44588232       28      -0.00946658      -0.11547062       0.00499382
I        6.29353198       3.15180590       9.47338086       29       0.03409141       0.00248748      -0.00424968
Cs       6.19505167       6.28314881      12.61191009       30       0.01392974       0.00072522       0.02392521
Ge       9.37747266       9.37398944       3.04104532       31      -0.23132422       0.18002788      -0.01855108
I        9.47620764       9.52262191       0.26602557       32      -0.00890752      -0.03175500      -0.30212400
I        9.42469047       6.46973909       2.99676170       33       0.03702893      -0.13091404       0.04006623
I        6.43685471       9.43228070       3.21880978       34       0.10047680       0.00355632      -0.01118724
Cs       6.18812030       6.36234808       6.30451406       35       0.00642482      -0.00373664      -0.01081214
Pb       9.65020958       9.58294223       9.22905328       36      -0.20058416      -0.38783998       0.29413331
I        9.33697355       9.42874215       6.28437957       37       0.05996832       0.04340115      -0.16829231
I        9.48860076       6.32114633       9.32259213       38      -0.00312849       0.14835115       0.06814891
I        6.16509853       9.53385735       9.39903757       39       0.00837374      -0.02136830      -0.00440510
40
Lattice="12.586540141164754 0.0 0.0 0.0 12.58997323641609 0.0 0.0 9.579299662742174e-14 12.586540141164717" Properties=species:S:1:pos:R:3:spacegroup_kinds:I:1:forces:R:3 spacegroup="P 1" unit_cell=conventional candidate_id=2f888839cc606f1c formula=FAGe0.2Pb0.8I3 config_index=2 rattle_stdev=0.08 method=PBE fidelity=phase2_force energy=-112.15033046866704 stress="-0.0018100788575631812 0.0001075294981265703 4.0085177586379766e-07 0.0001075294981265703 -0.001996583686512637 -7.65506520599201e-05 4.0085177586379766e-07 -7.65506520599201e-05 -0.0013578953251172517" pbc="T T T"
Cs      12.57752310      12.42852260      12.72934230        0       0.01357337      -0.01686242      -0.05520347
Pb       3.03007637       3.12138765       3.04584332        1       0.79482035       0.26960506       0.15061032
I        3.17670436       3.07724152      12.55164902        2      -0.02857636       0.01614981      -0.05234492
I        3.17036785      12.66240853       3.02111542        3       0.00236176      -0.57773748       0.03471049
I       12.72796938       3.18701025       3.13617812        4      -1.09390679       0.03353768      -0.01239051
Cs      -0.03224966      12.43675474       6.25587273        5      -0.02058169      -0.02652046       0.04870115
Pb       3.08920132       3.24520477       9.37772911        6       0.43503019       0.23867492       0.03818901
I        3.09955298       3.14288380       6.30652952        7       0.02629631      -0.09484830      -0.16120211
I        3.05197895      12.29373021       9.51288560        8       0.01140334       0.54395344      -0.00858028
I        0.03990672       3.09183179       9.25680336        9      -0.21044643      -0.01292204       0.01989010
Cs      -0.06297932       6.28803080      12.59400479       10       0.03244958       0.03200397      -0.02323314
Pb       3.10429950       9.50489952       3.13056986       11       0.19218196      -0.24568640       0.01919508
I        3.10818635       9.35965896      12.39339459       12       0.02863154      -0.03202843       0.59087174
I        3.20982625       6.24462447       3.32343786       13      -0.01733835       0.48723951      -0.04155636
I       12.32159445       9.42335214       3.16402229       14       0.67764087      -0.04437295       0.02349629
Cs      12.55834932       6.37718218       6.30180223       15       0.00466225       0.02133975       0.01924615
Ge       3.13087254       9.55023464       9.46751902       16      -0.13198735      -0.26197836      -0.09142195
I        3.19124659       9.39485711       6.50482344       17      -0.02614529       0.07301960      -0.53436664
I        3.25313525       6.40892761       9.40104464       18      -0.02102975      -0.46858387       0.03306344
I        0.23907993       9.23485133       9.45325936       19      -0.26020508       0.02784062      -0.00976799
Cs       6.37638684      12.36996181      12.64723142       20      -0.02296841       0.02168617      -0.02845534
Pb       9.39989608       2.95994986       3.13800162       21      -0.12773330       0.04409786       0.12140897
I        9.31968209       3.18659560      -0.03736123       22       0.05492184       0.04623984       0.20037766
I        9.52450571      12.34808418       3.14062775       23       0.01222435       0.52878566      -0.01280718
I        6.29159073       3.31539907       3.11939200       24       0.29006971      -0.07825462      -0.00723156
Cs       6.25103766      12.41107838       6.31039799       25       0.02490125      -0.00828842       0.02468350
Pb       9.53000667       3.17961618       9.50115193       26      -0.34341815      -0.06854166      -0.26860013
I        9.33165491       3.19340199       6.26876604       27       0.04114061      -0.04325041      -0.04454970
I        9.49152022      12.48595803       9.59188419       28       0.04174359       0.57028086       0.01659045
I        6.30372588       3.18749094       9.38977782       29       0.07683769      -0.05985161       0.00144707
Cs       6.21303933       6.30780732      12.60288236       30      -0.02374362      -0.01981683      -0.00819974
Ge       9.48279247       9.35648013       2.96920665       31      -0.30495311      -0.22405286       0.34403856
I        9.49165952       9.41669306       0.13912166       32       0.00556978      -0.04496560      -0.14901413
I        9.25683136       6.45836674       3.22306014       33       0.09102650      -0.17389121      -0.07477875
I        6.48257592       9.60743412       3.15163187       34      -0.56314248       0.00361396      -0.05072905
Cs       6.29349747       6.33402783       6.32314867       35      -0.00139007      -0.00115228       0.00384037
Pb       9.37485583       9.43435533       9.47556216       36      -0.00306373       0.10431420      -0.39834809
I        9.33789481       9.45110647       6.20852222       37       0.06529094       0.05439790       0.22432886
I        9.42735694       6.41372982       9.32212403       38       0.06075856      -0.67549032       0.03612870
I        6.20962654       9.37100877       9.39598746       39       0.21235251       0.06001067       0.08117172
40
Lattice="12.586540141164754 0.0 0.0 0.0 12.58997323641609 0.0 0.0 9.579299662742174e-14 12.586540141164717" Properties=species:S:1:pos:R:3:spacegroup_kinds:I:1:forces:R:3 spacegroup="P 1" unit_cell=conventional candidate_id=2f888839cc606f1c formula=FAGe0.2Pb0.8I3 config_index=3 rattle_stdev=0.08 method=PBE fidelity=phase2_force energy=-111.88218564661646 stress="-0.0021364053225245293 0.0002231408741733115 3.8332001266057766e-05 0.0002231408741733115 -0.0018857860227789872 -3.716198383194345e-05 3.8332001266057766e-05 -3.716198383194345e-05 -0.0013989873731687773" pbc="T T T"
Cs      12.48085666      12.67598795      12.59034530        0       0.03009732       0.02742238       0.02119669
Pb       3.12762134       3.15422312       3.22339842        1      -0.28822591      -0.28751746      -0.71674009
I        3.09210716       3.18981894      12.51765363        2       0.02599115       0.00749138      -0.05777377
I        3.25903153      12.54836113       3.04216418        3       0.02883943      -0.15662048       0.00246554
I       12.52536427       3.01781865       3.04423715        4       0.14005860       0.02989398       0.02429727
Cs      -0.01794374      12.44660284       6.23281086        5      -0.03095841      -0.00048453      -0.01272833
Pb       3.16768870       2.94307787       9.30628243        6      -0.06203854       0.17008089       0.48116211
I        3.08969622       2.95175126       6.19802834        7      -0.03872740      -0.03387828       0.39688425
I        3.19972484      12.31532289       9.37667233        8      -0.05514774       0.78845037       0.02885622
I       -0.11329661       3.05233011       9.62124032        9       0.51009576       0.02626648      -0.00410856
Cs      -0.03814223       6.44204525      12.44214508       10       0.02377276      -0.05785140      -0.00645087
Pb       3.10733787       9.34652020       3.08221741       11      -0.05865408       0.35823574      -0.09391166
I        3.25910052       9.42405467      12.37651762       12      -0.06624675      -0.02971350       0.72967415
I        3.13362803       6.26431389       3.26776445       13      -0.00543625       0.15897885       0.03022302
I       12.29380752       9.49516230       3.11910574       14       1.21434482      -0.10421963       0.03668855
Cs      12.52584429       6.38407424       6.24068679       15      -0.03662174       0.01153604       0.01168043
Ge       3.19085067       9.47308859       9.41020188       16      -0.06390380      -0.53881112      -0.01392972
I        3.27288655       9.45982373       6.54312420       17      -0.02335222       0.00539780      -0.66721495
I        3.20515348       6.52124993       9.39348062       18      -0.01463118      -0.44470227      -0.02277991
I        0.14497963       9.31569074       9.43392779       19      -0.39234116       0.04312590       0.00389291
Cs       6.38917478      12.49341390      12.53439617       20      -0.03398509       0.00455199       0.00785001
Pb       9.28818218       3.02426939       3.11520918       21       0.43542916       0.12734549       0.06230103
I        9.40674664       3.20437873       0.05829509       22      -0.04885752      -0.01325196      -0.24675128
I        9.63169201      12.40404702       3.06556434       23      -0.12550565       0.12133091       0.03994589
I        6.26467863       3.21517148       3.18618376       24      -0.20687270       0.00027374       0.02704111
Cs       6.31556113      12.55641500       6.31867941       25       0.01504954      -0.04452497       0.00303282
Pb       9.45807602       3.11626607       9.38246370       26      -0.18521766      -0.03302731       0.03934310
I        9.56343400       3.07845770       6.25767081       27       0.01282894       0.00690934       0.11189243
I        9.44660925      12.70067333       9.34555813       28      -0.03437149      -0.96127133       0.05088976
I        6.25447884       3.11362216       9.48465205       29      -0.16284520      -0.02103875      -0.03984914
Cs       6.24709049       6.37601192      12.65591655       30      -0.00215494      -0.02261494      -0.03703535
Ge       9.47309782       9.42438115       3.20708249       31      -0.16690493      -0.17535685       0.14902767
I        9.45791550       9.40729968       0.20525314       32       0.02476845      -0.02370023      -0.33947582
I        9.36821524       6.35337435       3.28603377       33       0.08356974      -0.04050155      -0.00582318
I        6.67974292       9.38858191       3.08495309       34      -1.05272334       0.06018497       0.03061392
Cs       6.37770945       6.46196917       6.30291992       35       0.01623707       0.02596594       0.01869591
Pb       9.44090458       9.38651821       9.59000904       36       0.09556459       0.03947619      -0.15477121
I        9.40385243       9.41798118       6.25336262       37       0.01747589       0.02886712       0.12454843
I        9.38761782       6.13729896       9.48833326       38      -0.01694527       0.93230299       0.00044297
I        6.09839783       9.45907911       9.52761727       39       0.49493184       0.00691429      -0.01376030
