Cs Sn Br Cs Sn Br Cs Sn Br Cs Ge Br Cs Sn Br Cs Sn Br Cs Ge Br Cs Sn Br
 1.0000000000000000
    12.0199667520338824    0.0000000000000000    0.0000000000000000
     0.0000000000000000   12.0199667520338824    0.0000000000000000
     0.0000000000000000    0.0000000000000000   12.0199667520338824
 Cs  Sn  Br  Cs  Sn  Br  Cs  Sn  Br  Cs  Ge  Br  Cs  Sn  Br  Cs  Sn  Br  Cs  Ge  Br  Cs  Sn  Br 
   1   1   3   1   1   3   1   1   3   1   1   3   1   1   3   1   1   3   1   1   3   1   1   3
Cartesian
  0.0000000000000000  0.0000000000000000  0.0000000000000000
  3.0049916880084697  3.0049916880084697  3.0049916880084697
  3.0049916880084697  3.0049916880084697  0.0000000000000000
  3.0049916880084697  0.0000000000000000  3.0049916880084697
  0.0000000000000000  3.0049916880084697  3.0049916880084697
  0.0000000000000000  0.0000000000000000  6.0099833760169403
  3.0049916880084697  3.0049916880084697  9.0149750640254123
  3.0049916880084697  3.0049916880084697  6.0099833760169403
  3.0049916880084697  0.0000000000000000  9.0149750640254123
  0.0000000000000000  3.0049916880084697  9.0149750640254123
  0.0000000000000000  6.0099833760169403  0.0000000000000000
  3.0049916880084697  9.0149750640254123  3.0049916880084697
  3.0049916880084697  9.0149750640254123  0.0000000000000000
  3.0049916880084697  6.0099833760169403  3.0049916880084697
  0.0000000000000000  9.0149750640254123  3.0049916880084697
  0.0000000000000000  6.0099833760169403  6.0099833760169403
  3.0049916880084697  9.0149750640254123  9.0149750640254123
  3.0049916880084697  9.0149750640254123  6.0099833760169403
  3.0049916880084697  6.0099833760169403  9.0149750640254123
  0.0000000000000000  9.0149750640254123  9.0149750640254123
  6.0099833760169403  0.0000000000000000  0.0000000000000000
  9.0149750640254123  3.0049916880084697  3.0049916880084697
  9.0149750640254123  3.0049916880084697  0.0000000000000000
  9.0149750640254123  0.0000000000000000  3.0049916880084697
  6.0099833760169403  3.0049916880084697  3.0049916880084697
  6.0099833760169403  0.0000000000000000  6.0099833760169403
  9.0149750640254123  3.0049916880084697  9.0149750640254123
  9.0149750640254123  3.0049916880084697  6.0099833760169403
  9.0149750640254123  0.0000000000000000  9.0149750640254123
  6.0099833760169403  3.0049916880084697  9.0149750640254123
  6.0099833760169403  6.0099833760169403  0.0000000000000000
  9.0149750640254123  9.0149750640254123  3.0049916880084697
  9.0149750640254123  9.0149750640254123  0.0000000000000000
  9.0149750640254123  6.0099833760169403  3.0049916880084697
  6.0099833760169403  9.0149750640254123  3.0049916880084697
  6.0099833760169403  6.0099833760169403  6.0099833760169403
  9.0149750640254123  9.0149750640254123  9.0149750640254123
  9.0149750640254123  9.0149750640254123  6.0099833760169403
  9.0149750640254123  6.0099833760169403  9.0149750640254123
  6.0099833760169403  9.0149750640254123  9.0149750640254123
