Cs Pb I  Cs Pb I  Cs Pb Br I  Cs Pb I  Br I  Cs Pb I  Br Cs Pb I  Br Cs Pb I  Br Cs Pb I  Br
 1.0000000000000000
    13.2414230058555251    0.0000000000000000    0.0000000000000000
     0.0000000000000000   13.2414230058555251    0.0000000000000000
     0.0000000000000000    0.0000000000000000   13.2414230058555251
 Cs  Pb  I   Cs  Pb  I   Cs  Pb  Br  I   Cs  Pb  I   Br  I   Cs  Pb  I   Br  Cs  Pb  I   Br  Cs  Pb  I   Br  Cs  Pb  I   Br 
   1   1   3   1   1   3   1   1   2   1   1   1   1   1   1   1   1   2   1   1   1   2   1   1   1   1   2   1   1   2   1
Cartesian
  0.0000000000000000  0.0000000000000000  0.0000000000000000
  3.3103557514638813  3.3103557514638813  3.3103557514638813
  3.3103557514638813  3.3103557514638813  0.0000000000000000
  3.3103557514638813  0.0000000000000000  3.3103557514638813
  0.0000000000000000  3.3103557514638813  3.3103557514638813
  0.0000000000000000  0.0000000000000000  6.6207115029277617
  3.3103557514638813  3.3103557514638813  9.9310672543916461
  3.3103557514638813  3.3103557514638813  6.6207115029277617
  3.3103557514638813  0.0000000000000000  9.9310672543916461
  0.0000000000000000  3.3103557514638813  9.9310672543916461
  0.0000000000000000  6.6207115029277617  0.0000000000000000
  3.3103557514638813  9.9310672543916461  3.3103557514638813
  3.3103557514638813  9.9310672543916461  0.0000000000000000
  3.3103557514638813  6.6207115029277617  3.3103557514638813
  0.0000000000000000  9.9310672543916461  3.3103557514638813
  0.0000000000000000  6.6207115029277617  6.6207115029277617
  3.3103557514638813  9.9310672543916461  9.9310672543916461
  3.3103557514638813  9.9310672543916461  6.6207115029277617
  3.3103557514638813  6.6207115029277617  9.9310672543916461
  0.0000000000000000  9.9310672543916461  9.9310672543916461
  6.6207115029277617  0.0000000000000000  0.0000000000000000
  9.9310672543916461  3.3103557514638813  3.3103557514638813
  9.9310672543916461  3.3103557514638813  0.0000000000000000
  9.9310672543916461  0.0000000000000000  3.3103557514638813
  6.6207115029277617  3.3103557514638813  3.3103557514638813
  6.6207115029277617  0.0000000000000000  6.6207115029277617
  9.9310672543916461  3.3103557514638813  9.9310672543916461
  9.9310672543916461  3.3103557514638813  6.6207115029277617
  9.9310672543916461  0.0000000000000000  9.9310672543916461
  6.6207115029277617  3.3103557514638813  9.9310672543916461
  6.6207115029277617  6.6207115029277617  0.0000000000000000
  9.9310672543916461  9.9310672543916461  3.3103557514638813
  9.9310672543916461  9.9310672543916461  0.0000000000000000
  9.9310672543916461  6.6207115029277617  3.3103557514638813
  6.6207115029277617  9.9310672543916461  3.3103557514638813
  6.6207115029277617  6.6207115029277617  6.6207115029277617
  9.9310672543916461  9.9310672543916461  9.9310672543916461
  9.9310672543916461  9.9310672543916461  6.6207115029277617
  9.9310672543916461  6.6207115029277617  9.9310672543916461
  6.6207115029277617  9.9310672543916461  9.9310672543916461
