Cs Pb I  Cs Pb I  Cs Pb I  Cs Ge I  Cs Ge I  Cs Pb I  Cs Ge I  Cs Pb I 
 1.0000000000000000
    12.7909959862396967    0.0000000000000000    0.0000000000000000
     0.0000000000000000   12.7909959862396967    0.0000000000000000
     0.0000000000000000    0.0000000000000000   12.7909959862396967
 Cs  Pb  I   Cs  Pb  I   Cs  Pb  I   Cs  Ge  I   Cs  Ge  I   Cs  Pb  I   Cs  Ge  I   Cs  Pb  I  
   1   1   3   1   1   3   1   1   3   1   1   3   1   1   3   1   1   3   1   1   3   1   1   3
Cartesian
  0.0000000000000000  0.0000000000000000  0.0000000000000000
  3.1977489965599242  3.1977489965599242  3.1977489965599242
  3.1977489965599242  3.1977489965599242  0.0000000000000000
  3.1977489965599242  0.0000000000000000  3.1977489965599242
  0.0000000000000000  3.1977489965599242  3.1977489965599242
  0.0000000000000000  0.0000000000000000  6.3954979931198475
  3.1977489965599242  3.1977489965599242  9.5932469896797734
  3.1977489965599242  3.1977489965599242  6.3954979931198475
  3.1977489965599242  0.0000000000000000  9.5932469896797734
  0.0000000000000000  3.1977489965599242  9.5932469896797734
  0.0000000000000000  6.3954979931198475  0.0000000000000000
  3.1977489965599242  9.5932469896797734  3.1977489965599242
  3.1977489965599242  9.5932469896797734  0.0000000000000000
  3.1977489965599242  6.3954979931198475  3.1977489965599242
  0.0000000000000000  9.5932469896797734  3.1977489965599242
  0.0000000000000000  6.3954979931198475  6.3954979931198475
  3.1977489965599242  9.5932469896797734  9.5932469896797734
  3.1977489965599242  9.5932469896797734  6.3954979931198475
  3.1977489965599242  6.3954979931198475  9.5932469896797734
  0.0000000000000000  9.5932469896797734  9.5932469896797734
  6.3954979931198475  0.0000000000000000  0.0000000000000000
  9.5932469896797734  3.1977489965599242  3.1977489965599242
  9.5932469896797734  3.1977489965599242  0.0000000000000000
  9.5932469896797734  0.0000000000000000  3.1977489965599242
  6.3954979931198475  3.1977489965599242  3.1977489965599242
  6.3954979931198475  0.0000000000000000  6.3954979931198475
  9.5932469896797734  3.1977489965599242  9.5932469896797734
  9.5932469896797734  3.1977489965599242  6.3954979931198475
  9.5932469896797734  0.0000000000000000  9.5932469896797734
  6.3954979931198475  3.1977489965599242  9.5932469896797734
  6.3954979931198475  6.3954979931198475  0.0000000000000000
  9.5932469896797734  9.5932469896797734  3.1977489965599242
  9.5932469896797734  9.5932469896797734  0.0000000000000000
  9.5932469896797734  6.3954979931198475  3.1977489965599242
  6.3954979931198475  9.5932469896797734  3.1977489965599242
  6.3954979931198475  6.3954979931198475  6.3954979931198475
  9.5932469896797734  9.5932469896797734  9.5932469896797734
  9.5932469896797734  9.5932469896797734  6.3954979931198475
  9.5932469896797734  6.3954979931198475  9.5932469896797734
  6.3954979931198475  9.5932469896797734  9.5932469896797734
