Cs Sn I  Cs Sn I  Cs Sn Cl Br I  Cs Sn I  Cl I  Cs Sn I  Cl Cs Sn I  Cs Sn I  Cl I  Cs Sn I 
 1.0000000000000000
    13.2129973132518259    0.0000000000000000    0.0000000000000000
     0.0000000000000000   13.2129973132518259    0.0000000000000000
     0.0000000000000000    0.0000000000000000   13.2129973132518259
 Cs  Sn  I   Cs  Sn  I   Cs  Sn  Cl  Br  I   Cs  Sn  I   Cl  I   Cs  Sn  I   Cl  Cs  Sn  I   Cs  Sn  I   Cl  I   Cs  Sn  I  
   1   1   3   1   1   3   1   1   1   1   1   1   1   1   1   1   1   1   2   1   1   1   3   1   1   1   1   1   1   1   3
Cartesian
  0.0000000000000000  0.0000000000000000  0.0000000000000000
  3.3032493283129565  3.3032493283129565  3.3032493283129565
  3.3032493283129565  3.3032493283129565  0.0000000000000000
  3.3032493283129565  0.0000000000000000  3.3032493283129565
  0.0000000000000000  3.3032493283129565  3.3032493283129565
  0.0000000000000000  0.0000000000000000  6.6064986566259121
  3.3032493283129565  3.3032493283129565  9.9097479849388712
  3.3032493283129565  3.3032493283129565  6.6064986566259121
  3.3032493283129565  0.0000000000000000  9.9097479849388712
  0.0000000000000000  3.3032493283129565  9.9097479849388712
  0.0000000000000000  6.6064986566259121  0.0000000000000000
  3.3032493283129565  9.9097479849388712  3.3032493283129565
  3.3032493283129565  9.9097479849388712  0.0000000000000000
  3.3032493283129565  6.6064986566259121  3.3032493283129565
  0.0000000000000000  9.9097479849388712  3.3032493283129565
  0.0000000000000000  6.6064986566259121  6.6064986566259121
  3.3032493283129565  9.9097479849388712  9.9097479849388712
  3.3032493283129565  9.9097479849388712  6.6064986566259121
  3.3032493283129565  6.6064986566259121  9.9097479849388712
  0.0000000000000000  9.9097479849388712  9.9097479849388712
  6.6064986566259121  0.0000000000000000  0.0000000000000000
  9.9097479849388712  3.3032493283129565  3.3032493283129565
  9.9097479849388712  3.3032493283129565  0.0000000000000000
  9.9097479849388712  0.0000000000000000  3.3032493283129565
  6.6064986566259121  3.3032493283129565  3.3032493283129565
  6.6064986566259121  0.0000000000000000  6.6064986566259121
  9.9097479849388712  3.3032493283129565  9.9097479849388712
  9.9097479849388712  3.3032493283129565  6.6064986566259121
  9.9097479849388712  0.0000000000000000  9.9097479849388712
  6.6064986566259121  3.3032493283129565  9.9097479849388712
  6.6064986566259121  6.6064986566259121  0.0000000000000000
  9.9097479849388712  9.9097479849388712  3.3032493283129565
  9.9097479849388712  9.9097479849388712  0.0000000000000000
  9.9097479849388712  6.6064986566259121  3.3032493283129565
  6.6064986566259121  9.9097479849388712  3.3032493283129565
  6.6064986566259121  6.6064986566259121  6.6064986566259121
  9.9097479849388712  9.9097479849388712  9.9097479849388712
  9.9097479849388712  9.9097479849388712  6.6064986566259121
  9.9097479849388712  6.6064986566259121  9.9097479849388712
  6.6064986566259121  9.9097479849388712  9.9097479849388712
