40
Lattice="11.712532238056722 0.0 0.0 -0.004090466691899092 11.74391979294175 0.0 -0.0006472645953661915 -0.0029251329910248394 11.848574295415617" Properties=species:S:1:pos:R:3:spacegroup_kinds:I:1:forces:R:3 spacegroup="P 1" unit_cell=conventional occupancy="_JSON {\"0\": {\"Cs\": 1.0}, \"1\": {\"Sn\": 1.0}, \"2\": {\"I\": 1.0}, \"3\": {\"Br\": 1.0}, \"4\": {\"Cl\": 1.0}, \"5\": {\"Cs\": 1.0}, \"6\": {\"Sn\": 1.0}, \"7\": {\"Cl\": 1.0}, \"8\": {\"Cl\": 1.0}, \"9\": {\"Cl\": 1.0}, \"10\": {\"Cs\": 1.0}, \"11\": {\"Sn\": 1.0}, \"12\": {\"Cl\": 1.0}, \"13\": {\"Cl\": 1.0}, \"14\": {\"I\": 1.0}, \"15\": {\"Cs\": 1.0}, \"16\": {\"Sn\": 1.0}, \"17\": {\"I\": 1.0}, \"18\": {\"Cl\": 1.0}, \"19\": {\"I\": 1.0}, \"20\": {\"Cs\": 1.0}, \"21\": {\"Sn\": 1.0}, \"22\": {\"Cl\": 1.0}, \"23\": {\"Br\": 1.0}, \"24\": {\"Cl\": 1.0}, \"25\": {\"Cs\": 1.0}, \"26\": {\"Sn\": 1.0}, \"27\": {\"Cl\": 1.0}, \"28\": {\"I\": 1.0}, \"29\": {\"Cl\": 1.0}, \"30\": {\"Cs\": 1.0}, \"31\": {\"Sn\": 1.0}, \"32\": {\"I\": 1.0}, \"33\": {\"Cl\": 1.0}, \"34\": {\"Cl\": 1.0}, \"35\": {\"Cs\": 1.0}, \"36\": {\"Sn\": 1.0}, \"37\": {\"Br\": 1.0}, \"38\": {\"Cl\": 1.0}, \"39\": {\"Cl\": 1.0}}" candidate_id=293b566919f1ae08 formula=FASnBr0.12Cl0.62I0.253 config_index=0 rattle_stdev=0.0 method=PBE fidelity=phase2_force energy=-130.83085942043147 stress="8.378384559175533e-05 0.00019457315457689067 -9.408123804818428e-05 0.00019457315457689067 0.0007779193174923446 6.968646933196188e-05 -9.408123804818428e-05 6.968646933196188e-05 -0.0015022704684708671" pbc="T T T"
Cs      11.61222834       0.06952213       0.10889271        0      -0.01132580      -0.04638132      -0.00326276
Sn       2.86349666       2.97673468       3.10953059        1       0.00695759      -0.03205448       0.10954151
I        2.89795360       2.87821853      11.82358247        2      -0.03286568      -0.00696210       0.05481656
Br       2.93340594       0.18683099       3.02467412        3       0.00725648      -0.03528387       0.02131136
Cl       0.22847150       3.01226350       3.14971439        4      -0.07011307       0.03572917       0.00102293
Cs       0.03200449       0.14020136       5.88422607        5       0.02854205      -0.01247887       0.02001718
Sn       2.89726121       2.87525532       8.72635339        6       0.02525784       0.06194934      -0.12803131
Cl       2.92003216       2.95235402       5.90031445        7      -0.00220681       0.02396511      -0.04695246
Cl       2.98023940       0.31028087       8.69979407        8       0.01795115      -0.06622448      -0.02085553
Cl       0.29413574       2.95037404       8.70528028        9      -0.08376261       0.02306401      -0.02140965
Cs      11.65121491       5.69504227       0.03572872       10       0.00285285       0.06221840      -0.01643813
Sn       3.09666435       8.64139853       2.80326610       11       0.05118840       0.05869179      -0.00392933
Cl       3.25077243       8.67254106       0.02915142       12       0.04695330       0.03511478      -0.02331931
Cl       3.09893308       6.03014583       2.81851272       13       0.00892641      -0.05435591      -0.02074045
I       -0.00272670       8.73929359       2.93053313       14      -0.02463204      -0.04186212      -0.03673279
Cs      11.61550337       5.64289602       5.95247942       15      -0.01906679       0.03346429       0.01537273
Sn       3.10047603       8.68094039       9.06058557       16       0.03850161       0.10642924       0.00272407
I        3.01272139       8.72237811       5.92929342       17       0.03602978      -0.01204413       0.03813480
Cl       3.08906932       6.12884391       9.05776347       18       0.00679123      -0.13885072       0.01961791
I        0.03777081       8.71305361       8.96667196       19       0.00650900      -0.02297791       0.05054303
Cs       5.80191178       0.04737858       0.11321805       20       0.01263193      -0.06872537       0.00927261
Sn       8.65850197       2.97393773       3.06357518       21      -0.10654890      -0.06890305       0.07807250
Cl       8.67600418       3.13742369      11.54087133       22       0.05386690       0.01995705       0.14665361
Br       8.70744325       0.14728884       2.98514219       23       0.00995966       0.09515190      -0.01731330
Cl       6.02083021       2.92384138       3.12898708       24       0.12910624       0.01976829      -0.03480097
Cs       5.77893589       0.16790423       5.87390447       25      -0.00718349      -0.03232729       0.00016140
Sn       8.69459185       3.05199491       8.94405620       26       0.00817501       0.11574871      -0.09991608
Cl       8.70670789       2.99511622       5.66214353       27       0.04775982       0.01892155      -0.06245301
I        8.70558253       0.03722279       8.87295879       28      -0.01165153      -0.03308308       0.01106054
Cl       6.10780237       3.04369782       8.85237355       29      -0.03010366       0.01602336      -0.03216538
Cs       5.80630311       5.73784309       0.00900689       30      -0.00858275       0.08352882      -0.02701539
Sn       8.57585143       8.64280446       3.06993610       31      -0.04760658       0.08566534       0.08190647
I        8.64830267       8.71387753       0.02297186       32      -0.04703137      -0.03531397       0.02174013
Cl       8.53975793       6.02511232       3.13615978       33       0.00280005      -0.15663423      -0.00518607
Cl       5.85078950       8.71141375       2.97116084       34       0.00354986       0.01832254      -0.00917239
Cs       5.83876270       5.67106271       5.94612775       35       0.02345928       0.06010950       0.01701970
Sn       8.57245503       8.58341092       8.80377564       36       0.01663823      -0.00701466      -0.03054176
Br       8.64708401       8.72607784       5.95629076       37      -0.02395877      -0.00914147      -0.05575922
Cl       8.60333751       5.91123495       8.76948347       38       0.01214058      -0.05888120      -0.02487049
Cl       5.91043044       8.58285175       8.83584538       39      -0.05176668      -0.01363377       0.00731549
40
Lattice="11.712532238056722 0.0 0.0 -0.004090466691899092 11.74391979294175 0.0 -0.0006472645953661915 -0.0029251329910248394 11.848574295415617" Properties=species:S:1:pos:R:3:spacegroup_kinds:I:1:forces:R:3 spacegroup="P 1" unit_cell=conventional occupancy="_JSON {\"0\": {\"Cs\": 1.0}, \"1\": {\"Sn\": 1.0}, \"2\": {\"I\": 1.0}, \"3\": {\"Br\": 1.0}, \"4\": {\"Cl\": 1.0}, \"5\": {\"Cs\": 1.0}, \"6\": {\"Sn\": 1.0}, \"7\": {\"Cl\": 1.0}, \"8\": {\"Cl\": 1.0}, \"9\": {\"Cl\": 1.0}, \"10\": {\"Cs\": 1.0}, \"11\": {\"Sn\": 1.0}, \"12\": {\"Cl\": 1.0}, \"13\": {\"Cl\": 1.0}, \"14\": {\"I\": 1.0}, \"15\": {\"Cs\": 1.0}, \"16\": {\"Sn\": 1.0}, \"17\": {\"I\": 1.0}, \"18\": {\"Cl\": 1.0}, \"19\": {\"I\": 1.0}, \"20\": {\"Cs\": 1.0}, \"21\": {\"Sn\": 1.0}, \"22\": {\"Cl\": 1.0}, \"23\": {\"Br\": 1.0}, \"24\": {\"Cl\": 1.0}, \"25\": {\"Cs\": 1.0}, \"26\": {\"Sn\": 1.0}, \"27\": {\"Cl\": 1.0}, \"28\": {\"I\": 1.0}, \"29\": {\"Cl\": 1.0}, \"30\": {\"Cs\": 1.0}, \"31\": {\"Sn\": 1.0}, \"32\": {\"I\": 1.0}, \"33\": {\"Cl\": 1.0}, \"34\": {\"Cl\": 1.0}, \"35\": {\"Cs\": 1.0}, \"36\": {\"Sn\": 1.0}, \"37\": {\"Br\": 1.0}, \"38\": {\"Cl\": 1.0}, \"39\": {\"Cl\": 1.0}}" candidate_id=293b566919f1ae08 formula=FASnBr0.12Cl0.62I0.253 config_index=1 rattle_stdev=0.08 method=PBE fidelity=phase2_force energy=-129.99539176051175 stress="-0.0009853302686731679 0.00015363138269360298 -0.00029914805342787 0.00015363138269360298 -0.001720932000065194 -9.80267212433745e-05 -0.00029914805342787 -9.80267212433745e-05 -0.00480970411492207" pbc="T T T"
Cs      11.52531263      -0.00216309       0.08438876        0      -0.02221579       0.05371561       0.03625551
Sn       2.75630197       2.88020783       3.05819245        1       0.19349103       0.37707166       0.37544375
I        3.00258925       3.02585537      11.88991167        2      -0.21277070      -0.16853296       0.00214735
Br       2.93154203       0.17014588       2.95134454        3      -0.03486221      -0.24268299       0.00878697
Cl       0.14249209       3.00537202       3.24378147        4       0.01945488      -0.02437899      -0.04767339
Cs      -0.09880285       0.23845688       5.97033697        5       0.09378355       0.01986609      -0.04946749
Sn       2.92884304       2.84423925       8.77342553        6      -0.03554088       0.92988703      -0.35012699
Cl       2.80536826       2.92646805       6.00055322        7       0.08948996       0.00459906      -0.09389962
Cl       2.92177999       0.42455968       8.77536638        8       0.04397572      -1.07906869      -0.00726370
Cl       0.27301552       2.93731698       8.62815169        9      -0.13207647       0.04400574       0.08715226
Cs      11.62380312       5.69895459      -0.00424184       10      -0.02525340       0.00426913       0.01831951
Sn       2.91971199       8.66618548       2.67609400       11       1.00204280      -0.25341419      -0.13258094
Cl       3.30912880       8.66390896      -0.02286230       12      -0.05869330       0.09648572       0.03951813
Cl       2.96348855       6.00066791       2.69128298       13      -0.04765166       0.12015939       0.01472941
I        0.11571377       8.77724881       3.00364224       14      -0.98291495      -0.01816571      -0.00159248
Cs      11.69234099       5.64965942       6.08985790       15       0.02861770      -0.01243642      -0.01830753
Sn       3.16862745       8.62054957       8.87757522       16       0.33834213       0.15899240       0.37948481
I        3.02146049       8.68636546       5.89625563       17       0.02261734      -0.03501199      -0.10483479
Cl       3.11458802       6.08555528       9.13365679       18      -0.00794485      -0.02915900      -0.13843867
I        0.04988561       8.71920581       8.96191993       19       0.22098274      -0.00621950       0.02306654
Cs       5.79630068       0.00208666       0.13809848       20       0.03652209      -0.03165987       0.04157667
Sn       8.71643868       3.01525374       3.14565764       21      -0.20061056      -0.15159356      -1.00262547
Cl       8.71761639       3.06783661      11.66091654       22       0.14841984       0.06848891      -0.51494779
Br       8.80076102       0.18664200       2.92656121       23      -0.00291843       0.02565696       0.11449519
Cl       6.07525470       2.96456112       3.06198418       24      -0.02062104      -0.01450445       0.03374948
Cs       5.83074748       0.16890738       5.99867160       25      -0.05931802      -0.02438074      -0.07750985
Sn       8.77735948       3.07901033       8.83984737       26      -0.29975231       0.45662987       0.62870919
Cl       8.61722435       3.09987743       5.62068617       27       0.04643057      -0.03725721       0.89719859
I        8.67413259       0.12066027       8.87893601       28       0.02081331      -0.28210979      -0.02804530
Cl       6.11495733       3.04801041       8.88584931       29       0.16545113       0.01073949      -0.11992338
Cs       5.70808471       5.65067977       0.03437684       30       0.15020030       0.16528922      -0.00068536
Sn       8.51341899       8.57431398       2.96434639       31      -0.21945139       0.41452622       0.43990418
I        8.68460520       8.79401952       0.13607063       32      -0.04716628      -0.04128066      -0.53976218
Cl       8.52454330       6.02752117       2.98628645       33       0.00516297      -0.28931974      -0.00178973
Cl       5.84144734       8.70121453       3.04333558       34       0.31294179       0.00127146      -0.03039800
Cs       5.73361293       5.66309865       5.95737174       35       0.02443872       0.03174891       0.00533540
Sn       8.78275951       8.72387323       8.59292382       36      -0.52372581      -0.41687906       1.61003371
Br       8.54415245       8.71234006       6.10032706       37      -0.02722874       0.03853287      -1.49812780
Cl       8.65203316       5.91375700       8.65217049       38       0.09293208       0.08731329      -0.03983352
Cl       5.93518570       8.67422918       8.79497785       39      -0.12152251       0.00982787      -0.00420653
40
Lattice="11.712532238056722 0.0 0.0 -0.004090466691899092 11.74391979294175 0.0 -0.0006472645953661915 -0.0029251329910248394 11.848574295415617" Properties=species:S:1:pos:R:3:spacegroup_kinds:I:1:forces:R:3 spacegroup="P 1" unit_cell=conventional occupancy="_JSON {\"0\": {\"Cs\": 1.0}, \"1\": {\"Sn\": 1.0}, \"2\": {\"I\": 1.0}, \"3\": {\"Br\": 1.0}, \"4\": {\"Cl\": 1.0}, \"5\": {\"Cs\": 1.0}, \"6\": {\"Sn\": 1.0}, \"7\": {\"Cl\": 1.0}, \"8\": {\"Cl\": 1.0}, \"9\": {\"Cl\": 1.0}, \"10\": {\"Cs\": 1.0}, \"11\": {\"Sn\": 1.0}, \"12\": {\"Cl\": 1.0}, \"13\": {\"Cl\": 1.0}, \"14\": {\"I\": 1.0}, \"15\": {\"Cs\": 1.0}, \"16\": {\"Sn\": 1.0}, \"17\": {\"I\": 1.0}, \"18\": {\"Cl\": 1.0}, \"19\": {\"I\": 1.0}, \"20\": {\"Cs\": 1.0}, \"21\": {\"Sn\": 1.0}, \"22\": {\"Cl\": 1.0}, \"23\": {\"Br\": 1.0}, \"24\": {\"Cl\": 1.0}, \"25\": {\"Cs\": 1.0}, \"26\": {\"Sn\": 1.0}, \"27\": {\"Cl\": 1.0}, \"28\": {\"I\": 1.0}, \"29\": {\"Cl\": 1.0}, \"30\": {\"Cs\": 1.0}, \"31\": {\"Sn\": 1.0}, \"32\": {\"I\": 1.0}, \"33\": {\"Cl\": 1.0}, \"34\": {\"Cl\": 1.0}, \"35\": {\"Cs\": 1.0}, \"36\": {\"Sn\": 1.0}, \"37\": {\"Br\": 1.0}, \"38\": {\"Cl\": 1.0}, \"39\": {\"Cl\": 1.0}}" candidate_id=293b566919f1ae08 formula=FASnBr0.12Cl0.62I0.253 config_index=2 rattle_stdev=0.08 method=PBE fidelity=phase2_force energy=-129.94195097577406 stress="-0.0031608490466086448 2.3108882237941525e-05 5.201938571926612e-05 2.3108882237941525e-05 0.0007286424690575978 4.224379702362805e-05 5.201938571926612e-05 4.224379702362805e-05 -0.003182689318278521" pbc="T T T"
Cs      11.60321129      -0.01660299       0.25169486        0       0.06735659      -0.04392623      -0.12671061
Sn       2.74693800       2.95062902       3.00873887        1       1.82458197       0.66804470       0.25634246
I        2.92802292       2.80796674      11.79558441        2      -0.13294478       0.04816513      -0.07416679
Br       2.95713875       0.28290395       2.89915450        3      -0.04512867      -0.91608081       0.07514014
Cl       0.37679380       3.05178044       3.13925748        4      -1.85241492       0.02930341       0.01468802
Cs      -0.00024517       0.06230838       5.84682873        5       0.06158887      -0.03839319       0.14043066
Sn       2.83982750       2.97296678       8.66417739        6       0.52892751      -0.35528332      -0.15478754
Cl       2.87295011       2.94774451       5.90668084        7       0.01434370      -0.03173370      -0.01632542
Cl       2.88558331       0.18638148       8.77277456        8       0.05266550       0.27086563      -0.06762834
Cl       0.32714940       2.89471252       8.52217852        9      -0.50896296       0.10621391       0.05384082
Cs      11.58823559       5.61276094       0.04319337       10       0.07685954       0.08547935      -0.03583191
Sn       3.05432882       8.70381811       2.78720092       11       0.30728534      -0.47414841       0.20093418
Cl       3.21232374       8.58972009      -0.01106733       12       0.04151038       0.03456393       0.29903407
Cl       3.16212429       5.95614602       2.99531555       13      -0.06286451       0.55744352      -0.14676834
I       -0.11474559       8.72016580       2.94792039       14       0.64921558      -0.07084405       0.00768609
Cs      11.58731255       5.64976606       5.96101158       15      -0.00330914       0.06498042       0.02680255
Sn       3.08471353       8.78869510       9.08819949       16       0.02130994      -0.24885055      -0.14520010
I        3.05733295       8.67475530       5.98792000       17      -0.02608092       0.07703469      -0.31299329
Cl       3.19556954       6.07044128       9.01890301       18      -0.02930856       0.06661488       0.03777295
I        0.12392395       8.50542502       8.98002622       19      -0.13271739       0.00823580       0.07720349
Cs       5.88502855      -0.09730733       0.17390932       20      -0.08024920       0.00403681      -0.03241880
Sn       8.61849295       2.78639428       3.05494177       21      -0.34793870       0.72376753       0.19886086
Cl       8.55578117       3.17652598      11.49661705       22       0.11983235       0.07069911       0.58567964
Br       8.79204385       0.07774341       2.97913490       23      -0.06248209      -0.13540771       0.02349903
Cl       6.01225781       3.09174714       3.10174404       24       0.39133073      -0.27264780      -0.10563007
Cs       5.73670348       0.06433488       5.89103239       25      -0.01071423      -0.01213557       0.05413409
Sn       8.78469341       3.08411778       9.00530303       26      -0.56819837      -0.14803777      -0.61206866
Cl       8.59845769       3.04102490       5.64453256       27       0.15208486      -0.16072317      -0.12688641
I        8.75719765      -0.04315476       9.02493788       28       0.02292059       0.56590989       0.00153029
Cl       6.12515123       3.08369545       8.80224626       29       0.33195434      -0.02099101      -0.01892135
Cs       5.72607238       5.67533827       0.02534911       30      -0.05634221       0.04017375      -0.01778376
Sn       8.61873879       8.55680467       2.89250772       31      -0.58195874       0.04678080       0.96016150
I        8.70005708       8.68809067       0.00916672       32      -0.03778374      -0.11763599      -0.02317100
Cl       8.35668419       6.01614882       3.21258489       33       0.13211560      -0.20283820      -0.15690656
Cl       5.88716855       8.87636795       2.97615768       34      -0.38796754       0.10641844      -0.11873395
Cs       5.83899010       5.63477840       5.97600635       35      -0.01717074       0.04630201       0.00223963
Sn       8.50740575       8.57528632       8.83943270       36       0.39659776       0.15805371      -0.63829778
Br       8.54507372       8.73470438       6.02446971       37       0.04568613       0.08002478      -0.20590375
Cl       8.59078934       6.00634049       8.65170240       38       0.07065442      -0.66099312       0.03464887
Cl       5.97971371       8.51138059       8.79192773       39      -0.37949037       0.04207127       0.08998509
40
Lattice="11.712532238056722 0.0 0.0 -0.004090466691899092 11.74391979294175 0.0 -0.0006472645953661915 -0.0029251329910248394 11.848574295415617" Properties=species:S:1:pos:R:3:spacegroup_kinds:I:1:forces:R:3 spacegroup="P 1" unit_cell=conventional occupancy="_JSON {\"0\": {\"Cs\": 1.0}, \"1\": {\"Sn\": 1.0}, \"2\": {\"I\": 1.0}, \"3\": {\"Br\": 1.0}, \"4\": {\"Cl\": 1.0}, \"5\": {\"Cs\": 1.0}, \"6\": {\"Sn\": 1.0}, \"7\": {\"Cl\": 1.0}, \"8\": {\"Cl\": 1.0}, \"9\": {\"Cl\": 1.0}, \"10\": {\"Cs\": 1.0}, \"11\": {\"Sn\": 1.0}, \"12\": {\"Cl\": 1.0}, \"13\": {\"Cl\": 1.0}, \"14\": {\"I\": 1.0}, \"15\": {\"Cs\": 1.0}, \"16\": {\"Sn\": 1.0}, \"17\": {\"I\": 1.0}, \"18\": {\"Cl\": 1.0}, \"19\": {\"I\": 1.0}, \"20\": {\"Cs\": 1.0}, \"21\": {\"Sn\": 1.0}, \"22\": {\"Cl\": 1.0}, \"23\": {\"Br\": 1.0}, \"24\": {\"Cl\": 1.0}, \"25\": {\"Cs\": 1.0}, \"26\": {\"Sn\": 1.0}, \"27\": {\"Cl\": 1.0}, \"28\": {\"I\": 1.0}, \"29\": {\"Cl\": 1.0}, \"30\": {\"Cs\": 1.0}, \"31\": {\"Sn\": 1.0}, \"32\": {\"I\": 1.0}, \"33\": {\"Cl\": 1.0}, \"34\": {\"Cl\": 1.0}, \"35\": {\"Cs\": 1.0}, \"36\": {\"Sn\": 1.0}, \"37\": {\"Br\": 1.0}, \"38\": {\"Cl\": 1.0}, \"39\": {\"Cl\": 1.0}}" candidate_id=293b566919f1ae08 formula=FASnBr0.12Cl0.62I0.253 config_index=3 rattle_stdev=0.08 method=PBE fidelity=phase2_force energy=-130.07368068543974 stress="-0.00116249241772328 5.3278841045062025e-05 -0.00010883378911761359 5.3278841045062025e-05 -0.0013558259675587464 0.00029238349943776654 -0.00010883378911761359 0.00029238349943776654 -0.0017920679532112875" pbc="T T T"
Cs      11.50654485       0.23086236       0.11269786        0       0.03623280       0.05700376      -0.01430490
Sn       2.84448297       2.98346449       3.18629397        1      -0.25775307      -0.31836682      -0.67290706
I        2.84342572       2.92054417      11.76158901        2       0.08326260      -0.01606614      -0.04720810
Br       3.04580243       0.16885655       2.92020326        3       0.01968935      -0.01769199       0.06412126
Cl       0.17418868       2.88258883       3.04731651        4       0.19827915       0.07671379       0.10057222
Cs       0.01406075       0.07215648       5.82376686        5      -0.01245693       0.00681100      -0.00437286
Sn       2.91831488       2.67083988       8.59273072        6      -0.27495415       0.81644145       0.58864915
Cl       2.86309335       2.75661197       5.79817966        7      -0.05363277      -0.01255855       0.23200603
Cl       3.03332920       0.20797415       8.63656129        8       0.01458373      -0.40719478      -0.03700288
Cl       0.17394608       2.85521084       8.88661549        9       0.29927853      -0.03556135      -0.18875345
Cs      11.61307268       5.76677539      -0.10866634       10       0.00325562      -0.10529228      -0.02232496
Sn       3.05736718       8.54543880       2.73884847       11       0.01701395       0.35057155       0.10985383
Cl       3.36323792       8.65411581      -0.02794430       12      -0.00070814      -0.03554688       0.44766503
Cl       3.08592607       5.97583544       2.93964214       13      -0.01181876      -0.00520299      -0.04205816
I       -0.14253252       8.79197596       2.90300383       14       1.19922380      -0.09664999      -0.04855662
Cs      11.55480752       5.65665812       5.89989614       15      -0.07949728       0.00529700       0.01371686
Sn       3.14469167       8.71154905       9.03088234       16      -0.07218157      -0.01953065       0.12531269
I        3.13897291       8.73972191       6.02622076       17      -0.01443334       0.02269699      -0.57866341
Cl       3.14758777       6.18276360       9.01133899       18       0.00927284      -0.29437495       0.01237956
I        0.02982364       8.58626442       8.96069465       19      -0.13301666       0.02344742      -0.00551623
Cs       5.89781649       0.02614476       0.06107408       20      -0.06134793       0.00051048       0.00011196
Sn       8.50677905       2.85071381       3.03214933       21       0.69623343       0.59429154      -0.06407236
Cl       8.64284572       3.19430911      11.59227336       22       0.06464399      -0.09630077      -0.12096274
Br       8.89923015       0.13370626       2.90407149       23      -0.17215320      -0.33795531       0.02561806
Cl       5.98534572       2.99151955       3.16853580       24      -0.41321481      -0.12389533       0.07661542
Cs       5.80122695       0.20967150       5.89931381       25       0.00852600      -0.07083735      -0.01662539
Sn       8.71276276       3.02076767       8.88661480       26      -0.00551716       0.56946688       0.26715540
Cl       8.83023678       2.92608061       5.63343732       27      -0.07450563      -0.04878724       0.05467606
I        8.71228668       0.17156055       8.77861181       28      -0.00936841      -1.21905805       0.05536619
Cl       6.07590420       3.00982668       8.89712049       29      -0.15783568      -0.04215895      -0.12685331
Cs       5.76012354       5.74354288       0.07838330       30       0.02137812      -0.00590244      -0.07949228
Sn       8.60904415       8.62470568       3.13038355       31      -0.15181788      -0.28843763       0.34983413
I        8.66631306       8.67869729       0.07529820       32      -0.01781054      -0.00135239       0.14676360
Cl       8.46806807       5.91115643       3.27555851       33       0.10912039       0.20386432      -0.03294515
Cl       6.08433555       8.65751573       2.90947890       34      -1.07220591       0.05855795      -0.02077693
Cs       5.92320209       5.76271975       5.95577759       35       0.05107498       0.04731643       0.05294007
Sn       8.57345450       8.52744920       8.95387957       36       0.06944235      -0.08190764      -0.43080837
Br       8.61103134       8.70157909       6.06931011       37      -0.01416440       0.01330599      -0.14835807
Cl       8.55105023       5.72990963       8.81791162       38       0.01062968       0.80770061      -0.03814043
Cl       5.86848500       8.59945093       8.92355755       39       0.14347204       0.02038928       0.02362112
