Cs Pb I  Cs Pb I  Cs Pb I  Cs Ge I  Cs Pb I  Cs Pb I  Cs Ge I  Cs Pb I 
 1.0000000000000000
    13.1312557693466605    0.0000000000000000    0.0000000000000000
     0.0000000000000000   13.1312557693466605    0.0000000000000000
     0.0000000000000000    0.0000000000000000   13.1312557693466605
 Cs  Pb  I   Cs  Pb  I   Cs  Pb  I   Cs  Ge  I   Cs  Pb  I   Cs  Pb  I   Cs  Ge  I   Cs  Pb  I  
   1   1   3   1   1   3   1   1   3   1   1   3   1   1   3   1   1   3   1   1   3   1   1   3
Cartesian
  0.0000000000000000  0.0000000000000000  0.0000000000000000
  3.2828139423366651  3.2828139423366651  3.2828139423366651
  3.2828139423366651  3.2828139423366651  0.0000000000000000
  3.2828139423366651  0.0000000000000000  3.2828139423366651
  0.0000000000000000  3.2828139423366651  3.2828139423366651
  0.0000000000000000  0.0000000000000000  6.5656278846733294
  3.2828139423366651  3.2828139423366651  9.8484418270099958
  3.2828139423366651  3.2828139423366651  6.5656278846733294
  3.2828139423366651  0.0000000000000000  9.8484418270099958
  0.0000000000000000  3.2828139423366651  9.8484418270099958
  0.0000000000000000  6.5656278846733294  0.0000000000000000
  3.2828139423366651  9.8484418270099958  3.2828139423366651
  3.2828139423366651  9.8484418270099958  0.0000000000000000
  3.2828139423366651  6.5656278846733294  3.2828139423366651
  0.0000000000000000  9.8484418270099958  3.2828139423366651
  0.0000000000000000  6.5656278846733294  6.5656278846733294
  3.2828139423366651  9.8484418270099958  9.8484418270099958
  3.2828139423366651  9.8484418270099958  6.5656278846733294
  3.2828139423366651  6.5656278846733294  9.8484418270099958
  0.0000000000000000  9.8484418270099958  9.8484418270099958
  6.5656278846733294  0.0000000000000000  0.0000000000000000
  9.8484418270099958  3.2828139423366651  3.2828139423366651
  9.8484418270099958  3.2828139423366651  0.0000000000000000
  9.8484418270099958  0.0000000000000000  3.2828139423366651
  6.5656278846733294  3.2828139423366651  3.2828139423366651
  6.5656278846733294  0.0000000000000000  6.5656278846733294
  9.8484418270099958  3.2828139423366651  9.8484418270099958
  9.8484418270099958  3.2828139423366651  6.5656278846733294
  9.8484418270099958  0.0000000000000000  9.8484418270099958
  6.5656278846733294  3.2828139423366651  9.8484418270099958
  6.5656278846733294  6.5656278846733294  0.0000000000000000
  9.8484418270099958  9.8484418270099958  3.2828139423366651
  9.8484418270099958  9.8484418270099958  0.0000000000000000
  9.8484418270099958  6.5656278846733294  3.2828139423366651
  6.5656278846733294  9.8484418270099958  3.2828139423366651
  6.5656278846733294  6.5656278846733294  6.5656278846733294
  9.8484418270099958  9.8484418270099958  9.8484418270099958
  9.8484418270099958  9.8484418270099958  6.5656278846733294
  9.8484418270099958  6.5656278846733294  9.8484418270099958
  6.5656278846733294  9.8484418270099958  9.8484418270099958
