Cs Pb I  Cs Pb I  Cs Pb I  Cs Pb I  Cs Pb I  Cs Pb I  Cs Ge I  Cs Pb I 
 1.0000000000000000
    13.2264323420943697    0.0000000000000000    0.0000000000000000
     0.0000000000000000   13.2264323420943697    0.0000000000000000
     0.0000000000000000    0.0000000000000000   13.2264323420943697
 Cs  Pb  I   Cs  Pb  I   Cs  Pb  I   Cs  Pb  I   Cs  Pb  I   Cs  Pb  I   Cs  Ge  I   Cs  Pb  I  
   1   1   3   1   1   3   1   1   3   1   1   3   1   1   3   1   1   3   1   1   3   1   1   3
Cartesian
  0.0000000000000000  0.0000000000000000  0.0000000000000000
  3.3066080855235924  3.3066080855235924  3.3066080855235924
  3.3066080855235924  3.3066080855235924  0.0000000000000000
  3.3066080855235924  0.0000000000000000  3.3066080855235924
  0.0000000000000000  3.3066080855235924  3.3066080855235924
  0.0000000000000000  0.0000000000000000  6.6132161710471840
  3.3066080855235924  3.3066080855235924  9.9198242565707773
  3.3066080855235924  3.3066080855235924  6.6132161710471840
  3.3066080855235924  0.0000000000000000  9.9198242565707773
  0.0000000000000000  3.3066080855235924  9.9198242565707773
  0.0000000000000000  6.6132161710471840  0.0000000000000000
  3.3066080855235924  9.9198242565707773  3.3066080855235924
  3.3066080855235924  9.9198242565707773  0.0000000000000000
  3.3066080855235924  6.6132161710471840  3.3066080855235924
  0.0000000000000000  9.9198242565707773  3.3066080855235924
  0.0000000000000000  6.6132161710471840  6.6132161710471840
  3.3066080855235924  9.9198242565707773  9.9198242565707773
  3.3066080855235924  9.9198242565707773  6.6132161710471840
  3.3066080855235924  6.6132161710471840  9.9198242565707773
  0.0000000000000000  9.9198242565707773  9.9198242565707773
  6.6132161710471840  0.0000000000000000  0.0000000000000000
  9.9198242565707773  3.3066080855235924  3.3066080855235924
  9.9198242565707773  3.3066080855235924  0.0000000000000000
  9.9198242565707773  0.0000000000000000  3.3066080855235924
  6.6132161710471840  3.3066080855235924  3.3066080855235924
  6.6132161710471840  0.0000000000000000  6.6132161710471840
  9.9198242565707773  3.3066080855235924  9.9198242565707773
  9.9198242565707773  3.3066080855235924  6.6132161710471840
  9.9198242565707773  0.0000000000000000  9.9198242565707773
  6.6132161710471840  3.3066080855235924  9.9198242565707773
  6.6132161710471840  6.6132161710471840  0.0000000000000000
  9.9198242565707773  9.9198242565707773  3.3066080855235924
  9.9198242565707773  9.9198242565707773  0.0000000000000000
  9.9198242565707773  6.6132161710471840  3.3066080855235924
  6.6132161710471840  9.9198242565707773  3.3066080855235924
  6.6132161710471840  6.6132161710471840  6.6132161710471840
  9.9198242565707773  9.9198242565707773  9.9198242565707773
  9.9198242565707773  9.9198242565707773  6.6132161710471840
  9.9198242565707773  6.6132161710471840  9.9198242565707773
  6.6132161710471840  9.9198242565707773  9.9198242565707773
