Cs Pb I  Cs Pb I  Cs Pb I  Cs Sn I  Cs Pb I  Cs Pb I  Cs Sn I  Cs Pb I 
 1.0000000000000000
    13.5502872478778098    0.0000000000000000    0.0000000000000000
     0.0000000000000000   13.5502872478778098    0.0000000000000000
     0.0000000000000000    0.0000000000000000   13.5502872478778098
 Cs  Pb  I   Cs  Pb  I   Cs  Pb  I   Cs  Sn  I   Cs  Pb  I   Cs  Pb  I   Cs  Sn  I   Cs  Pb  I  
   1   1   3   1   1   3   1   1   3   1   1   3   1   1   3   1   1   3   1   1   3   1   1   3
Cartesian
  0.0000000000000000  0.0000000000000000  0.0000000000000000
  3.3875718119694525  3.3875718119694525  3.3875718119694525
  3.3875718119694525  3.3875718119694525  0.0000000000000000
  3.3875718119694525  0.0000000000000000  3.3875718119694525
  0.0000000000000000  3.3875718119694525  3.3875718119694525
  0.0000000000000000  0.0000000000000000  6.7751436239389040
  3.3875718119694525  3.3875718119694525 10.1627154359083569
  3.3875718119694525  3.3875718119694525  6.7751436239389040
  3.3875718119694525  0.0000000000000000 10.1627154359083569
  0.0000000000000000  3.3875718119694525 10.1627154359083569
  0.0000000000000000  6.7751436239389040  0.0000000000000000
  3.3875718119694525 10.1627154359083569  3.3875718119694525
  3.3875718119694525 10.1627154359083569  0.0000000000000000
  3.3875718119694525  6.7751436239389040  3.3875718119694525
  0.0000000000000000 10.1627154359083569  3.3875718119694525
  0.0000000000000000  6.7751436239389040  6.7751436239389040
  3.3875718119694525 10.1627154359083569 10.1627154359083569
  3.3875718119694525 10.1627154359083569  6.7751436239389040
  3.3875718119694525  6.7751436239389040 10.1627154359083569
  0.0000000000000000 10.1627154359083569 10.1627154359083569
  6.7751436239389040  0.0000000000000000  0.0000000000000000
 10.1627154359083569  3.3875718119694525  3.3875718119694525
 10.1627154359083569  3.3875718119694525  0.0000000000000000
 10.1627154359083569  0.0000000000000000  3.3875718119694525
  6.7751436239389040  3.3875718119694525  3.3875718119694525
  6.7751436239389040  0.0000000000000000  6.7751436239389040
 10.1627154359083569  3.3875718119694525 10.1627154359083569
 10.1627154359083569  3.3875718119694525  6.7751436239389040
 10.1627154359083569  0.0000000000000000 10.1627154359083569
  6.7751436239389040  3.3875718119694525 10.1627154359083569
  6.7751436239389040  6.7751436239389040  0.0000000000000000
 10.1627154359083569 10.1627154359083569  3.3875718119694525
 10.1627154359083569 10.1627154359083569  0.0000000000000000
 10.1627154359083569  6.7751436239389040  3.3875718119694525
  6.7751436239389040 10.1627154359083569  3.3875718119694525
  6.7751436239389040  6.7751436239389040  6.7751436239389040
 10.1627154359083569 10.1627154359083569 10.1627154359083569
 10.1627154359083569 10.1627154359083569  6.7751436239389040
 10.1627154359083569  6.7751436239389040 10.1627154359083569
  6.7751436239389040 10.1627154359083569 10.1627154359083569
