Cs Pb I  Cs Pb I  Cs Ge I  Cs Ge I  Cs Ge I  Cs Pb I  Cs Ge I  Cs Pb I 
 1.0000000000000000
    12.6648481364760137    0.0000000000000000    0.0000000000000000
     0.0000000000000000   12.6648481364760137    0.0000000000000000
     0.0000000000000000    0.0000000000000000   12.6648481364760137
 Cs  Pb  I   Cs  Pb  I   Cs  Ge  I   Cs  Ge  I   Cs  Ge  I   Cs  Pb  I   Cs  Ge  I   Cs  Pb  I  
   1   1   3   1   1   3   1   1   3   1   1   3   1   1   3   1   1   3   1   1   3   1   1   3
Cartesian
  0.0000000000000000  0.0000000000000000  0.0000000000000000
  3.1662120341190034  3.1662120341190034  3.1662120341190034
  3.1662120341190034  3.1662120341190034  0.0000000000000000
  3.1662120341190034  0.0000000000000000  3.1662120341190034
  0.0000000000000000  3.1662120341190034  3.1662120341190034
  0.0000000000000000  0.0000000000000000  6.3324240682380060
  3.1662120341190034  3.1662120341190034  9.4986361023570112
  3.1662120341190034  3.1662120341190034  6.3324240682380060
  3.1662120341190034  0.0000000000000000  9.4986361023570112
  0.0000000000000000  3.1662120341190034  9.4986361023570112
  0.0000000000000000  6.3324240682380060  0.0000000000000000
  3.1662120341190034  9.4986361023570112  3.1662120341190034
  3.1662120341190034  9.4986361023570112  0.0000000000000000
  3.1662120341190034  6.3324240682380060  3.1662120341190034
  0.0000000000000000  9.4986361023570112  3.1662120341190034
  0.0000000000000000  6.3324240682380060  6.3324240682380060
  3.1662120341190034  9.4986361023570112  9.4986361023570112
  3.1662120341190034  9.4986361023570112  6.3324240682380060
  3.1662120341190034  6.3324240682380060  9.4986361023570112
  0.0000000000000000  9.4986361023570112  9.4986361023570112
  6.3324240682380060  0.0000000000000000  0.0000000000000000
  9.4986361023570112  3.1662120341190034  3.1662120341190034
  9.4986361023570112  3.1662120341190034  0.0000000000000000
  9.4986361023570112  0.0000000000000000  3.1662120341190034
  6.3324240682380060  3.1662120341190034  3.1662120341190034
  6.3324240682380060  0.0000000000000000  6.3324240682380060
  9.4986361023570112  3.1662120341190034  9.4986361023570112
  9.4986361023570112  3.1662120341190034  6.3324240682380060
  9.4986361023570112  0.0000000000000000  9.4986361023570112
  6.3324240682380060  3.1662120341190034  9.4986361023570112
  6.3324240682380060  6.3324240682380060  0.0000000000000000
  9.4986361023570112  9.4986361023570112  3.1662120341190034
  9.4986361023570112  9.4986361023570112  0.0000000000000000
  9.4986361023570112  6.3324240682380060  3.1662120341190034
  6.3324240682380060  9.4986361023570112  3.1662120341190034
  6.3324240682380060  6.3324240682380060  6.3324240682380060
  9.4986361023570112  9.4986361023570112  9.4986361023570112
  9.4986361023570112  9.4986361023570112  6.3324240682380060
  9.4986361023570112  6.3324240682380060  9.4986361023570112
  6.3324240682380060  9.4986361023570112  9.4986361023570112
