40
Lattice="12.497429786192365 0.0 0.0 0.0 12.497429786192365 0.0 0.0 1.1865194307074948e-14 12.497429786192235" Properties=species:S:1:pos:R:3:spacegroup_kinds:I:1:forces:R:3 spacegroup="P 1" unit_cell=conventional occupancy="_JSON {\"0\": {\"Cs\": 1.0}, \"1\": {\"Sn\": 1.0}, \"2\": {\"I\": 1.0}, \"3\": {\"I\": 1.0}, \"4\": {\"I\": 1.0}, \"5\": {\"Cs\": 1.0}, \"6\": {\"Sn\": 1.0}, \"7\": {\"I\": 1.0}, \"8\": {\"I\": 1.0}, \"9\": {\"I\": 1.0}, \"10\": {\"Cs\": 1.0}, \"11\": {\"Sn\": 1.0}, \"12\": {\"I\": 1.0}, \"13\": {\"I\": 1.0}, \"14\": {\"I\": 1.0}, \"15\": {\"Cs\": 1.0}, \"16\": {\"Sn\": 1.0}, \"17\": {\"I\": 1.0}, \"18\": {\"I\": 1.0}, \"19\": {\"I\": 1.0}, \"20\": {\"Cs\": 1.0}, \"21\": {\"Sn\": 1.0}, \"22\": {\"I\": 1.0}, \"23\": {\"I\": 1.0}, \"24\": {\"I\": 1.0}, \"25\": {\"Cs\": 1.0}, \"26\": {\"Sn\": 1.0}, \"27\": {\"I\": 1.0}, \"28\": {\"I\": 1.0}, \"29\": {\"I\": 1.0}, \"30\": {\"Cs\": 1.0}, \"31\": {\"Ge\": 1.0}, \"32\": {\"I\": 1.0}, \"33\": {\"I\": 1.0}, \"34\": {\"I\": 1.0}, \"35\": {\"Cs\": 1.0}, \"36\": {\"Sn\": 1.0}, \"37\": {\"I\": 1.0}, \"38\": {\"I\": 1.0}, \"39\": {\"I\": 1.0}}" candidate_id=8906e6ecfc741a98 formula=MAGe0.18Sn0.82I3 config_index=0 rattle_stdev=0.0 method=PBE fidelity=phase2_force energy=-112.26138776758692 stress="0.0003985563654944663 -9.224875708184681e-11 9.224875708184787e-11 -9.224875708184681e-11 0.0003985563654944662 9.224875670345406e-11 9.224875708184787e-11 9.224875670345406e-11 0.0003985563654944745" pbc="T T T"
Cs      12.45188654      12.45188654       0.04554325        0       0.00064438       0.00064438      -0.00064438
Sn       3.12435745       3.12435745       3.12435745        1       0.00021910       0.00021910       0.00021613
I        3.12435745       3.12435745      12.49561822        2      -0.00000203      -0.00000203       0.02393564
I        3.12435745      12.49483545       3.12435745        3      -0.00000255      -0.01067305      -0.00000231
I       12.49483545       3.12435745       3.12435745        4      -0.01067305      -0.00000255      -0.00000231
Cs      12.45188654      12.45188654       6.20317165        5       0.00064523       0.00064523       0.00064950
Sn       3.12435745       3.12435745       9.37307234        6       0.00022168       0.00022168      -0.00022168
I        3.12435745       3.12435745       6.25052646        7       0.00000030       0.00000030      -0.02393544
I        3.12435745       0.00181157       9.37307234        8      -0.00000203      -0.02393564       0.00000203
I        0.00181157       3.12435745       9.37307234        9      -0.02393564      -0.00000203       0.00000203
Cs      12.45188654       6.29425814       0.04554325       10       0.00064523      -0.00064950      -0.00064523
Sn       3.12435745       9.37307234       3.12435745       11       0.00015554      -0.00021758       0.00021758
I        3.12435745       9.37307234       0.00259434       12      -0.00000255       0.00000231       0.01067305
I        3.12435745       6.25130923       3.12435745       13      -0.00000186       0.01067234      -0.00000006
I       12.39276792       9.37307234       3.12435745       14       0.11710972       0.00000206      -0.00000206
Cs      12.45188654       6.29425814       6.20317165       15       0.00064955      -0.00065082       0.00065082
Sn       3.12435745       9.37307234       9.37307234       16       0.00021910      -0.00021613      -0.00021910
I        3.12435745       9.37307234       6.24612055       17      -0.00000186       0.00000006      -0.01067234
I        3.12435745       6.24690333       9.37307234       18       0.00000030       0.02393544      -0.00000030
I       12.49483545       9.37307234       9.37307234       19      -0.01067305       0.00000231       0.00000255
Cs       6.29425814      12.45188654       0.04554325       20      -0.00064950       0.00064523      -0.00064523
Sn       9.37307234       3.12435745       3.12435745       21      -0.00021758       0.00015554       0.00021758
I        9.37307234       3.12435745       0.00259434       22       0.00000231      -0.00000255       0.01067305
I        9.37307234      12.39276792       3.12435745       23       0.00000206       0.11710972      -0.00000206
I        6.25130923       3.12435745       3.12435745       24       0.01067234      -0.00000186      -0.00000006
Cs       6.29425814      12.45188654       6.20317165       25      -0.00065082       0.00064955       0.00065082
Sn       9.37307234       3.12435745       9.37307234       26      -0.00021613       0.00021910      -0.00021910
I        9.37307234       3.12435745       6.24612055       27       0.00000006      -0.00000186      -0.01067234
I        9.37307234      12.49483545       9.37307234       28       0.00000231      -0.01067305       0.00000255
I        6.24690333       3.12435745       9.37307234       29       0.02393544       0.00000030      -0.00000030
Cs       6.29425814       6.29425814       0.04554325       30      -0.00065082      -0.00065082      -0.00064955
Ge       9.37307234       9.37307234       3.12435745       31       0.00000693       0.00000693      -0.00000693
I        9.37307234       9.37307234       0.10466186       32       0.00000206       0.00000206      -0.11710972
I        9.37307234       6.35337676       3.12435745       33       0.00000054      -0.11707033      -0.00000054
I        6.35337676       9.37307234       3.12435745       34      -0.11707033       0.00000054      -0.00000054
Cs       6.29425814       6.29425814       6.20317165       35      -0.00065475      -0.00065475       0.00065475
Sn       9.37307234       9.37307234       9.37307234       36      -0.00021758      -0.00021758      -0.00015554
I        9.37307234       9.37307234       6.14405303       37       0.00000054       0.00000054       0.11707033
I        9.37307234       6.25130923       9.37307234       38       0.00000006       0.01067234       0.00000186
I        6.25130923       9.37307234       9.37307234       39       0.01067234       0.00000006       0.00000186
40
Lattice="12.497429786192365 0.0 0.0 0.0 12.497429786192365 0.0 0.0 1.1865194307074948e-14 12.497429786192235" Properties=species:S:1:pos:R:3:spacegroup_kinds:I:1:forces:R:3 spacegroup="P 1" unit_cell=conventional occupancy="_JSON {\"0\": {\"Cs\": 1.0}, \"1\": {\"Sn\": 1.0}, \"2\": {\"I\": 1.0}, \"3\": {\"I\": 1.0}, \"4\": {\"I\": 1.0}, \"5\": {\"Cs\": 1.0}, \"6\": {\"Sn\": 1.0}, \"7\": {\"I\": 1.0}, \"8\": {\"I\": 1.0}, \"9\": {\"I\": 1.0}, \"10\": {\"Cs\": 1.0}, \"11\": {\"Sn\": 1.0}, \"12\": {\"I\": 1.0}, \"13\": {\"I\": 1.0}, \"14\": {\"I\": 1.0}, \"15\": {\"Cs\": 1.0}, \"16\": {\"Sn\": 1.0}, \"17\": {\"I\": 1.0}, \"18\": {\"I\": 1.0}, \"19\": {\"I\": 1.0}, \"20\": {\"Cs\": 1.0}, \"21\": {\"Sn\": 1.0}, \"22\": {\"I\": 1.0}, \"23\": {\"I\": 1.0}, \"24\": {\"I\": 1.0}, \"25\": {\"Cs\": 1.0}, \"26\": {\"Sn\": 1.0}, \"27\": {\"I\": 1.0}, \"28\": {\"I\": 1.0}, \"29\": {\"I\": 1.0}, \"30\": {\"Cs\": 1.0}, \"31\": {\"Ge\": 1.0}, \"32\": {\"I\": 1.0}, \"33\": {\"I\": 1.0}, \"34\": {\"I\": 1.0}, \"35\": {\"Cs\": 1.0}, \"36\": {\"Sn\": 1.0}, \"37\": {\"I\": 1.0}, \"38\": {\"I\": 1.0}, \"39\": {\"I\": 1.0}}" candidate_id=8906e6ecfc741a98 formula=MAGe0.18Sn0.82I3 config_index=1 rattle_stdev=0.08 method=PBE fidelity=phase2_force energy=-111.93279780868396 stress="-0.0011609432489291974 4.1728749188422425e-05 -7.394530030428681e-06 4.1728749188422425e-05 -0.000680378857760207 -6.003694296069421e-05 -7.394530030428681e-06 -6.003694296069421e-05 -0.0015108968379106155" pbc="T T T"
Cs      12.36497083      12.38020133       0.02103930        0      -0.00503564       0.04192489       0.02780894
Sn       3.01716275       3.02783060       3.07301930        1       0.26346813       0.26707580       0.17287587
I        3.22899310       3.27199428      12.56194742        2      -0.07893125      -0.06355419       0.00869289
I        3.12249354      12.47815033       3.05102787        3       0.00883175       0.01069926       0.00009717
I       12.40885604       3.11746597       3.21842453        4       0.45730332      -0.00584617       0.00338343
Cs      12.32107920      12.55014206       6.28928255        5       0.04325357       0.02631172      -0.04216776
Sn       3.15593928       3.09334138       9.42014448        6       0.09839736      -0.00539025      -0.17091021
I        3.00969354       3.09847147       6.35076523        7       0.05344008       0.02005818      -0.16943073
I        3.06589804       0.11609037       9.44864465        8      -0.00933368      -0.45459497       0.01207380
I       -0.01930866       3.11130038       9.29594376        9       0.03245023       0.01277627       0.03698728
Cs      12.42447475       6.29817046       0.00557269       10      -0.00333906      -0.03042334       0.01459871
Sn       2.94740509       9.39785929       2.99718534       11       0.29659095      -0.26323933      -0.08633373
I        3.18271381       9.36444024      -0.04941938       12      -0.04802096       0.02450727       0.05241775
I        2.98891293       6.22183131       2.99712771       13       0.00740701       0.05587134       0.07857859
I       12.51120839       9.41102756       3.19746655       14      -0.26911030       0.00101903       0.01294945
Cs      12.52872416       6.30102154       6.34055012       15       0.01859586      -0.03813739      -0.02864482
Sn       3.19250886       9.31268151       9.19006199       16       0.25816203       0.04442090       0.24863857
I        3.13309654       9.33705969       6.21308276       17       0.00852741      -0.00688304      -0.07597326
I        3.14987615       6.20361469       9.44896566       18      -0.02000275       0.41300100      -0.05918000
I       12.50695025       9.37922453       9.36832031       19       0.25142585       0.02170194       0.00049115
Cs       6.28864704      12.40659462       0.07042367       20       0.01365752       0.02723402       0.02062438
Sn       9.43100904       3.16567345       3.20643990       21      -0.40878759      -0.20089873      -0.50278296
I        9.41468455       3.05477036       0.12263955       22       0.04253606       0.02873177      -0.34596281
I        9.46639011      12.43212108       3.06577647       23      -0.02555603       0.06484127       0.13279162
I        6.30573372       3.16507719       3.05735455       24      -0.29130176      -0.01687125       0.06744015
Cs       6.34606973      12.45288970       6.32793878       25      -0.03401181       0.01721144      -0.03505111
Sn       9.45583997       3.15137286       9.26886351       26      -0.13031560       0.26200986       0.30023395
I        9.28358880       3.22911866       6.20466319       27      -0.01376727      -0.03555433       0.40774153
I        9.34162240      12.57827293       9.37904956       28       0.03543322      -0.19289467      -0.03470532
I        6.25405829       3.12867004       9.40654810       29      -0.02772963      -0.00398002      -0.01308928
Cs       6.19603973       6.20709481       0.07091320       30       0.01565392      -0.00679655       0.01318286
Ge       9.31063990       9.30458186       3.01876773       31      -0.27859898       0.12865806      -0.14072408
I        9.40937487       9.45321433       0.21776064       32      -0.01189378      -0.04513169      -0.08289081
I        9.35785771       6.35578560       2.97448411       33       0.03895882       0.03434222       0.05892416
I        6.34403460       9.36287311       3.19653219       34       0.25533589       0.00015981      -0.02154476
Cs       6.18910836       6.28629408       6.21441564       35      -0.00639458      -0.01949114      -0.01049523
Sn       9.58337682       9.51353465       9.16222052       36      -0.52422802      -0.28537974       0.31535718
I        9.27014078       9.35933456       6.28808933       37       0.10188853       0.05128668      -0.25088296
I        9.42176799       6.25383128       9.25575937       38       0.00994424       0.13618055       0.06230074
I        6.27606449       9.46444977       9.33220481       39      -0.12268293      -0.01723214       0.02164489
40
Lattice="12.497429786192365 0.0 0.0 0.0 12.497429786192365 0.0 0.0 1.1865194307074948e-14 12.497429786192235" Properties=species:S:1:pos:R:3:spacegroup_kinds:I:1:forces:R:3 spacegroup="P 1" unit_cell=conventional occupancy="_JSON {\"0\": {\"Cs\": 1.0}, \"1\": {\"Sn\": 1.0}, \"2\": {\"I\": 1.0}, \"3\": {\"I\": 1.0}, \"4\": {\"I\": 1.0}, \"5\": {\"Cs\": 1.0}, \"6\": {\"Sn\": 1.0}, \"7\": {\"I\": 1.0}, \"8\": {\"I\": 1.0}, \"9\": {\"I\": 1.0}, \"10\": {\"Cs\": 1.0}, \"11\": {\"Sn\": 1.0}, \"12\": {\"I\": 1.0}, \"13\": {\"I\": 1.0}, \"14\": {\"I\": 1.0}, \"15\": {\"Cs\": 1.0}, \"16\": {\"Sn\": 1.0}, \"17\": {\"I\": 1.0}, \"18\": {\"I\": 1.0}, \"19\": {\"I\": 1.0}, \"20\": {\"Cs\": 1.0}, \"21\": {\"Sn\": 1.0}, \"22\": {\"I\": 1.0}, \"23\": {\"I\": 1.0}, \"24\": {\"I\": 1.0}, \"25\": {\"Cs\": 1.0}, \"26\": {\"Sn\": 1.0}, \"27\": {\"I\": 1.0}, \"28\": {\"I\": 1.0}, \"29\": {\"I\": 1.0}, \"30\": {\"Cs\": 1.0}, \"31\": {\"Ge\": 1.0}, \"32\": {\"I\": 1.0}, \"33\": {\"I\": 1.0}, \"34\": {\"I\": 1.0}, \"35\": {\"Cs\": 1.0}, \"36\": {\"Sn\": 1.0}, \"37\": {\"I\": 1.0}, \"38\": {\"I\": 1.0}, \"39\": {\"I\": 1.0}}" candidate_id=8906e6ecfc741a98 formula=MAGe0.18Sn0.82I3 config_index=2 rattle_stdev=0.08 method=PBE fidelity=phase2_force energy=-111.83040418190099 stress="-0.0008795419562617341 6.856959252630863e-05 7.404316573455243e-06 6.856959252630863e-05 -0.0010081710670449692 -3.130785017931847e-05 7.404316573455243e-06 -3.130785017931847e-05 -0.0004589392229508315" pbc="T T T"
Cs      12.44286950      12.36576142       0.18834540        0       0.02229099      -0.00066287      -0.06607045
Sn       3.00779878       3.09825178       3.02356573        1       0.61269218       0.25615011       0.08693088
I        3.15442677       3.05410566      12.46762016        2      -0.04996383       0.05128245       0.02579550
I        3.14809026      12.59090840       2.99883783        3      -0.01052566      -0.55825314       0.05185364
I       12.64315774       3.16387439       3.11390053        4      -0.83761527       0.01671511      -0.02635077
Cs      12.41963688      12.37399356       6.16577430        5      -0.01274866      -0.01043324       0.05530939
Sn       3.06692373       3.22206891       9.31089634        6       0.35295183      -0.02798967      -0.04819091
I        3.07727539       3.11974794       6.25689285        7       0.02625783      -0.08627184      -0.06631612
I        3.02970136      -0.12208783       9.44605283        8       0.01116786       0.36812641      -0.00922035
I        0.03482522       3.06869593       9.18997059        9      -0.16631691       0.02442852       0.05170041
Cs      12.38890722       6.21197680       0.05300789       10       0.02168951       0.02070967      -0.01485379
Sn       3.08202191       9.43549193       3.10829227       11       0.19429048      -0.18897993       0.05227571
I        3.08590876       9.29025137      -0.03762441       12       0.01657529      -0.04276360       0.36860583
I        3.18754866       6.17730942       3.30116027       13      -0.03335520       0.45053873      -0.07642175
I       12.28074903       9.35394455       3.14174470       14       0.49189645      -0.03867735       0.01412678
Cs      12.42369572       6.30112818       6.21170381       15      -0.00519409       0.00936855       0.01253808
Sn       3.10859495       9.48082705       9.40068626       16      -0.08490314      -0.28813340      -0.10752973
I        3.16896900       9.32544953       6.30474713       17      -0.02306732       0.06740302      -0.31902961
I        3.23085766       6.18850069       9.33421188       18      -0.03287497      -0.02249316       0.03359793
I       12.58098858       9.16544375       9.38642659       19      -0.08494802       0.01897638      -0.01068709
Cs       6.37737491      12.30720063       0.10623452       20      -0.02811091       0.04714997      -0.03081828
Sn       9.33306331       2.93681399       3.11572403       21      -0.24227079       0.14600345       0.15787748
I        9.25284933       3.16345974      -0.04165994       22       0.07993919       0.03064247       0.14544059
I        9.45767294      12.32322249       3.11835016       23      -0.00866046       0.35585659      -0.00890846
I        6.24273684       3.29226321       3.09711441       24       0.37285730      -0.13840550      -0.00384365
Cs       6.25202573      12.34831719       6.22029957       25       0.01936180       0.02149688       0.02185169
Sn       9.46317391       3.15648031       9.43431917       26      -0.34197029      -0.06667480      -0.21611176
I        9.26482214       3.17026613       6.22850958       27       0.05259691      -0.07473280      -0.11029885
I        9.42468746      12.41445790       9.52505142       28       0.02469387       0.40708281      -0.00486595
I        6.26425219       3.16435508       9.32294505       29       0.07782834      -0.06215412       0.00527849
Cs       6.21402740       6.23175332       0.06188546       30      -0.01617047      -0.03011687       0.00449664
Ge       9.41595970       9.28707254       2.94692907       31      -0.26064349      -0.23445132       0.27171942
I        9.42482676       9.34728548       0.09085673       32      -0.00454254      -0.04958511       0.01660075
I        9.18999860       6.34441325       3.20078255       33       0.11754498      -0.01608251      -0.08871249
I        6.38975581       9.53802654       3.12935428       34      -0.43396472      -0.01476172      -0.05258958
Cs       6.29448553       6.25797383       6.23305025       35      -0.00156112      -0.01562632      -0.00289576
Sn       9.30802306       9.36494774       9.40872940       36       0.18656816       0.08484051      -0.40848244
I        9.27106205       9.38169888       6.21223198       37       0.07069329       0.05738226       0.16204712
I        9.36052417       6.34641477       9.25529127       38       0.04881442      -0.50754809       0.05904851
I        6.32059250       9.30160118       9.32915469       39      -0.12627119       0.04378523       0.07418318
