40
Lattice="12.768686418317857 0.0 0.0 0.0 12.768686418317872 0.0 0.0 6.882708689558317e-14 12.768686418317797" Properties=species:S:1:pos:R:3:spacegroup_kinds:I:1:forces:R:3 spacegroup="P 1" unit_cell=conventional candidate_id=99b44f4bdf43cf56 formula=FAPb0.9Sn0.099I3 config_index=0 rattle_stdev=0.0 method=PBE fidelity=phase2_force energy=-113.07815052013844 stress="0.0003619995935194644 -2.4717292102339632e-11 2.471729210233991e-11 -2.4717292102339632e-11 0.0003619995935194631 2.4717290151052307e-11 2.471729210233991e-11 2.4717290151052307e-11 0.00036199959351946735" pbc="T T T"
Cs      12.76743541      12.76743541       0.00125101        0      -0.00624046      -0.00624046       0.00624046
Pb       3.19217160       3.19217160       3.19217160        1       0.00032485       0.00032485       0.00035376
I        3.19217160       3.19217160       0.00204294        2      -0.00000058      -0.00000058      -0.00582296
I        3.19217160      12.75944624       3.19217160        3      -0.00000040       0.03399860      -0.00000040
I       12.75944624       3.19217160       3.19217160        4       0.03399860      -0.00000040      -0.00000040
Cs      12.76743541      12.76743541       6.38309220        5      -0.00623922      -0.00623922      -0.00623938
Pb       3.19217160       3.19217160       9.57651481        6       0.00034418       0.00034418      -0.00034418
I        3.19217160       3.19217160       6.38230027        7       0.00000109       0.00000109       0.00582598
I        3.19217160      12.76664347       9.57651481        8      -0.00000058       0.00582296       0.00000058
I       12.76664347       3.19217160       9.57651481        9       0.00582296      -0.00000058       0.00000058
Cs      12.76743541       6.38559422       0.00125101       10      -0.00623922       0.00623938       0.00623922
Pb       3.19217160       9.57651481       3.19217160       11       0.00012673      -0.00037221       0.00037221
I        3.19217160       9.57651481       0.00924018       12      -0.00000040       0.00000040      -0.03399860
I        3.19217160       6.39358339       3.19217160       13       0.00000051      -0.03401459       0.00000121
I       12.68588806       9.57651481       3.19217160       14       0.25898989       0.00000102      -0.00000102
Cs      12.76743541       6.38559422       6.38309220       15      -0.00623732       0.00623840      -0.00623840
Pb       3.19217160       9.57651481       9.57651481       16       0.00032485      -0.00035376      -0.00032485
I        3.19217160       9.57651481       6.37510303       17       0.00000051      -0.00000121       0.03401459
I        3.19217160       6.38638615       9.57651481       18       0.00000109      -0.00582598      -0.00000109
I       12.75944624       9.57651481       9.57651481       19       0.03399860       0.00000040       0.00000040
Cs       6.38559422      12.76743541       0.00125101       20       0.00623938      -0.00623922       0.00623922
Pb       9.57651481       3.19217160       3.19217160       21      -0.00037221       0.00012673       0.00037221
I        9.57651481       3.19217160       0.00924018       22       0.00000040      -0.00000040      -0.03399860
I        9.57651481      12.68588806       3.19217160       23       0.00000102       0.25898989      -0.00000102
I        6.39358339       3.19217160       3.19217160       24      -0.03401459       0.00000051       0.00000121
Cs       6.38559422      12.76743541       6.38309220       25       0.00623840      -0.00623732      -0.00623840
Pb       9.57651481       3.19217160       9.57651481       26      -0.00035376       0.00032485      -0.00032485
I        9.57651481       3.19217160       6.37510303       27      -0.00000121       0.00000051       0.03401459
I        9.57651481      12.75944624       9.57651481       28       0.00000040       0.03399860       0.00000040
I        6.38638615       3.19217160       9.57651481       29      -0.00582598       0.00000109      -0.00000109
Cs       6.38559422       6.38559422       0.00125101       30       0.00623840       0.00623840       0.00623732
Sn       9.57651481       9.57651481       3.19217160       31      -0.00017462      -0.00017462       0.00017462
I        9.57651481       9.57651481       0.08279835       32       0.00000102       0.00000102      -0.25898989
I        9.57651481       6.46714156       3.19217160       33      -0.00000033      -0.25908667       0.00000033
I        6.46714156       9.57651481       3.19217160       34      -0.25908667      -0.00000033       0.00000033
Cs       6.38559422       6.38559422       6.38309220       35       0.00623627       0.00623627      -0.00623627
Pb       9.57651481       9.57651481       9.57651481       36      -0.00037221      -0.00037221      -0.00012673
I        9.57651481       9.57651481       6.30154485       37      -0.00000033      -0.00000033       0.25908667
I        9.57651481       6.39358339       9.57651481       38      -0.00000121      -0.03401459      -0.00000051
I        6.39358339       9.57651481       9.57651481       39      -0.03401459      -0.00000121      -0.00000051
40
Lattice="12.768686418317857 0.0 0.0 0.0 12.768686418317872 0.0 0.0 6.882708689558317e-14 12.768686418317797" Properties=species:S:1:pos:R:3:spacegroup_kinds:I:1:forces:R:3 spacegroup="P 1" unit_cell=conventional candidate_id=99b44f4bdf43cf56 formula=FAPb0.9Sn0.099I3 config_index=1 rattle_stdev=0.08 method=PBE fidelity=phase2_force energy=-112.66963587742094 stress="-0.0010858308832037036 2.997965778893607e-05 -3.441541843207201e-06 2.997965778893607e-05 -0.0004589225808677042 -5.3859014571332754e-05 -3.441541843207201e-06 -5.3859014571332754e-05 -0.0016440918734089748" pbc="T T T"
Cs      12.68051970      12.69575020      -0.02325294        0      -0.03481844       0.01819569       0.04229795
Pb       3.08497691       3.09564476       3.14083346        1       0.24526256       0.25176485       0.22622374
I        3.29680726       3.33980844       0.06837214        2      -0.05174413      -0.02954654      -0.07113803
I        3.19030770      12.74276112       3.11884202        3       0.02006931       0.05590273      -0.00379572
I       12.67346683       3.18528013       3.28623869        4       0.52732834      -0.00647310       0.01719461
Cs      12.63662807      12.86569093       6.46920310        5       0.02092331       0.02228502      -0.04946488
Pb       3.22375343       3.16115554       9.62358695        6       0.07293142       0.03957123      -0.11139155
I        3.07750770       3.16628563       6.48253904        7       0.03307457       0.02192574      -0.19216694
I        3.13371220      12.88092228       9.65208713        8      -0.01739623      -0.48256580       0.01638124
I       12.74552325       3.17911454       9.49938623        9       0.11158819       0.00826862       0.02447102
Cs      12.74002362       6.38950654      -0.03871955       10      -0.01136432      -0.01904276       0.03044867
Pb       3.01521924       9.60130176       3.06499950       11       0.39789943      -0.25398691      -0.03769949
I        3.25052797       9.56788271      -0.04277354       12      -0.02607424       0.01843766      -0.06956917
I        3.05672708       6.36410547       3.06494187       13       0.00843388      -0.00406540       0.05896808
I       12.80432853       9.61447003       3.26528071       14      -0.31712963       0.00790914       0.02410707
Cs      12.84427303       6.39235762       6.52047068       15       0.00808321      -0.02524905      -0.02796717
Pb       3.26032302       9.51612399       9.39350447       16       0.21155024       0.08615358       0.27561532
I        3.20091070       9.54050216       6.34206523       17       0.00791229      -0.01390522      -0.08147073
I        3.21769031       6.34309752       9.65240813       18      -0.02308920       0.33807730      -0.03747194
I       12.77156104       9.58266701       9.57176278       19       0.37474357       0.00902353       0.02522084
Cs       6.37998312      12.72214349       0.02613144       20       0.02440015       0.01427384       0.03083583
Pb       9.63445152       3.23348761       3.27425406       21      -0.41349293      -0.18904945      -0.45749444
I        9.61812702       3.12258452       0.12928539       22       0.03888458       0.01736574      -0.42683142
I        9.66983259      12.72524122       3.13359063       23      -0.00709737       0.11986021       0.09371413
I        6.44800788       3.23289135       3.12516871       24      -0.34763989      -0.00642511       0.04948815
Cs       6.43740581      12.76843857       6.50785933       25      -0.00857940      -0.00341544      -0.02796859
Pb       9.65928244       3.21918702       9.47230598       26      -0.17967553       0.24113201       0.31152894
I        9.48703127       3.29693281       6.33364567       27      -0.02528788      -0.02532050       0.44758278
I        9.54506487      12.84288372       9.58249203       28       0.01892302      -0.12531958      -0.01788164
I        6.39354112       3.19648419       9.60999057       29      -0.00863093      -0.00265022      -0.00841229
Cs       6.28737581       6.29843089       0.02662096       30       0.01288347      -0.01244886       0.03488253
Sn       9.51408237       9.50802433       3.08658189       31      -0.10947872       0.24162675       0.25937017
I        9.61281735       9.65665680       0.19589713       32       0.00883455      -0.00209658      -0.50453499
I        9.56130018       6.46955041       3.04229827       33       0.02933783      -0.18114996       0.01225438
I        6.45779941       9.56631559       3.26434635       34      -0.00152269      -0.00004770      -0.00856026
Cs       6.28044444       6.37763016       6.39433619       35       0.00979166      -0.00439930      -0.01966545
Pb       9.78681929       9.71697712       9.36566299       36      -0.56424304      -0.27831056       0.43454124
I        9.47358325       9.56277704       6.44558115       37       0.05070282       0.03891037      -0.33578476
I        9.62521046       6.39610543       9.45920184       38       0.01464070       0.11357678       0.05282193
I        6.41833865       9.66789224       9.53564728       39      -0.10217667       0.00080693       0.02222558
40
Lattice="12.768686418317857 0.0 0.0 0.0 12.768686418317872 0.0 0.0 6.882708689558317e-14 12.768686418317797" Properties=species:S:1:pos:R:3:spacegroup_kinds:I:1:forces:R:3 spacegroup="P 1" unit_cell=conventional candidate_id=99b44f4bdf43cf56 formula=FAPb0.9Sn0.099I3 config_index=2 rattle_stdev=0.08 method=PBE fidelity=phase2_force energy=-112.58532655431472 stress="-0.0008634150465797789 2.1067670196156106e-05 5.795780196098376e-06 2.1067670196156106e-05 -0.0009748361715088308 -5.780685006510855e-05 5.795780196098376e-06 -5.780685006510855e-05 -0.00032507110401078557" pbc="T T T"
Cs      12.75841837      12.68131029       0.14405316        0       0.01317394      -0.01736692      -0.04415806
Pb       3.07561294       3.16606594       3.09137989        1       0.64471798       0.25001099       0.12890665
I        3.22224092       3.12191982      -0.02595512        2      -0.03240727       0.03332123      -0.05267799
I        3.21590442      12.85551919       3.06665199        3      -0.00871535      -0.52535616       0.02931223
I       12.90776854       3.23168855       3.18171469        4      -0.87017033       0.01933612      -0.02032794
Cs      12.73518575      12.68954243       6.34569486        5      -0.02410236      -0.02017908       0.04277487
Pb       3.13473789       3.28988307       9.51433881        6       0.34923576      -0.10900218      -0.00447259
I        3.14508955       3.18756210       6.38866666        7       0.01881638      -0.07910479      -0.08175534
I        3.09751552      12.64274408       9.64949531        8       0.00134903       0.51520041       0.00099315
I       12.79965713       3.13651008       9.39341306        9      -0.15571545       0.00962525       0.02730587
Cs      12.70445609       6.30331288       0.00871566       10       0.01661693       0.02977088      -0.01786115
Pb       3.14983607       9.63893440       3.17610643       11       0.18498502      -0.19416144       0.06140037
I        3.15372292       9.49369384      -0.03097857       12       0.01001899      -0.04375663       0.33341118
I        3.25536282       6.31958358       3.36897443       13      -0.01999530       0.42259588      -0.05043095
I       12.57386917       9.55738702       3.20955886       14       0.77795475      -0.01013809       0.02873916
Cs      12.73924459       6.39246426       6.39162436       15      -0.00924201       0.02078665       0.01341573
Pb       3.17640911       9.68426952       9.60412873       16      -0.02446464      -0.39200371      -0.10293611
I        3.23678316       9.52889200       6.43372960       17      -0.01571609       0.05346962      -0.29813152
I        3.29867182       6.32798352       9.53765435       18      -0.01451886       0.05758950       0.03108835
I       12.84559938       9.36888622       9.58986907       19      -0.10667402      -0.01003876      -0.00451744
Cs       6.46871099      12.62274950       0.06194228       20      -0.01487017       0.02422178      -0.01237139
Pb       9.53650579       3.00462815       3.18353819       21      -0.16593159       0.18036380       0.12712406
I        9.45629180       3.23127390      -0.03501410       22       0.06190529       0.03272382       0.13050543
I        9.66111542      12.61634264       3.18616432       23       0.01542870       0.43396612      -0.01066204
I        6.38501099       3.36007737       3.16492857       24       0.27058666      -0.09757084      -0.01139462
Cs       6.34336181      12.66386606       6.40022012       25       0.02897159      -0.00838173       0.01131685
Pb       9.66661638       3.22429447       9.63776164       26      -0.32194340      -0.05761298      -0.22218871
I        9.46826462       3.23808028       6.35749206       27       0.04527465      -0.05465263      -0.03747577
I        9.62812993      12.67906869       9.72849390       28       0.03140726       0.46113559       0.01532279
I        6.40373502       3.23216924       9.52638753       29       0.05587499      -0.05228311       0.00444929
Cs       6.30536348       6.32308940       0.01759323       30      -0.01333159      -0.03704925       0.01084406
Sn       9.61940217       9.49051502       3.01474322       31      -0.40644255      -0.18578796       0.54779586
I        9.62826923       9.55072795       0.06899322       32       0.00923855      -0.02568968      -0.28965392
I        9.39344107       6.45817806       3.26859671       33       0.07708785      -0.25658004      -0.05481812
I        6.50352062       9.74146901       3.19716844       34      -0.54448211       0.03052545      -0.04403710
Cs       6.38582161       6.34930991       6.41297080       35       0.01519039      -0.00873428      -0.01284354
Pb       9.51146553       9.56839021       9.61217187       36       0.26016831       0.08975091      -0.37965245
I        9.47450452       9.58514136       6.36972381       37       0.05656659       0.05721861       0.10635723
I        9.56396665       6.48868893       9.45873374       38       0.04934429      -0.56562988       0.04103872
I        6.46286666       9.50504365       9.53259716       39      -0.24697819       0.03060083       0.06192754
40
Lattice="12.768686418317857 0.0 0.0 0.0 12.768686418317872 0.0 0.0 6.882708689558317e-14 12.768686418317797" Properties=species:S:1:pos:R:3:spacegroup_kinds:I:1:forces:R:3 spacegroup="P 1" unit_cell=conventional candidate_id=99b44f4bdf43cf56 formula=FAPb0.9Sn0.099I3 config_index=3 rattle_stdev=0.08 method=PBE fidelity=phase2_force energy=-112.39558335739987 stress="-0.0012412220990081178 8.721892667427481e-05 2.0535893069617254e-05 8.721892667427481e-05 -0.0007942592345325421 4.52376372549083e-05 2.0535893069617254e-05 4.52376372549083e-05 -0.0003022814210606731" pbc="T T T"
Cs      12.66175193      12.92877564       0.00505617        0       0.00790313       0.04366545       0.03013236
Pb       3.17315791       3.19890142       3.26893499        1      -0.25354772      -0.24266273      -0.61236213
I        3.13764373       3.23449724      -0.05995051        2       0.02594742      -0.00437067      -0.07893440
I        3.30456810      12.74147180       3.08770075        3       0.02302410      -0.14376659       0.00281791
I       12.70516342       3.06249694       3.08977372        4       0.14708122       0.04407825       0.03020168
Cs      12.74949167      12.69939053       6.32263299        5      -0.03895602       0.01206572      -0.02510207
Pb       3.21322527       2.98775616       9.44289214        6      -0.01644927       0.42850164       0.41519002
I        3.13523279       2.99642956       6.28016548        7      -0.03313632      -0.02362458       0.37105269
I        3.24526141      12.66433676       9.51328204        8      -0.02370034       0.44343851       0.01312847
I       12.64645381       3.09700841       9.75785003        9       0.43755403       0.02227911      -0.01758137
Cs      12.72929318       6.45732734      -0.14314405       10       0.00441544      -0.05325370      -0.00872504
Pb       3.15287443       9.48055509       3.12775398       11      -0.04863770       0.26977362       0.01997338
I        3.30463709       9.55808956      -0.04785554       12      -0.02890155      -0.04498993       0.41617779
I        3.17916460       6.33927300       3.31330102       13      -0.01766353       0.17087902       0.01729944
I       12.54608224       9.62919718       3.16464230       14       1.26294498      -0.08006557       0.01404410
Cs      12.70673956       6.39935632       6.33050892       15      -0.03997011       0.00040586      -0.00216344
Pb       3.23638724       9.60712347       9.54681158       16      -0.15489322      -0.53801249       0.05452002
I        3.31842312       9.59385861       6.47203036       17      -0.00529385       0.01190753      -0.51571014
I        3.25069005       6.44030584       9.53009032       18      -0.02012008      -0.30285747      -0.03474642
I       12.75149907       9.44972562       9.57053750       19      -0.08993048       0.00708565       0.01199853
Cs       6.48149893      12.74620159      -0.05089296       20      -0.01382062       0.01403964       0.01163156
Pb       9.42479189       3.06894769       3.16074575       21       0.35522554       0.18814323       0.02583517
I        9.54335635       3.24905703       0.06064221       22      -0.05281356      -0.02190735      -0.18583065
I        9.76830172      12.67230548       3.11110091       23      -0.10103939       0.08426953       0.01315989
I        6.35809889       3.25984978       3.23172033       24      -0.16489012      -0.01675275       0.02273534
Cs       6.40788528      12.80920269       6.40850154       25       0.02160725      -0.02347408      -0.00264091
Pb       9.59468572       3.16094436       9.51907341       26      -0.13433111      -0.02186048       0.02173950
I        9.70004371       3.12313600       6.34639682       27      -0.00115394       0.00372027       0.12040699
I        9.58321896      12.89378400       9.48216784       28      -0.02934053      -0.83140481       0.05879036
I        6.35448798       3.15830046       9.62126176       29      -0.19255198      -0.03550092      -0.04639282
Cs       6.33941464       6.39129401       0.07062742       30       0.00475739      -0.02447680      -0.02476274
Sn       9.60970753       9.55841603       3.25261905       31      -0.12363936      -0.21181287       0.17653565
I        9.59452520       9.54133457       0.13512470       32       0.02379143      -0.01707693      -0.29257267
I        9.50482495       6.35318567       3.33157034       33       0.06328008      -0.01878290      -0.00123077
I        6.70068761       9.52261679       3.13048966       34      -1.13750789       0.02957481      -0.00067537
Cs       6.47003360       6.47725126       6.39274205       35       0.02659762       0.02037507       0.01086857
Pb       9.57751429       9.52055310       9.72661874       36       0.04403890       0.00328394      -0.16216778
I        9.54046214       9.55201607       6.41456420       37       0.00803860       0.00970787       0.13179536
I        9.52422753       6.21225806       9.62494297       38      -0.00898988       0.82032154       0.00484610
I        6.35163795       9.59311400       9.66422698       39       0.25198075       0.01259347       0.01429973
