Rb Pb I  Rb Pb I  Rb Pb I  Rb Ge I  Rb Ge I  Rb Pb I  Rb Ge I  Rb Pb I 
 1.0000000000000000
    12.8107949761129181    0.0000000000000000    0.0000000000000000
     0.0000000000000000   12.8107949761129181    0.0000000000000000
     0.0000000000000000    0.0000000000000000   12.8107949761129181
 Rb  Pb  I   Rb  Pb  I   Rb  Pb  I   Rb  Ge  I   Rb  Ge  I   Rb  Pb  I   Rb  Ge  I   Rb  Pb  I  
   1   1   3   1   1   3   1   1   3   1   1   3   1   1   3   1   1   3   1   1   3   1   1   3
Cartesian
  0.0000000000000000  0.0000000000000000  0.0000000000000000
  3.2026987440282295  3.2026987440282295  3.2026987440282295
  3.2026987440282295  3.2026987440282295  0.0000000000000000
  3.2026987440282295  0.0000000000000000  3.2026987440282295
  0.0000000000000000  3.2026987440282295  3.2026987440282295
  0.0000000000000000  0.0000000000000000  6.4053974880564581
  3.2026987440282295  3.2026987440282295  9.6080962320846890
  3.2026987440282295  3.2026987440282295  6.4053974880564581
  3.2026987440282295  0.0000000000000000  9.6080962320846890
  0.0000000000000000  3.2026987440282295  9.6080962320846890
  0.0000000000000000  6.4053974880564581  0.0000000000000000
  3.2026987440282295  9.6080962320846890  3.2026987440282295
  3.2026987440282295  9.6080962320846890  0.0000000000000000
  3.2026987440282295  6.4053974880564581  3.2026987440282295
  0.0000000000000000  9.6080962320846890  3.2026987440282295
  0.0000000000000000  6.4053974880564581  6.4053974880564581
  3.2026987440282295  9.6080962320846890  9.6080962320846890
  3.2026987440282295  9.6080962320846890  6.4053974880564581
  3.2026987440282295  6.4053974880564581  9.6080962320846890
  0.0000000000000000  9.6080962320846890  9.6080962320846890
  6.4053974880564581  0.0000000000000000  0.0000000000000000
  9.6080962320846890  3.2026987440282295  3.2026987440282295
  9.6080962320846890  3.2026987440282295  0.0000000000000000
  9.6080962320846890  0.0000000000000000  3.2026987440282295
  6.4053974880564581  3.2026987440282295  3.2026987440282295
  6.4053974880564581  0.0000000000000000  6.4053974880564581
  9.6080962320846890  3.2026987440282295  9.6080962320846890
  9.6080962320846890  3.2026987440282295  6.4053974880564581
  9.6080962320846890  0.0000000000000000  9.6080962320846890
  6.4053974880564581  3.2026987440282295  9.6080962320846890
  6.4053974880564581  6.4053974880564581  0.0000000000000000
  9.6080962320846890  9.6080962320846890  3.2026987440282295
  9.6080962320846890  9.6080962320846890  0.0000000000000000
  9.6080962320846890  6.4053974880564581  3.2026987440282295
  6.4053974880564581  9.6080962320846890  3.2026987440282295
  6.4053974880564581  6.4053974880564581  6.4053974880564581
  9.6080962320846890  9.6080962320846890  9.6080962320846890
  9.6080962320846890  9.6080962320846890  6.4053974880564581
  9.6080962320846890  6.4053974880564581  9.6080962320846890
  6.4053974880564581  9.6080962320846890  9.6080962320846890
