40
Lattice="12.500109124290068 0.0 0.0 0.0 12.500109124290068 0.0 0.0 -3.8092734156916436e-14 12.500109124290205" Properties=species:S:1:pos:R:3:spacegroup_kinds:I:1:forces:R:3 spacegroup="P 1" unit_cell=conventional candidate_id=4e18b396be52eead formula=FAGe0.096Sn0.9I3 config_index=0 rattle_stdev=0.0 method=PBE fidelity=phase2_force energy=-112.26248263042213 stress="0.0004623796426591653 -8.221886387856994e-12 8.221886387856877e-12 -8.221886387856994e-12 0.00046237964265916515 8.221887796908987e-12 8.221886387856877e-12 8.221887796908987e-12 0.0004623796426591546" pbc="T T T"
Cs      12.45501442      12.45501442       0.04509470        0       0.00112521       0.00112521      -0.00112521
Sn       3.12502728       3.12502728       3.12502728        1       0.00021603       0.00021603       0.00021508
I        3.12502728       3.12502728      12.49956367        2      -0.00000347      -0.00000347       0.01751837
I        3.12502728      12.49418183       3.12502728        3      -0.00000422       0.00935122      -0.00000367
I       12.49418183       3.12502728       3.12502728        4       0.00935122      -0.00000422      -0.00000367
Cs      12.45501442      12.45501442       6.20495986        5       0.00112638       0.00112638       0.00112932
Sn       3.12502728       3.12502728       9.37508184        6       0.00022004       0.00022004      -0.00022004
I        3.12502728       3.12502728       6.25060001        7      -0.00000044      -0.00000044      -0.01751800
I        3.12502728       0.00054545       9.37508184        8      -0.00000347      -0.01751837       0.00000347
I        0.00054545       3.12502728       9.37508184        9      -0.01751837      -0.00000347       0.00000347
Cs      12.45501442       6.29514926       0.04509470       10       0.00112638      -0.00112932      -0.00112638
Sn       3.12502728       9.37508184       3.12502728       11       0.00015417      -0.00021705       0.00021705
I        3.12502728       9.37508184       0.00592730       12      -0.00000422       0.00000367      -0.00935122
I        3.12502728       6.25598186       3.12502728       13      -0.00000334      -0.00935198      -0.00000072
I       12.39675365       9.37508184       3.12502728       14       0.10684424       0.00000344      -0.00000344
Cs      12.45501442       6.29514926       6.20495986       15       0.00113179      -0.00113082       0.00113082
Sn       3.12502728       9.37508184       9.37508184       16       0.00021603      -0.00021508      -0.00021603
I        3.12502728       9.37508184       6.24412726       17      -0.00000334       0.00000072       0.00935198
I        3.12502728       6.24950911       9.37508184       18      -0.00000044       0.01751800       0.00000044
I       12.49418183       9.37508184       9.37508184       19       0.00935122       0.00000367       0.00000422
Cs       6.29514926      12.45501442       0.04509470       20      -0.00112932       0.00112638      -0.00112638
Sn       9.37508184       3.12502728       3.12502728       21      -0.00021705       0.00015417       0.00021705
I        9.37508184       3.12502728       0.00592730       22       0.00000367      -0.00000422      -0.00935122
I        9.37508184      12.39675365       3.12502728       23       0.00000344       0.10684424      -0.00000344
I        6.25598186       3.12502728       3.12502728       24      -0.00935198      -0.00000334      -0.00000072
Cs       6.29514926      12.45501442       6.20495986       25      -0.00113082       0.00113179       0.00113082
Sn       9.37508184       3.12502728       9.37508184       26      -0.00021508       0.00021603      -0.00021603
I        9.37508184       3.12502728       6.24412726       27       0.00000072      -0.00000334       0.00935198
I        9.37508184      12.49418183       9.37508184       28       0.00000367       0.00935122       0.00000422
I        6.24950911       3.12502728       9.37508184       29       0.01751800      -0.00000044       0.00000044
Cs       6.29514926       6.29514926       0.04509470       30      -0.00113082      -0.00113082      -0.00113179
Ge       9.37508184       9.37508184       3.12502728       31       0.00000896       0.00000896      -0.00000896
I        9.37508184       9.37508184       0.10335548       32       0.00000344       0.00000344      -0.10684424
I        9.37508184       6.35341004       3.12502728       33       0.00000157      -0.10680369      -0.00000157
I        6.35341004       9.37508184       3.12502728       34      -0.10680369       0.00000157      -0.00000157
Cs       6.29514926       6.29514926       6.20495986       35      -0.00113602      -0.00113602       0.00113602
Sn       9.37508184       9.37508184       9.37508184       36      -0.00021705      -0.00021705      -0.00015417
I        9.37508184       9.37508184       6.14669909       37       0.00000157       0.00000157       0.10680369
I        9.37508184       6.25598186       9.37508184       38       0.00000072      -0.00935198       0.00000334
I        6.25598186       9.37508184       9.37508184       39      -0.00935198       0.00000072       0.00000334
40
Lattice="12.500109124290068 0.0 0.0 0.0 12.500109124290068 0.0 0.0 -3.8092734156916436e-14 12.500109124290205" Properties=species:S:1:pos:R:3:spacegroup_kinds:I:1:forces:R:3 spacegroup="P 1" unit_cell=conventional candidate_id=4e18b396be52eead formula=FAGe0.096Sn0.9I3 config_index=1 rattle_stdev=0.08 method=PBE fidelity=phase2_force energy=-111.93000574977209 stress="-0.0011127282705149521 4.2352370762151887e-05 -7.26400412554993e-06 4.2352370762151887e-05 -0.0005981703878937073 -6.181692809077301e-05 -7.26400412554993e-06 -6.181692809077301e-05 -0.0014487796307137224" pbc="T T T"
Cs      12.36809871      12.38332921       0.02059075        0      -0.00596781       0.04102476       0.02860499
Sn       3.01783259       3.02850043       3.07368914        1       0.25912784       0.26256214       0.17336624
I        3.22966293       3.27266412      12.56589287        2      -0.07852279      -0.06321263       0.00347742
I        3.12316338      12.47749671       3.05169770        3       0.00894743       0.03329110       0.00017018
I       12.40820242       3.11813580       3.21909436        4       0.48058046      -0.00584490       0.00322729
Cs      12.32420709      12.55326994       6.29107076        5       0.04253668       0.02569883      -0.04282193
Sn       3.15660911       3.09401122       9.42215398        6       0.09940092      -0.00780278      -0.17215961
I        3.01036338       3.09914131       6.35083879        7       0.05321345       0.02001727      -0.16242502
I        3.06656787       0.11482426       9.45065415        8      -0.00934012      -0.44588543       0.01201659
I       -0.02057477       3.11197022       9.29795326        9       0.03816817       0.01259565       0.03679230
Cs      12.42760264       6.29906159       0.00512414       10      -0.00421384      -0.02967219       0.01545285
Sn       2.94807492       9.39986879       2.99785518       11       0.29788473      -0.26472556      -0.08303787
I        3.18338365       9.36644974      -0.04608642       12      -0.04743738       0.02428899       0.03441901
I        2.98958276       6.22650394       2.99779754       13       0.00746929       0.03904494       0.07822681
I       12.51519412       9.41303706       3.19813639       14      -0.27687506       0.00116842       0.01263297
Cs      12.53185204       6.30191267       6.34233834       15       0.01795462      -0.03740436      -0.02923208
Sn       3.19317870       9.31469102       9.19207150       16       0.26049733       0.04559801       0.23998431
I        3.13376638       9.33906919       6.21108947       17       0.00908175      -0.00728384      -0.05269414
I        3.15054598       6.20622048       9.45097516       18      -0.02007278       0.40680860      -0.05879315
I       12.50629663       9.38123404       9.37032981       19       0.27465880       0.02121106       0.00095253
Cs       6.28953817      12.40972250       0.06997513       20       0.01434837       0.02629880       0.02124796
Sn       9.43301855       3.16634328       3.20710974       21      -0.41209347      -0.20053228      -0.50446338
I        9.41669405       3.05544020       0.12597251       22       0.04275566       0.02837703      -0.36112861
I        9.46839962      12.43610681       3.06644630       23      -0.02549134       0.05807687       0.13244221
I        6.31040635       3.16574703       3.05802438       24      -0.30649634      -0.01708525       0.06688596
Cs       6.34696085      12.45601758       6.32972699       25      -0.03334721       0.01627899      -0.03541658
Sn       9.45784947       3.15204269       9.27087301       26      -0.13211833       0.26086224       0.29350599
I        9.28559830       3.22978849       6.20266991       27      -0.01359175      -0.03527365       0.43161357
I        9.34363190      12.57761931       9.38105906       28       0.03567271      -0.17048080      -0.03436591
I        6.25666408       3.12933987       9.40855760       29      -0.03385487      -0.00404956      -0.01293116
Cs       6.19693086       6.20798594       0.07046465       30       0.01641926      -0.00606126       0.01398917
Ge       9.31264940       9.30659136       3.01943757       31      -0.28077062       0.12668297      -0.14689341
I        9.41138438       9.45522383       0.21645425       32      -0.01192849      -0.04529260      -0.07161391
I        9.35986721       6.35581888       2.97515394       33       0.03880855       0.04340348       0.05848853
I        6.34406788       9.36488262       3.19720202       34       0.26312722      -0.00011746      -0.02171139
Cs       6.18999949       6.28718520       6.21620385       35      -0.00571305      -0.01861295      -0.01109108
Sn       9.58538632       9.51554415       9.16423002       36      -0.53191022      -0.28815531       0.31725077
I        9.27215028       9.36134407       6.29073538       37       0.10153953       0.05139443      -0.25896421
I        9.42377749       6.25850390       9.25776887       38       0.01005325       0.11833186       0.06215797
I        6.28073712       9.46645927       9.33421431       39      -0.14022806      -0.01776313       0.02184830
40
Lattice="12.500109124290068 0.0 0.0 0.0 12.500109124290068 0.0 0.0 -3.8092734156916436e-14 12.500109124290205" Properties=species:S:1:pos:R:3:spacegroup_kinds:I:1:forces:R:3 spacegroup="P 1" unit_cell=conventional candidate_id=4e18b396be52eead formula=FAGe0.096Sn0.9I3 config_index=2 rattle_stdev=0.08 method=PBE fidelity=phase2_force energy=-111.84132295388797 stress="-0.0007883726832990554 6.951138562456936e-05 6.36210133734463e-06 6.951138562456936e-05 -0.0009408988219851184 -3.1893162005245056e-05 6.36210133734463e-06 -3.1893162005245056e-05 -0.000380732183105855" pbc="T T T"
Cs      12.44599738      12.36888931       0.18789686        0       0.02142928      -0.00148574      -0.06493821
Sn       3.00846862       3.09892162       3.02423556        1       0.59826464       0.25344370       0.08917166
I        3.15509660       3.05477549      12.47156561        2      -0.04973035       0.05100299       0.02019121
I        3.14876010      12.59025478       2.99950766        3      -0.01131952      -0.53564805       0.05145794
I       12.64250413       3.16454423       3.11457037        4      -0.80902492       0.01649507      -0.02704407
Cs      12.42276476      12.37712144       6.16756252        5      -0.01342063      -0.01117922       0.05426784
Sn       3.06759356       3.22273875       9.31290584        6       0.35101732      -0.02306786      -0.05017211
I        3.07794523       3.12041777       6.25696640        7       0.02599394      -0.08572081      -0.05911528
I        3.03037120      -0.12335395       9.44806234        8       0.01100229       0.37254982      -0.00909135
I        0.03355911       3.06936576       9.19198009        9      -0.15881592       0.02435922       0.05133569
Cs      12.39203510       6.21286793       0.05255935       10       0.02096820       0.02142990      -0.01412769
Sn       3.08269175       9.43750143       3.10896211       11       0.19400283      -0.19051851       0.05312879
I        3.08657859       9.29226087      -0.03429145       12       0.01634195      -0.04229695       0.34801343
I        3.18821850       6.18198205       3.30183011       13      -0.03330666       0.43255493      -0.07696568
I       12.28473475       9.35595405       3.14241454       14       0.48120583      -0.03829061       0.01367421
Cs      12.42682360       6.30201930       6.21349202       15      -0.00571144       0.01009877       0.01179835
Sn       3.10926478       9.48283655       9.40269576       16      -0.08972521      -0.29209038      -0.10648154
I        3.16963883       9.32745903       6.30275384       17      -0.02304094       0.06808891      -0.30043811
I        3.23152750       6.19110648       9.33622138       18      -0.03297265      -0.03130559       0.03340639
I       12.58033496       9.16745325       9.38843610       19      -0.06545075       0.02015075      -0.01053381
Cs       6.37826603      12.31032851       0.10578598       20      -0.02720263       0.04621455      -0.02980700
Sn       9.33507282       2.93748383       3.11639387       21      -0.23878193       0.14564964       0.15698456
I        9.25485883       3.16412957      -0.03832698       22       0.08061876       0.03059304       0.12366586
I        9.45968245      12.32720822       3.11901999       23      -0.00861650       0.34714800      -0.00915701
I        6.24740946       3.29293304       3.09778425       24       0.35576782      -0.13781656      -0.00409073
Cs       6.25291685      12.35144508       6.22208778       25       0.02001533       0.02051574       0.02093544
Sn       9.46518341       3.15715015       9.43632867       26      -0.34402946      -0.06553143      -0.21030480
I        9.26683165       3.17093596       6.22651629       27       0.05291239      -0.07405673      -0.09323599
I        9.42669696      12.41380428       9.52706093       28       0.02511857       0.42467376      -0.00461193
I        6.26685798       3.16502491       9.32495456       29       0.07341958      -0.06179140       0.00520757
Cs       6.21491853       6.23264444       0.06143692       30      -0.01545896      -0.02954553       0.00525641
Ge       9.41796920       9.28908205       2.94759890       31      -0.25775472      -0.23506867       0.26718481
I        9.42683626       9.34929498       0.08955034       32      -0.00444735      -0.04957736       0.02759796
I        9.19200810       6.34444653       3.20145239       33       0.11772981      -0.00753701      -0.08879149
I        6.38978909       9.54003604       3.13002412       34      -0.42622658      -0.01459826      -0.05265525
Cs       6.29537666       6.25886496       6.23483846       35      -0.00085927      -0.01494948      -0.00368696
Sn       9.31003256       9.36695724       9.41073890       36       0.19229929       0.08580138      -0.40788664
I        9.27307155       9.38370839       6.21487804       37       0.07063305       0.05764127       0.15619122
I        9.36253368       6.35108740       9.25730077       38       0.04897225      -0.52741975       0.05878354
I        6.32526513       9.30361068       9.33116419       39      -0.14679737       0.04416723       0.07398243
40
Lattice="12.500109124290068 0.0 0.0 0.0 12.500109124290068 0.0 0.0 -3.8092734156916436e-14 12.500109124290205" Properties=species:S:1:pos:R:3:spacegroup_kinds:I:1:forces:R:3 spacegroup="P 1" unit_cell=conventional candidate_id=4e18b396be52eead formula=FAGe0.096Sn0.9I3 config_index=3 rattle_stdev=0.08 method=PBE fidelity=phase2_force energy=-111.61967569709684 stress="-0.0010022517240856497 0.00014643792433802883 4.643747344919326e-05 0.00014643792433802883 -0.0009499766505905989 1.7677137842411907e-05 4.643747344919326e-05 1.7677137842411907e-05 -0.0003485004625166974" pbc="T T T"
Cs      12.34933094      12.61635465       0.04889986        0       0.04486566       0.02753465       0.00878868
Sn       3.10601359       3.13175709       3.20179066        1      -0.26945857      -0.28844991      -0.59449853
I        3.07049940       3.16735291      12.43757022        2       0.03190544      -0.01336052      -0.07971013
I        3.23742378      12.47620739       3.02055643        3       0.01686759      -0.14652937       0.00435571
I       12.43989901       2.99535262       3.02262940        4       0.14754523       0.05725120       0.04431996
Cs      12.43707069      12.38696954       6.14450065        5      -0.01996048       0.00991272      -0.01445929
Sn       3.14608094       2.92061184       9.24145917        6       0.04066418       0.42130706       0.46939053
I        3.06808847       2.92928523       6.14846523        7      -0.03147082      -0.00964949       0.30354819
I        3.17811709      -0.10176127       9.31184907        8      -0.03229965       0.44157701       0.02335734
I       -0.11964422       3.02986408       9.55641706        9       0.33275583       0.03283482      -0.04006505
Cs      12.41687220       6.36688238      -0.09930036       10       0.02453690      -0.07190498       0.00340011
Sn       3.08573011       9.27912212       3.06060965       11      -0.04090765       0.29715286       0.00294722
I        3.23749277       9.35665659      -0.05116842       12      -0.04166862      -0.04151312       0.46174064
I        3.11202028       6.20167147       3.24615670       13      -0.01595399       0.18460437       0.00659127
I       12.25694782       9.42776421       3.09749798       14       0.99482866      -0.10119972       0.03126555
Cs      12.39431857       6.30891137       6.15237658       15      -0.02442268      -0.00121346       0.01070241
Sn       3.16924292       9.40569050       9.34537861       16      -0.11951556      -0.58690810       0.01113138
I        3.25127880       9.39242564       6.34105460       17      -0.00845527       0.01416126      -0.48124743
I        3.18354573       6.30342880       9.32865735       18      -0.02032554      -0.23090139      -0.03631135
I       12.48623466       9.24829265       9.36910453       19      -0.12627652       0.02905603       0.00512780
Cs       6.39105397      12.43378061      -0.00704927       20      -0.03311236       0.01720417       0.01280159
Sn       9.22335892       3.00180336       3.09360142       21       0.37850172       0.18851553       0.01009693
I        9.34192338       3.18191270       0.05732933       22      -0.06338509      -0.03111015      -0.14217892
I        9.56686875      12.38317106       3.04395659       23      -0.15988237      -0.03444939       0.04565557
I        6.22049737       3.19270546       3.16457600       24      -0.12321630      -0.03370349       0.02172943
Cs       6.31744032      12.49678170       6.23036920       25       0.01378966      -0.03515147      -0.00611929
Sn       9.39325275       3.09380004       9.31764044       26      -0.07669031      -0.05849018       0.00754449
I        9.49861074       3.05599167       6.21542106       27      -0.01578154       0.00688880       0.14406731
I        9.38178599      12.62851959       9.28073487       28      -0.02943921      -0.82715944       0.06524896
I        6.21761094       3.09115614       9.41982879       29      -0.20589751      -0.03991919      -0.06061840
Cs       6.24896969       6.30084905       0.11447111       30      -0.00609954      -0.03186034      -0.03604855
Ge       9.40827456       9.35698306       3.18547473       31      -0.17117684      -0.14612819       0.12493046
I        9.39309223       9.33990160       0.15568182       32       0.02768213      -0.01626794      -0.19248930
I        9.30339198       6.23945415       3.26442601       33       0.08598316       0.06179351      -0.02736489
I        6.58695609       9.32118382       3.06334534       34      -0.83085929       0.05577571       0.03657928
Cs       6.37958865       6.38680630       6.21460971       35       0.00312648       0.01315334       0.02392108
Sn       9.37608132       9.31912013       9.52518577       36       0.07425698       0.00312619      -0.16543082
I        9.33902917       9.35058310       6.25971843       37       0.02009419       0.02552026       0.00361250
I        9.32279456       6.07465653       9.42351000       38      -0.00810584       0.84489673      -0.00592800
I        6.21403642       9.39168103       9.46279401       39       0.23539980       0.01007359      -0.00178298
