Cs Sn Br Cs Sn Br Cs Sn Br Cs Ge Br Cs Ge Br Cs Sn Br Cs Ge Br Cs Sn Br
 1.0000000000000000
    11.8885863120894211    0.0000000000000000    0.0000000000000000
     0.0000000000000000   11.8885863120894211    0.0000000000000000
     0.0000000000000000    0.0000000000000000   11.8885863120894211
 Cs  Sn  Br  Cs  Sn  Br  Cs  Sn  Br  Cs  Ge  Br  Cs  Ge  Br  Cs  Sn  Br  Cs  Ge  Br  Cs  Sn  Br 
   1   1   3   1   1   3   1   1   3   1   1   3   1   1   3   1   1   3   1   1   3   1   1   3
Cartesian
  0.0000000000000000  0.0000000000000000  0.0000000000000000
  2.9721465780223553  2.9721465780223553  2.9721465780223553
  2.9721465780223553  2.9721465780223553  0.0000000000000000
  2.9721465780223553  0.0000000000000000  2.9721465780223553
  0.0000000000000000  2.9721465780223553  2.9721465780223553
  0.0000000000000000  0.0000000000000000  5.9442931560447096
  2.9721465780223553  2.9721465780223553  8.9164397340670654
  2.9721465780223553  2.9721465780223553  5.9442931560447096
  2.9721465780223553  0.0000000000000000  8.9164397340670654
  0.0000000000000000  2.9721465780223553  8.9164397340670654
  0.0000000000000000  5.9442931560447096  0.0000000000000000
  2.9721465780223553  8.9164397340670654  2.9721465780223553
  2.9721465780223553  8.9164397340670654  0.0000000000000000
  2.9721465780223553  5.9442931560447096  2.9721465780223553
  0.0000000000000000  8.9164397340670654  2.9721465780223553
  0.0000000000000000  5.9442931560447096  5.9442931560447096
  2.9721465780223553  8.9164397340670654  8.9164397340670654
  2.9721465780223553  8.9164397340670654  5.9442931560447096
  2.9721465780223553  5.9442931560447096  8.9164397340670654
  0.0000000000000000  8.9164397340670654  8.9164397340670654
  5.9442931560447096  0.0000000000000000  0.0000000000000000
  8.9164397340670654  2.9721465780223553  2.9721465780223553
  8.9164397340670654  2.9721465780223553  0.0000000000000000
  8.9164397340670654  0.0000000000000000  2.9721465780223553
  5.9442931560447096  2.9721465780223553  2.9721465780223553
  5.9442931560447096  0.0000000000000000  5.9442931560447096
  8.9164397340670654  2.9721465780223553  8.9164397340670654
  8.9164397340670654  2.9721465780223553  5.9442931560447096
  8.9164397340670654  0.0000000000000000  8.9164397340670654
  5.9442931560447096  2.9721465780223553  8.9164397340670654
  5.9442931560447096  5.9442931560447096  0.0000000000000000
  8.9164397340670654  8.9164397340670654  2.9721465780223553
  8.9164397340670654  8.9164397340670654  0.0000000000000000
  8.9164397340670654  5.9442931560447096  2.9721465780223553
  5.9442931560447096  8.9164397340670654  2.9721465780223553
  5.9442931560447096  5.9442931560447096  5.9442931560447096
  8.9164397340670654  8.9164397340670654  8.9164397340670654
  8.9164397340670654  8.9164397340670654  5.9442931560447096
  8.9164397340670654  5.9442931560447096  8.9164397340670654
  5.9442931560447096  8.9164397340670654  8.9164397340670654
