Cs Pb I  Cs Pb I  Cs Pb Cl I  Cs Pb I  Cl I  Cs Pb I  Cl Cs Pb I  Cs Pb I  Cl I  Cs Pb I  Cl
 1.0000000000000000
    13.1831574070857531    0.0000000000000000    0.0000000000000000
     0.0000000000000000   13.1831574070857531    0.0000000000000000
     0.0000000000000000    0.0000000000000000   13.1831574070857531
 Cs  Pb  I   Cs  Pb  I   Cs  Pb  Cl  I   Cs  Pb  I   Cl  I   Cs  Pb  I   Cl  Cs  Pb  I   Cs  Pb  I   Cl  I   Cs  Pb  I   Cl 
   1   1   3   1   1   3   1   1   2   1   1   1   1   1   1   1   1   2   1   1   1   3   1   1   1   1   1   1   1   2   1
Cartesian
  0.0000000000000000  0.0000000000000000  0.0000000000000000
  3.2957893517714383  3.2957893517714383  3.2957893517714383
  3.2957893517714383  3.2957893517714383  0.0000000000000000
  3.2957893517714383  0.0000000000000000  3.2957893517714383
  0.0000000000000000  3.2957893517714383  3.2957893517714383
  0.0000000000000000  0.0000000000000000  6.5915787035428757
  3.2957893517714383  3.2957893517714383  9.8873680553143171
  3.2957893517714383  3.2957893517714383  6.5915787035428757
  3.2957893517714383  0.0000000000000000  9.8873680553143171
  0.0000000000000000  3.2957893517714383  9.8873680553143171
  0.0000000000000000  6.5915787035428757  0.0000000000000000
  3.2957893517714383  9.8873680553143171  3.2957893517714383
  3.2957893517714383  9.8873680553143171  0.0000000000000000
  3.2957893517714383  6.5915787035428757  3.2957893517714383
  0.0000000000000000  9.8873680553143171  3.2957893517714383
  0.0000000000000000  6.5915787035428757  6.5915787035428757
  3.2957893517714383  9.8873680553143171  9.8873680553143171
  3.2957893517714383  9.8873680553143171  6.5915787035428757
  3.2957893517714383  6.5915787035428757  9.8873680553143171
  0.0000000000000000  9.8873680553143171  9.8873680553143171
  6.5915787035428757  0.0000000000000000  0.0000000000000000
  9.8873680553143171  3.2957893517714383  3.2957893517714383
  9.8873680553143171  3.2957893517714383  0.0000000000000000
  9.8873680553143171  0.0000000000000000  3.2957893517714383
  6.5915787035428757  3.2957893517714383  3.2957893517714383
  6.5915787035428757  0.0000000000000000  6.5915787035428757
  9.8873680553143171  3.2957893517714383  9.8873680553143171
  9.8873680553143171  3.2957893517714383  6.5915787035428757
  9.8873680553143171  0.0000000000000000  9.8873680553143171
  6.5915787035428757  3.2957893517714383  9.8873680553143171
  6.5915787035428757  6.5915787035428757  0.0000000000000000
  9.8873680553143171  9.8873680553143171  3.2957893517714383
  9.8873680553143171  9.8873680553143171  0.0000000000000000
  9.8873680553143171  6.5915787035428757  3.2957893517714383
  6.5915787035428757  9.8873680553143171  3.2957893517714383
  6.5915787035428757  6.5915787035428757  6.5915787035428757
  9.8873680553143171  9.8873680553143171  9.8873680553143171
  9.8873680553143171  9.8873680553143171  6.5915787035428757
  9.8873680553143171  6.5915787035428757  9.8873680553143171
  6.5915787035428757  9.8873680553143171  9.8873680553143171
