40
Lattice="12.491090247654222 0.0 0.0 0.0 12.491090247654222 0.0 0.0 -1.865019570938065e-14 12.4910902476543" Properties=species:S:1:pos:R:3:spacegroup_kinds:I:1:forces:R:3 spacegroup="P 1" unit_cell=conventional candidate_id=59d22ce3f33a9503 formula=MAGe0.15Sn0.85I3 config_index=0 rattle_stdev=0.0 method=PBE fidelity=phase2_force energy=-112.25791966099953 stress="0.0002447401405230457 2.919422067777842e-11 -2.9194220677778195e-11 2.919422067777842e-11 0.00024474014052304575 -2.9194220312361666e-11 -2.9194220677778195e-11 -2.9194220312361666e-11 0.0002447401405230428" pbc="T T T"
Cs      12.44530342      12.44530342       0.04578683        0       0.00156963       0.00156963      -0.00156963
Sn       3.12277256       3.12277256       3.12277256        1       0.00021839       0.00021839       0.00021381
I        3.12277256       3.12277256      12.48973006        2      -0.00000326      -0.00000326       0.02200349
I        3.12277256      12.48628214       3.12277256        3      -0.00000408       0.00277484      -0.00000351
I       12.48628214       3.12277256       3.12277256        4       0.00277484      -0.00000408      -0.00000351
Cs      12.44530342      12.44530342       6.19975829        5       0.00157080       0.00157080       0.00157350
Sn       3.12277256       3.12277256       9.36831769        6       0.00022064       0.00022064      -0.00022064
I        3.12277256       3.12277256       6.24690531        7      -0.00000014      -0.00000014      -0.02200289
I        3.12277256       0.00136019       9.36831769        8      -0.00000326      -0.02200349       0.00000326
I        0.00136019       3.12277256       9.36831769        9      -0.02200349      -0.00000326       0.00000326
Cs      12.44530342       6.29133195       0.04578683       10       0.00157080      -0.00157350      -0.00157080
Sn       3.12277256       9.36831769       3.12277256       11       0.00015159      -0.00021812       0.00021812
I        3.12277256       9.36831769       0.00480811       12      -0.00000408       0.00000351      -0.00277484
I        3.12277256       6.25035323       3.12277256       13      -0.00000311      -0.00277557      -0.00000046
I       12.38634939       9.36831769       3.12277256       14       0.11541753       0.00000343      -0.00000343
Cs      12.44530342       6.29133195       6.19975829       15       0.00157667      -0.00157539       0.00157539
Sn       3.12277256       9.36831769       9.36831769       16       0.00021839      -0.00021381      -0.00021839
I        3.12277256       9.36831769       6.24073702       17      -0.00000311       0.00000046       0.00277557
I        3.12277256       6.24418494       9.36831769       18      -0.00000014       0.02200289       0.00000014
I       12.48628214       9.36831769       9.36831769       19       0.00277484       0.00000351       0.00000408
Cs       6.29133195      12.44530342       0.04578683       20      -0.00157350       0.00157080      -0.00157080
Sn       9.36831769       3.12277256       3.12277256       21      -0.00021812       0.00015159       0.00021812
I        9.36831769       3.12277256       0.00480811       22       0.00000351      -0.00000408      -0.00277484
I        9.36831769      12.38634939       3.12277256       23       0.00000343       0.11541753      -0.00000343
I        6.25035323       3.12277256       3.12277256       24      -0.00277557      -0.00000311      -0.00000046
Cs       6.29133195      12.44530342       6.19975829       25      -0.00157539       0.00157667       0.00157539
Sn       9.36831769       3.12277256       9.36831769       26      -0.00021381       0.00021839      -0.00021839
I        9.36831769       3.12277256       6.24073702       27       0.00000046      -0.00000311       0.00277557
I        9.36831769      12.48628214       9.36831769       28       0.00000351       0.00277484       0.00000408
I        6.24418494       3.12277256       9.36831769       29       0.02200289      -0.00000014       0.00000014
Cs       6.29133195       6.29133195       0.04578683       30      -0.00157539      -0.00157539      -0.00157667
Ge       9.36831769       9.36831769       3.12277256       31       0.00000859       0.00000859      -0.00000859
I        9.36831769       9.36831769       0.10474085       32       0.00000343       0.00000343      -0.11541753
I        9.36831769       6.35028598       3.12277256       33       0.00000150      -0.11537852      -0.00000150
I        6.35028598       9.36831769       3.12277256       34      -0.11537852       0.00000150      -0.00000150
Cs       6.29133195       6.29133195       6.19975829       35      -0.00158073      -0.00158073       0.00158073
Sn       9.36831769       9.36831769       9.36831769       36      -0.00021812      -0.00021812      -0.00015159
I        9.36831769       9.36831769       6.14080427       37       0.00000150       0.00000150       0.11537852
I        9.36831769       6.25035323       9.36831769       38       0.00000046      -0.00277557       0.00000311
I        6.25035323       9.36831769       9.36831769       39      -0.00277557       0.00000046       0.00000311
40
Lattice="12.491090247654222 0.0 0.0 0.0 12.491090247654222 0.0 0.0 -1.865019570938065e-14 12.4910902476543" Properties=species:S:1:pos:R:3:spacegroup_kinds:I:1:forces:R:3 spacegroup="P 1" unit_cell=conventional candidate_id=59d22ce3f33a9503 formula=MAGe0.15Sn0.85I3 config_index=1 rattle_stdev=0.08 method=PBE fidelity=phase2_force energy=-111.92140862638185 stress="-0.0013306217817754382 4.2768106588387606e-05 -7.135476549631917e-06 4.2768106588387606e-05 -0.0008279237333206894 -6.091098859565223e-05 -7.135476549631917e-06 -6.091098859565223e-05 -0.0016775556306864497" pbc="T T T"
Cs      12.35838771      12.37361821       0.02128288        0      -0.00475051       0.04206722       0.02796383
Sn       3.01557787       3.02624572       3.07143442        1       0.26258905       0.26594614       0.17620894
I        3.22740821       3.27040940      12.55605926        2      -0.07887838      -0.06339687       0.00562554
I        3.12090866      12.46959702       3.04944298        3       0.00936625       0.02505109       0.00044233
I       12.40030273       3.11588108       3.21683964        4       0.47610275      -0.00580704       0.00327135
Cs      12.31449608      12.54355894       6.28586919        5       0.04344126       0.02579419      -0.04257050
Sn       3.15435439       3.09175650       9.41538983        6       0.09819453      -0.00447477      -0.17062376
I        3.00810866       3.09688659       6.34714409        7       0.05362162       0.02014028      -0.16999619
I        3.06431315       0.11563899       9.44389000        8      -0.00953562      -0.45701370       0.01234306
I       -0.01976004       3.10971550       9.29118910        9       0.03622594       0.01281850       0.03736714
Cs      12.41789163       6.29524428       0.00581627       10      -0.00358339      -0.03027559       0.01468855
Sn       2.94582020       9.39310463       2.99560046       11       0.30080249      -0.26582074      -0.08235974
I        3.18112893       9.35968559      -0.04720561       12      -0.04746646       0.02444770       0.03821071
I        2.98732804       6.22087531       2.99554282       13       0.00766645       0.04486838       0.07893026
I       12.50478986       9.40627290       3.19588167       14      -0.27529551       0.00101792       0.01333965
Cs      12.52214104       6.29809536       6.33713677       15       0.01835407      -0.03789061      -0.02928606
Sn       3.19092398       9.30792686       9.18530734       16       0.25887816       0.04657503       0.24668307
I        3.13151166       9.33230504       6.20769922       17       0.00897577      -0.00688025      -0.06473865
I        3.14829126       6.20089630       9.44421100       18      -0.02015751       0.41240229      -0.05890975
I       12.49839694       9.37446988       9.36356565       19       0.27175202       0.02124538       0.00157204
Cs       6.28572086      12.40001149       0.07066726       20       0.01384720       0.02715564       0.02068325
Sn       9.42625439       3.16408856       3.20485502       21      -0.41384400      -0.20089663      -0.50587746
I        9.40992989       3.05318548       0.12485332       22       0.04265887       0.02850670      -0.36002056
I        9.46163546      12.42570255       3.06419158       23      -0.02591216       0.06472783       0.13346746
I        6.30477772       3.16349231       3.05576966       24      -0.30392238      -0.01715705       0.06735527
Cs       6.34314354      12.44630658       6.32452542       25      -0.03422543       0.01714665      -0.03560642
Sn       9.45108532       3.14978798       9.26410885       26      -0.13321188       0.26204205       0.29911135
I        9.27883414       3.22753377       6.19927966       27      -0.01424440      -0.03530183       0.42572468
I        9.33686774      12.56971962       9.37429490       28       0.03514867      -0.17861684      -0.03390803
I        6.25133990       3.12708515       9.40179344       29      -0.02847700      -0.00397355      -0.01292357
Cs       6.19311355       6.20416863       0.07115678       30       0.01632667      -0.00614357       0.01307125
Ge       9.30588524       9.29982720       3.01718285       31      -0.27644837       0.13022609      -0.13510340
I        9.40462022       9.44845967       0.21783963       32      -0.01201981      -0.04525574      -0.09006219
I        9.35310305       6.35269482       2.97289923       33       0.03910801       0.03286649       0.05918428
I        6.34094382       9.35811846       3.19494731       34       0.25287226       0.00021950      -0.02155022
Cs       6.18618218       6.28336789       6.21100228       35      -0.00625733      -0.01931444      -0.01066141
Sn       9.57862216       9.50877999       9.15746586       36      -0.53489835      -0.28943395       0.32130170
I        9.26538613       9.35457991       6.28484057       37       0.10184775       0.05112909      -0.25863700
I        9.41701334       6.25287528       9.25100471       38       0.00946805       0.12682659       0.06288950
I        6.27510849       9.45969511       9.32745015       39      -0.13188376      -0.01782826       0.02253538
40
Lattice="12.491090247654222 0.0 0.0 0.0 12.491090247654222 0.0 0.0 -1.865019570938065e-14 12.4910902476543" Properties=species:S:1:pos:R:3:spacegroup_kinds:I:1:forces:R:3 spacegroup="P 1" unit_cell=conventional candidate_id=59d22ce3f33a9503 formula=MAGe0.15Sn0.85I3 config_index=2 rattle_stdev=0.08 method=PBE fidelity=phase2_force energy=-111.82753329480705 stress="-0.0010261747197666663 6.940623176654119e-05 6.650330484050238e-06 6.940623176654119e-05 -0.0011690832808928429 -3.177162445497492e-05 6.650330484050238e-06 -3.177162445497492e-05 -0.0006077295878734786" pbc="T T T"
Cs      12.43628638      12.35917830       0.18858898        0       0.02221224      -0.00051098      -0.06625625
Sn       3.00621390       3.09666690       3.02198084        1       0.61013073       0.25583333       0.08958065
I        3.15284188       3.05252077      12.46173200        2      -0.04974897       0.05111882       0.02305725
I        3.14650538      12.58235510       2.99725294        3      -0.01059679      -0.54651370       0.05198639
I       12.63460444       3.16228951       3.11231565        4      -0.82792414       0.01701919      -0.02652356
Cs      12.41305376      12.36741044       6.16236095        5      -0.01277548      -0.01052367       0.05517046
Sn       3.06533884       3.22048403       9.30614168        6       0.35428560      -0.03017159      -0.04757091
I        3.07569051       3.11816305       6.25327170        7       0.02649734      -0.08658511      -0.06652140
I        3.02811648      -0.12253921       9.44129818        8       0.01109891       0.37605846      -0.00906068
I        0.03437385       3.06711104       9.18521594        9      -0.16489015       0.02414100       0.05146896
Cs      12.38232410       6.20905062       0.05325148       10       0.02165192       0.02081424      -0.01451271
Sn       3.08043703       9.43073727       3.10670739       11       0.19378133      -0.19109926       0.05340555
I        3.08432387       9.28549672      -0.03541064       12       0.01654269      -0.04319620       0.35662608
I        3.18596378       6.17635342       3.29957539       13      -0.03320293       0.44153008      -0.07675950
I       12.27433050       9.34918990       3.14015982       14       0.49609891      -0.03913018       0.01460690
Cs      12.41711260       6.29820200       6.20829045       15      -0.00532107       0.00951565       0.01211739
Sn       3.10701006       9.47607239       9.39593160       16      -0.08570975      -0.29502196      -0.10748504
I        3.16738412       9.32069487       6.29936359       17      -0.02303057       0.06776990      -0.30832283
I        3.22927278       6.18578230       9.32945722       18      -0.03275783      -0.02125345       0.03368768
I       12.57243528       9.16068909       9.38167194       19      -0.07538433       0.01945841      -0.01070874
Cs       6.37444872      12.30061751       0.10647810       20      -0.02813569       0.04748134      -0.03089826
Sn       9.32830866       2.93522911       3.11413915       21      -0.23766156       0.14655917       0.15680409
I        9.24809467       3.16187485      -0.03944618       22       0.08036722       0.03096689       0.13339158
I        9.45291829      12.31680396       3.11676527       23      -0.00884991       0.35523170      -0.00860529
I        6.24178083       3.29067832       3.09552953       24       0.36042758      -0.13824686      -0.00379462
Cs       6.24909954      12.34173407       6.21688622       25       0.01950394       0.02184201       0.02165626
Sn       9.45841925       3.15489543       9.42956451       26      -0.34433776      -0.06643501      -0.21471290
I        9.26006749       3.16868124       6.22312605       27       0.05281175      -0.07440292      -0.09798988
I        9.41993280      12.40590460       9.52029677       28       0.02520471       0.42219078      -0.00475544
I        6.26153380       3.16277019       9.31819040       29       0.07674796      -0.06249642       0.00518235
Cs       6.21110122       6.22882714       0.06212905       30      -0.01593185      -0.02963393       0.00463437
Ge       9.41120505       9.28231789       2.94534418       31      -0.26290141      -0.23374197       0.27528504
I        9.42007210       9.34253082       0.09093572       32      -0.00462142      -0.05007697       0.01382903
I        9.18524394       6.34132247       3.19919767       33       0.11785916      -0.01841595      -0.08872701
I        6.38666503       9.53327188       3.12776940       34      -0.43558135      -0.01510843      -0.05254239
Cs       6.29155935       6.25504765       6.22963689       35      -0.00165113      -0.01534113      -0.00309876
Sn       9.30326841       9.36019308       9.40397474       36       0.19448830       0.08645030      -0.40785032
I        9.26630739       9.37694423       6.20898322       37       0.07100464       0.05770019       0.16024609
I        9.35576952       6.34545877       9.25053661       38       0.04899794      -0.52458084       0.05885307
I        6.31963650       9.29684652       9.32440004       39      -0.14372390       0.04394596       0.07419459
40
Lattice="12.491090247654222 0.0 0.0 0.0 12.491090247654222 0.0 0.0 -1.865019570938065e-14 12.4910902476543" Properties=species:S:1:pos:R:3:spacegroup_kinds:I:1:forces:R:3 spacegroup="P 1" unit_cell=conventional candidate_id=59d22ce3f33a9503 formula=MAGe0.15Sn0.85I3 config_index=3 rattle_stdev=0.08 method=PBE fidelity=phase2_force energy=-111.60497424175803 stress="-0.001242745113527816 0.0001473556004896083 4.649290602819253e-05 0.0001473556004896083 -0.0011823226872888875 1.7273551984744502e-05 4.649290602819253e-05 1.7273551984744502e-05 -0.0005715137882155358" pbc="T T T"
Cs      12.33961994      12.60664365       0.04959199        0       0.04631477       0.02713942       0.00756085
Sn       3.10375887       3.12950238       3.19953594        1      -0.27142184      -0.29089526      -0.59810193
I        3.06824468       3.16509819      12.42773660        2       0.03203768      -0.01301477      -0.07550463
I        3.23516906      12.46830770       3.01830171        3       0.01721035      -0.15265515       0.00384510
I       12.43199932       2.99309790       3.02037468        4       0.14161823       0.05767256       0.04432797
Cs      12.42735968      12.37725853       6.13929909        5      -0.01895043       0.01038275      -0.01356470
Sn       3.14382623       2.91835712       9.23469501        6       0.03700730       0.42763520       0.47124773
I        3.06583375       2.92703051       6.14477053        7      -0.03199824      -0.00954572       0.30168627
I        3.17586237      -0.10094653       9.30508491        8      -0.03263776       0.43705201       0.02396485
I       -0.11882948       3.02760936       9.54965290        9       0.33340657       0.03331672      -0.04011900
Cs      12.40716119       6.36306507      -0.09860823       10       0.02543966      -0.07283077       0.00365011
Sn       3.08347539       9.27235796       3.05835494       11      -0.04081376       0.29819287       0.00383364
I        3.23523805       9.34989243      -0.05228761       12      -0.04209493      -0.04147863       0.46952676
I        3.10976556       6.19604284       3.24390198       13      -0.01620591       0.19228114       0.00665452
I       12.24654357       9.42100005       3.09524326       14       1.01284107      -0.10222272       0.03120734
Cs      12.38460757       6.30509406       6.14717501       15      -0.02348313      -0.00184496       0.01147239
Sn       3.16698820       9.39892635       9.33861446       16      -0.12354973      -0.58849769       0.01384598
I        3.24902408       9.38566149       6.33766435       17      -0.00833144       0.01410555      -0.49319282
I        3.18129101       6.29810462       9.32189320       18      -0.02045623      -0.23153375      -0.03658752
I       12.47833497       9.24152849       9.36234037       19      -0.13136696       0.02928441       0.00488604
Cs       6.38723666      12.42406960      -0.00635714       20      -0.03387944       0.01791531       0.01257773
Sn       9.21659476       2.99954864       3.09134670       21       0.37992290       0.18870966       0.01069795
I        9.33515922       3.17965798       0.05621014       22      -0.06368701      -0.03099058      -0.13896732
I        9.56010459      12.37276681       3.04170187       23      -0.16125729      -0.02642745       0.04617310
I        6.21486874       3.19045074       3.16232128       24      -0.11711713      -0.03354826       0.02163319
Cs       6.31362301      12.48707069       6.22516763       25       0.01332447      -0.03490956      -0.00601756
Sn       9.38648860       3.09154532       9.31087628       26      -0.07855996      -0.05783450       0.00973194
I        9.49184658       3.05373695       6.21203081       27      -0.01559265       0.00729678       0.13748254
I        9.37502183      12.62061990       9.27397071       28      -0.02968108      -0.84228088       0.06550752
I        6.21228677       3.08890142       9.41306463       29      -0.19981224      -0.03951321      -0.06056848
Cs       6.24515238       6.29703174       0.11516324       30      -0.00664150      -0.03259589      -0.03681753
Ge       9.40151040       9.35021890       3.18322001       31      -0.17012338      -0.14812110       0.12686037
I        9.38632808       9.33313744       0.15706720       32       0.02790597      -0.01661261      -0.20059474
I        9.29662782       6.23633009       3.26217129       33       0.08687395       0.05563783      -0.02797676
I        6.58383203       9.31441966       3.06109062       34      -0.85071454       0.05663969       0.03674756
Cs       6.37577134       6.38298899       6.20940814       35       0.00197391       0.01221134       0.02484191
Sn       9.36931716       9.31235597       9.51842162       36       0.07409883       0.00334600      -0.16610631
I        9.33226501       9.34381894       6.25382362       37       0.02028557       0.02609961       0.01049305
I        9.31603040       6.06902791       9.41674584       38      -0.00846253       0.85893745      -0.00594304
I        6.20840779       9.38491687       9.45602985       39       0.24500369       0.00991729      -0.00183317
