40
Lattice="12.247096036303098 0.0 0.0 0.0 12.239263067720632 0.0 0.0 -1.8285892858033418e-14 12.247096036303091" Properties=species:S:1:pos:R:3:spacegroup_kinds:I:1:forces:R:3 spacegroup="P 1" unit_cell=conventional occupancy="_JSON {\"0\": {\"Rb\": 1.0}, \"1\": {\"Sn\": 1.0}, \"2\": {\"I\": 1.0}, \"3\": {\"I\": 1.0}, \"4\": {\"I\": 1.0}, \"5\": {\"Rb\": 1.0}, \"6\": {\"Sn\": 1.0}, \"7\": {\"I\": 1.0}, \"8\": {\"I\": 1.0}, \"9\": {\"I\": 1.0}, \"10\": {\"Rb\": 1.0}, \"11\": {\"Sn\": 1.0}, \"12\": {\"I\": 1.0}, \"13\": {\"I\": 1.0}, \"14\": {\"I\": 1.0}, \"15\": {\"Rb\": 1.0}, \"16\": {\"Ge\": 1.0}, \"17\": {\"I\": 1.0}, \"18\": {\"I\": 1.0}, \"19\": {\"I\": 1.0}, \"20\": {\"Rb\": 1.0}, \"21\": {\"Ge\": 1.0}, \"22\": {\"I\": 1.0}, \"23\": {\"I\": 1.0}, \"24\": {\"I\": 1.0}, \"25\": {\"Rb\": 1.0}, \"26\": {\"Sn\": 1.0}, \"27\": {\"I\": 1.0}, \"28\": {\"I\": 1.0}, \"29\": {\"I\": 1.0}, \"30\": {\"Rb\": 1.0}, \"31\": {\"Ge\": 1.0}, \"32\": {\"I\": 1.0}, \"33\": {\"I\": 1.0}, \"34\": {\"I\": 1.0}, \"35\": {\"Rb\": 1.0}, \"36\": {\"Sn\": 1.0}, \"37\": {\"I\": 1.0}, \"38\": {\"I\": 1.0}, \"39\": {\"I\": 1.0}}" candidate_id=e2df8d7c6d10332e formula=RbGe0.33Sn0.67I3 config_index=0 rattle_stdev=0.0 method=PBE fidelity=phase2_force energy=-110.23859718876409 stress="-0.0011708682708848376 1.5114544899071954e-15 -3.2998580246742906e-09 1.5114544899071954e-15 -0.001723233518564949 -1.5140274152273248e-15 -3.2998580246742906e-09 -1.5140274152273248e-15 -0.001170868270884839" pbc="T T T"
Rb      12.18564592      12.16618769       0.06145011        0      -0.00194662       0.00316902       0.00194662
Sn       3.06177401       3.05981577       3.06177401        1      -0.00000000      -0.00000000       0.00000000
I        3.06177401       3.05981577       0.00076372        2       0.00000061      -0.00000000       0.01034081
I        3.06177401      12.23351241       3.06177401        3       0.00000000       0.01649445       0.00000000
I       12.14809810       3.05981577       3.06177401        4       0.11925627      -0.00000000      -0.00000041
Rb      12.18564592      12.16618769       6.06209790        5      -0.00194649       0.00316899      -0.00194649
Sn       3.06177401       3.05981577       9.18532203        6      -0.00000000      -0.00000000       0.00000000
I        3.06177401       3.05981577       6.12278430        7      -0.00000061      -0.00000000      -0.01034081
I        3.06177401      12.14571167       9.18532203        8      -0.00000000       0.10270696       0.00000000
I       12.24633231       3.05981577       9.18532203        9      -0.01034081      -0.00000000      -0.00000061
Rb      12.18564592       6.19270691       0.06145011       10      -0.00194662      -0.00316902       0.00194662
Sn       3.06177401       9.17944730       3.06177401       11       0.00000000      -0.00000000       0.00000000
I        3.06177401       9.17944730      12.16206217       12       0.00000038      -0.00000000       0.10118470
I        3.06177401       6.12538219       3.06177401       13       0.00000000      -0.01649445      -0.00000000
I       12.15321440       9.17944730       3.06177401       14       0.09862178       0.00000000       0.00000011
Rb      12.18564592       6.19270691       6.06209790       15      -0.00194649      -0.00316899      -0.00194649
Ge       3.06177401       9.17944730       9.18532203       16      -0.00000000       0.00000000       0.00000000
I        3.06177401       9.17944730       6.20858189       17      -0.00000038       0.00000000      -0.10118470
I        3.06177401       6.21318293       9.18532203       18      -0.00000000      -0.10270696       0.00000000
I        0.08503387       9.17944730       9.18532203       19      -0.10118470      -0.00000000      -0.00000038
Rb       6.18499813      12.16618769       0.06145011       20       0.00194649       0.00316899       0.00194649
Ge       9.18532203       3.05981577       3.06177401       21      -0.00000000       0.00000000       0.00000000
I        9.18532203       3.05981577       0.09899793       22       0.00000041      -0.00000000      -0.11925627
I        9.18532203      12.23331480       3.06177401       23      -0.00000000      -0.00256852       0.00000000
I        6.22254595       3.05981577       3.06177401       24      -0.11925627       0.00000000       0.00000041
Rb       6.18499813      12.16618769       6.06209790       25       0.00194662       0.00316902      -0.00194662
Sn       9.18532203       3.05981577       9.18532203       26      -0.00000000      -0.00000000       0.00000000
I        9.18532203       3.05981577       6.02455009       27      -0.00000041       0.00000000       0.11925627
I        9.18532203      12.23351241       9.18532203       28      -0.00000000       0.01649445      -0.00000000
I        6.12431174       3.05981577       9.18532203       29       0.01034081      -0.00000000       0.00000061
Rb       6.18499813       6.19270691       0.06145011       30       0.00194649      -0.00316899       0.00194649
Ge       9.18532203       9.17944730       3.06177401       31       0.00000000       0.00000000      -0.00000000
I        9.18532203       9.17944730       0.09388164       32      -0.00000011       0.00000000      -0.09862178
I        9.18532203       6.12557980       3.06177401       33      -0.00000000       0.00256852       0.00000000
I        6.21742965       9.17944730       3.06177401       34      -0.09862178       0.00000000      -0.00000011
Rb       6.18499813       6.19270691       6.06209790       35       0.00194662      -0.00316902      -0.00194662
Sn       9.18532203       9.17944730       9.18532203       36      -0.00000000      -0.00000000      -0.00000000
I        9.18532203       9.17944730       6.02966638       37       0.00000011       0.00000000       0.09862178
I        9.18532203       6.12538219       9.18532203       38       0.00000000      -0.01649445      -0.00000000
I        6.03851415       9.17944730       9.18532203       39       0.10118470       0.00000000       0.00000038
40
Lattice="12.247096036303098 0.0 0.0 0.0 12.239263067720632 0.0 0.0 -1.8285892858033418e-14 12.247096036303091" Properties=species:S:1:pos:R:3:spacegroup_kinds:I:1:forces:R:3 spacegroup="P 1" unit_cell=conventional occupancy="_JSON {\"0\": {\"Rb\": 1.0}, \"1\": {\"Sn\": 1.0}, \"2\": {\"I\": 1.0}, \"3\": {\"I\": 1.0}, \"4\": {\"I\": 1.0}, \"5\": {\"Rb\": 1.0}, \"6\": {\"Sn\": 1.0}, \"7\": {\"I\": 1.0}, \"8\": {\"I\": 1.0}, \"9\": {\"I\": 1.0}, \"10\": {\"Rb\": 1.0}, \"11\": {\"Sn\": 1.0}, \"12\": {\"I\": 1.0}, \"13\": {\"I\": 1.0}, \"14\": {\"I\": 1.0}, \"15\": {\"Rb\": 1.0}, \"16\": {\"Ge\": 1.0}, \"17\": {\"I\": 1.0}, \"18\": {\"I\": 1.0}, \"19\": {\"I\": 1.0}, \"20\": {\"Rb\": 1.0}, \"21\": {\"Ge\": 1.0}, \"22\": {\"I\": 1.0}, \"23\": {\"I\": 1.0}, \"24\": {\"I\": 1.0}, \"25\": {\"Rb\": 1.0}, \"26\": {\"Sn\": 1.0}, \"27\": {\"I\": 1.0}, \"28\": {\"I\": 1.0}, \"29\": {\"I\": 1.0}, \"30\": {\"Rb\": 1.0}, \"31\": {\"Ge\": 1.0}, \"32\": {\"I\": 1.0}, \"33\": {\"I\": 1.0}, \"34\": {\"I\": 1.0}, \"35\": {\"Rb\": 1.0}, \"36\": {\"Sn\": 1.0}, \"37\": {\"I\": 1.0}, \"38\": {\"I\": 1.0}, \"39\": {\"I\": 1.0}}" candidate_id=e2df8d7c6d10332e formula=RbGe0.33Sn0.67I3 config_index=1 rattle_stdev=0.08 method=PBE fidelity=phase2_force energy=-109.81878110636791 stress="-0.0030470972564826163 3.5894068893646144e-05 1.6323892178943524e-06 3.5894068893646144e-05 -0.0028549747359694648 -7.680568306412227e-05 1.6323892178943524e-06 -7.680568306412227e-05 -0.0035092379797406095" pbc="T T T"
Rb      12.09873021      12.09450248       0.03694616        0      -0.01744043       0.03928087       0.02511028
Sn       2.95457932       2.96328892       3.01043586        1       0.19238123       0.32599570       0.28439519
I        3.16640966       3.20745260       0.06709292        2      -0.05171738      -0.03800470      -0.06668950
I        3.05991010      12.21682729       2.98844443        3       0.03091252       0.01808206      -0.00818450
I       12.06211870       3.05292429       3.15584109        4       0.60116043       0.00779172       0.02425676
Rb      12.05483858      12.26444321       6.14820880        5       0.03037819       0.05001409      -0.04045880
Sn       3.09335584       3.02879970       9.23239417        6       0.08370594      -0.07861991      -0.16131113
I        2.94711010       3.03392979       6.22302307        7       0.05300713       0.02673819      -0.24346020
I        3.00331460      12.25999047       9.26089434        8      -0.01373261      -0.25823528       0.00827316
I       12.22521209       3.04675870       9.10819345        9       0.11759612       0.00826543       0.03982324
Rb      12.15823414       6.19661924       0.02147956       10      -0.00481007      -0.03548223       0.01852232
Sn       2.88482165       9.20423425       2.93460191       11       0.53120378      -0.32598043      -0.17116709
I        3.12013038       9.17081520      12.11004845       12      -0.05045239       0.03520845       0.22818492
I        2.92632949       6.09590427       2.93454427       13       0.00300415       0.04706285       0.08179150
I       12.27165487       9.21740252       3.13488311       14      -0.55546784       0.01165206       0.04873115
Rb      12.26248354       6.19947032       6.19947638       15       0.02613649      -0.04558407      -0.01139285
Ge       3.12992543       9.11905648       9.00231168       16       0.28943054      -0.01733642       0.15251668
I        3.07051310       9.14343465       6.17554409       17       0.00835271      -0.01104672      -0.07023570
I        3.08729271       6.16989430       9.26121535       18      -0.01680675       0.32383738      -0.07747439
I        0.09714867       9.18559950       9.18057000       19       0.09840937       0.02473509      -0.01001669
Rb       6.17938704      12.12089577       0.08633054       20       0.00700885       0.02679427       0.02015627
Ge       9.24325873       3.10113177       3.14385646       21      -0.36222483      -0.20422494      -0.49500898
I        9.22693424       2.99022868       0.21904314       22       0.06042428       0.03225253      -0.50897236
I        9.27863980      12.27266796       3.00319303       23      -0.02764921      -0.07492335       0.16282551
I        6.27697044       3.10053551       2.99477111       24      -0.44119639      -0.01685100       0.07086888
Rb       6.23680972      12.16719085       6.18686503       25      -0.02468296       0.01641298      -0.01876599
Sn       9.26808966       3.08683118       9.08111319       26      -0.19671206       0.29953171       0.20878121
I        9.09583848       3.16457698       5.98309273       27      -0.02234042      -0.03688339       0.55241649
I        9.15387208      12.31694989       9.19129924       28       0.01305965      -0.19999346      -0.02675930
I        6.13146670       3.06412836       9.21879779       29      -0.01365294      -0.00059223      -0.00997869
Rb       6.08677973       6.10554359       0.08682006       30      -0.00358239      -0.03022472       0.02468344
Ge       9.12288958       9.11095682       2.95618430       31      -0.24007900       0.07623397       0.00189770
I        9.22162456       9.25958929       0.20698041       32      -0.00538673      -0.03144572      -0.25333918
I        9.17010740       6.12798864       2.91190067       33       0.04888509       0.17712246       0.05706949
I        6.20808750       9.16924807       3.13394875       34       0.23452346      -0.00037018      -0.00945620
Rb       6.07984836       6.18474285       6.07334189       35      -0.00763653      -0.02456818      -0.00762036
Sn       9.39562650       9.31990961       8.97447020       36      -0.34849261      -0.36069947       0.62691059
I        9.08239047       9.16570953       6.17370268       37       0.06553670       0.04909603      -0.58762609
I        9.23401768       6.12790424       9.06800905       38       0.00617537       0.19378246       0.06802775
I        6.06326941       9.27082473       9.14445449       39      -0.09129869      -0.01107720       0.00686136
40
Lattice="12.247096036303098 0.0 0.0 0.0 12.239263067720632 0.0 0.0 -1.8285892858033418e-14 12.247096036303091" Properties=species:S:1:pos:R:3:spacegroup_kinds:I:1:forces:R:3 spacegroup="P 1" unit_cell=conventional occupancy="_JSON {\"0\": {\"Rb\": 1.0}, \"1\": {\"Sn\": 1.0}, \"2\": {\"I\": 1.0}, \"3\": {\"I\": 1.0}, \"4\": {\"I\": 1.0}, \"5\": {\"Rb\": 1.0}, \"6\": {\"Sn\": 1.0}, \"7\": {\"I\": 1.0}, \"8\": {\"I\": 1.0}, \"9\": {\"I\": 1.0}, \"10\": {\"Rb\": 1.0}, \"11\": {\"Sn\": 1.0}, \"12\": {\"I\": 1.0}, \"13\": {\"I\": 1.0}, \"14\": {\"I\": 1.0}, \"15\": {\"Rb\": 1.0}, \"16\": {\"Ge\": 1.0}, \"17\": {\"I\": 1.0}, \"18\": {\"I\": 1.0}, \"19\": {\"I\": 1.0}, \"20\": {\"Rb\": 1.0}, \"21\": {\"Ge\": 1.0}, \"22\": {\"I\": 1.0}, \"23\": {\"I\": 1.0}, \"24\": {\"I\": 1.0}, \"25\": {\"Rb\": 1.0}, \"26\": {\"Sn\": 1.0}, \"27\": {\"I\": 1.0}, \"28\": {\"I\": 1.0}, \"29\": {\"I\": 1.0}, \"30\": {\"Rb\": 1.0}, \"31\": {\"Ge\": 1.0}, \"32\": {\"I\": 1.0}, \"33\": {\"I\": 1.0}, \"34\": {\"I\": 1.0}, \"35\": {\"Rb\": 1.0}, \"36\": {\"Sn\": 1.0}, \"37\": {\"I\": 1.0}, \"38\": {\"I\": 1.0}, \"39\": {\"I\": 1.0}}" candidate_id=e2df8d7c6d10332e formula=RbGe0.33Sn0.67I3 config_index=2 rattle_stdev=0.08 method=PBE fidelity=phase2_force energy=-109.83248361832707 stress="-0.0024202415184468246 1.4539765039379944e-05 -3.1024011481039406e-05 1.4539765039379944e-05 -0.003243682010312142 -1.75925197919294e-05 -3.1024011481039406e-05 -1.75925197919294e-05 -0.0022025608884586466" pbc="T T T"
Rb      12.17662888      12.08006257       0.20425227        0       0.01659312       0.00050072      -0.04615068
Sn       2.94521534       3.03371010       2.96098229        1       0.43542576       0.32480511       0.15096801
I        3.09184333       2.98956398      -0.02723434        2      -0.03509360       0.05045503      -0.02851537
I        3.08550683      12.32958536       2.93625439        3       0.00223783      -0.65113649       0.04715839
I       12.29642040       3.09933271       3.05131709        4      -0.61632658       0.02317736      -0.03907230
Rb      12.15339626      12.08829471       6.02470056        5      -0.01837343      -0.00768598       0.04653557
Sn       3.00434029       3.15752723       9.12314603        6       0.44466861       0.11873255      -0.00545987
I        3.01469196       3.05520626       6.12915069        7       0.04188056      -0.10770159      -0.13015976
I        2.96711792      12.02181227       9.25830252        8       0.02103607       0.41651001      -0.01328669
I       12.27934597       3.00415425       9.00222028        9      -0.18019964       0.00842987       0.02289345
Rb      12.12266660       6.11042558       0.06891476       10       0.01597429       0.01390805      -0.01106424
Sn       3.01943848       9.24186689       3.04570883       11       0.20901735      -0.24519283       0.03452006
I        3.02332532       9.09662633      12.12184342       12       0.03570397      -0.05438882       0.46613922
I        3.12496523       6.05138238       3.23857683       13      -0.00438772       0.53304212      -0.05257863
I       12.04119551       9.16031951       3.07916126       14       0.59532796      -0.02987071       0.03437053
Rb      12.15745510       6.19957695       6.07063006       15      -0.00482957       0.00650654       0.01699270
Ge       3.04601151       9.28720201       9.21293595       16      -0.16877771      -0.18709729      -0.09403073
I        3.10638556       9.13182449       6.26720846       17      -0.01754872       0.07983778      -0.41986068
I        3.16827422       6.15478030       9.14646156       18      -0.01248511      -0.28355493       0.03415773
I        0.17118701       8.97181871       9.19867628       19      -0.16139701       0.01182763      -0.02088280
Rb       6.26811490      12.02150178       0.12214139       20      -0.01997147       0.03660930      -0.02129324
Ge       9.14531300       2.87227231       3.05314059       21      -0.30648380       0.09799287       0.17172989
I        9.06509901       3.09891806       0.05474365       22       0.10627343       0.03257925      -0.00550968
I        9.26992263      12.16376937       3.05576672       23      -0.00361486       0.31456116      -0.01799154
I        6.21397355       3.22772153       3.03453097       24       0.26232808      -0.17911015      -0.00841480
Rb       6.14276572      12.06261834       6.07922583       25       0.01748631       0.00068873       0.02270011
Sn       9.27542359       3.09193863       9.24656885       26      -0.41828629      -0.08433372      -0.12791072
I        9.07707183       3.10572445       6.00693912       27       0.07070177      -0.09287296      -0.01701732
I        9.23693715      12.15313487       9.33730111       28       0.03562882       0.54796247       0.00964501
I        6.14166061       3.09981340       9.13519474       29       0.06998980      -0.06759549      -0.01035509
Rb       6.10476739       6.13020209       0.07779233       30      -0.02276243      -0.04452625       0.00568705
Ge       9.22820939       9.09344750       2.88434563       31      -0.33801898      -0.29531914       0.39881679
I        9.23707644       9.15366044       0.08007650       32       0.00401849      -0.05117891       0.00098386
I        9.00224828       6.11661629       3.13819911       33       0.14632482       0.19419645      -0.09733380
I        6.25380871       9.34440150       3.06677085       34      -0.47068094       0.01494941      -0.05380895
Rb       6.18522553       6.15642261       6.09197650       35      -0.00008243      -0.02199747       0.00045015
Sn       9.12027275       9.17132270       9.22097908       36       0.10992798       0.11311393      -0.44583141
I        9.08331174       9.18807385       6.09784533       37       0.06977713       0.07422106       0.07025313
I        9.17277386       6.22048773       9.06754096       38       0.05940888      -0.66125196       0.03362678
I        6.10779741       9.10797614       9.14140438       39       0.01799718       0.05665532       0.08752573
40
Lattice="12.247096036303098 0.0 0.0 0.0 12.239263067720632 0.0 0.0 -1.8285892858033418e-14 12.247096036303091" Properties=species:S:1:pos:R:3:spacegroup_kinds:I:1:forces:R:3 spacegroup="P 1" unit_cell=conventional occupancy="_JSON {\"0\": {\"Rb\": 1.0}, \"1\": {\"Sn\": 1.0}, \"2\": {\"I\": 1.0}, \"3\": {\"I\": 1.0}, \"4\": {\"I\": 1.0}, \"5\": {\"Rb\": 1.0}, \"6\": {\"Sn\": 1.0}, \"7\": {\"I\": 1.0}, \"8\": {\"I\": 1.0}, \"9\": {\"I\": 1.0}, \"10\": {\"Rb\": 1.0}, \"11\": {\"Sn\": 1.0}, \"12\": {\"I\": 1.0}, \"13\": {\"I\": 1.0}, \"14\": {\"I\": 1.0}, \"15\": {\"Rb\": 1.0}, \"16\": {\"Ge\": 1.0}, \"17\": {\"I\": 1.0}, \"18\": {\"I\": 1.0}, \"19\": {\"I\": 1.0}, \"20\": {\"Rb\": 1.0}, \"21\": {\"Ge\": 1.0}, \"22\": {\"I\": 1.0}, \"23\": {\"I\": 1.0}, \"24\": {\"I\": 1.0}, \"25\": {\"Rb\": 1.0}, \"26\": {\"Sn\": 1.0}, \"27\": {\"I\": 1.0}, \"28\": {\"I\": 1.0}, \"29\": {\"I\": 1.0}, \"30\": {\"Rb\": 1.0}, \"31\": {\"Ge\": 1.0}, \"32\": {\"I\": 1.0}, \"33\": {\"I\": 1.0}, \"34\": {\"I\": 1.0}, \"35\": {\"Rb\": 1.0}, \"36\": {\"Sn\": 1.0}, \"37\": {\"I\": 1.0}, \"38\": {\"I\": 1.0}, \"39\": {\"I\": 1.0}}" candidate_id=e2df8d7c6d10332e formula=RbGe0.33Sn0.67I3 config_index=3 rattle_stdev=0.08 method=PBE fidelity=phase2_force energy=-109.45502981643723 stress="-0.0029592738561058846 7.58270110118241e-05 3.538749259095315e-05 7.58270110118241e-05 -0.0035199553005606267 2.6734948622602993e-06 3.538749259095315e-05 2.6734948622602993e-06 -0.002329238485497944" pbc="T T T"
Rb      12.07996244      12.32752792       0.06525527        0       0.02821274       0.06158981       0.02386787
Sn       3.04276032       3.06654558       3.13853739        1      -0.27161964      -0.33222509      -0.76751395
I        3.00724613       3.10214140      -0.06122974        2       0.02762632       0.01051069      -0.06662573
I        3.17417051      12.21553797       2.95730315        3       0.03955595      -0.17172377      -0.01123171
I       12.09381529       2.93014110       2.95937613        4       0.33646539       0.07446733       0.03716409
Rb      12.16770219      12.09814281       6.00163870        5      -0.02403282       0.01934975      -0.01866687
Sn       3.08282767       2.85540032       9.05169935        6      -0.01137236       0.30993919       0.53123163
I        3.00483519       2.86407372       6.02064951        7      -0.04672583      -0.03163349       0.41963792
I        3.11486381      12.04340495       9.12208925        8      -0.05934243       0.61241885       0.03495015
I       12.12614265       2.96465257       9.36665724        9       0.47674239       0.03347466       0.00288855
Rb      12.14750370       6.26444003      -0.08294495       10       0.02608454      -0.06095370      -0.01976367
Sn       3.02247684       9.08348757       2.99735638       11      -0.02332000       0.36040509      -0.05040744
I        3.17423950       9.16102205      12.10496645       12      -0.06871913      -0.04831339       0.61541652
I        3.04876701       6.07107180       3.18290342       13      -0.01860011       0.19912055       0.03293064
I       12.01340857       9.23212967       3.03424471       14       1.19716916      -0.09607524       0.03127009
Rb      12.12495007       6.20646901       6.00951462       15      -0.03337765       0.00086445       0.00179956
Ge       3.10598965       9.21005596       9.15561880       16      -0.06504199      -0.58323364      -0.02747569
I        3.18802553       9.19679110       6.30550922       17      -0.02026428       0.01101919      -0.59227785
I        3.12029245       6.26710262       9.13889754       18      -0.02255456      -0.36044577      -0.03229458
I        0.07708670       9.05265811       9.17934471       19      -0.24797137       0.02746650       0.01709971
Rb       6.28090284      12.14495387       0.00930614       20      -0.03392354       0.01445551       0.00955785
Ge       9.03359910       2.93659185       3.03034815       21       0.32565239       0.18769369      -0.02350620
I        9.15216356       3.11670119       0.15039996       22      -0.08919721      -0.03369716      -0.22745905
I        9.37710893      12.21973221       2.98070331       23      -0.19112880      -0.14281786       0.03392737
I        6.18706146       3.12749394       3.10132273       24      -0.18845863      -0.06351921       0.03147718
Rb       6.20728919      12.20795496       6.08750724       25       0.00517691      -0.02371960       0.00125402
Sn       9.20349294       3.02858853       9.12788062       26      -0.15155242      -0.05233262      -0.06901857
I        9.30885092       2.99078016       5.99584388       27      -0.02122462      -0.01467640       0.29665004
I        9.19202617      12.36785017       9.09097505       28      -0.03756940      -1.06752238       0.06181022
I        6.09241357       3.02594462       9.23006897       29      -0.18413876      -0.03301936      -0.04968054
Rb       6.13881856       6.19840670       0.13082652       30      -0.00929017      -0.03115141      -0.02917892
Ge       9.21851475       9.16134852       3.12222146       31      -0.17270978      -0.14390239       0.15357907
I        9.20333242       9.14426706       0.14620798       32       0.03905278      -0.01930121      -0.12596875
I        9.11363217       6.01162391       3.20117274       33       0.09525809       0.20504325      -0.01899957
I        6.45097570       9.12554928       3.00009207       34      -1.07303388       0.04397471       0.02498572
Rb       6.26943752       6.28436395       6.07174775       35       0.01091370       0.01925332       0.01177612
Sn       9.18632150       9.12348558       9.33542596       36       0.09330592       0.02079960      -0.21742013
I        9.14926936       9.15494856       6.14268573       37       0.01834456       0.01846959      -0.03920994
I        9.13303475       5.94405687       9.23375018       38      -0.01298036       1.05043095       0.00709371
I        5.99656871       9.19604648       9.27303419       39       0.36979723       0.01263910       0.00127008
