40
Lattice="11.610682915150957 0.0 0.0 0.0 11.614942818929968 0.0 0.0 3.6804202294660474e-14 11.610682915150857" Properties=species:S:1:pos:R:3:spacegroup_kinds:I:1:forces:R:3 spacegroup="P 1" unit_cell=conventional occupancy="_JSON {\"0\": {\"Cs\": 1.0}, \"1\": {\"Sn\": 1.0}, \"2\": {\"Br\": 1.0}, \"3\": {\"Br\": 1.0}, \"4\": {\"Br\": 1.0}, \"5\": {\"Cs\": 1.0}, \"6\": {\"Sn\": 1.0}, \"7\": {\"Br\": 1.0}, \"8\": {\"Br\": 1.0}, \"9\": {\"Br\": 1.0}, \"10\": {\"Cs\": 1.0}, \"11\": {\"Sn\": 1.0}, \"12\": {\"Br\": 1.0}, \"13\": {\"Br\": 1.0}, \"14\": {\"Br\": 1.0}, \"15\": {\"Cs\": 1.0}, \"16\": {\"Ge\": 1.0}, \"17\": {\"Br\": 1.0}, \"18\": {\"Br\": 1.0}, \"19\": {\"Br\": 1.0}, \"20\": {\"Cs\": 1.0}, \"21\": {\"Sn\": 1.0}, \"22\": {\"Br\": 1.0}, \"23\": {\"Br\": 1.0}, \"24\": {\"Br\": 1.0}, \"25\": {\"Cs\": 1.0}, \"26\": {\"Sn\": 1.0}, \"27\": {\"Br\": 1.0}, \"28\": {\"Br\": 1.0}, \"29\": {\"Br\": 1.0}, \"30\": {\"Cs\": 1.0}, \"31\": {\"Ge\": 1.0}, \"32\": {\"Br\": 1.0}, \"33\": {\"Br\": 1.0}, \"34\": {\"Br\": 1.0}, \"35\": {\"Cs\": 1.0}, \"36\": {\"Sn\": 1.0}, \"37\": {\"Br\": 1.0}, \"38\": {\"Br\": 1.0}, \"39\": {\"Br\": 1.0}}" candidate_id=9173e93971a15157 formula=CsGe0.3Sn0.7Br3 config_index=0 rattle_stdev=0.0 method=PBE fidelity=phase2_force energy=-126.47436097487753 stress="-0.0005572301209215947 -7.073229451638841e-32 -4.419226591569926e-15 -7.073229451638841e-32 -0.0006678958199074709 2.1171341123746543e-18 -4.419226591569926e-15 2.1171341123746543e-18 -0.000557230120921604" pbc="T T T"
Cs       0.00000000      11.44936151       0.00000000        0       0.00000000       0.09254514       0.00000000
Sn       2.90267073       2.90373570       2.90267073        1       0.00000000      -0.00000000       0.00000000
Br       2.90267073       2.90373570       0.01728342        2      -0.00000000      -0.00000000      -0.13106564
Br       2.90267073       0.01787963       2.90267073        3      -0.00000000      -0.20428497      -0.00000000
Br       0.01728342       2.90373570       2.90267073        4      -0.13106564      -0.00000000      -0.00000000
Cs       0.00000000      11.44936151       5.80534146        5       0.00000000       0.09254514       0.00000000
Sn       2.90267073       2.90373570       8.70801219        6      -0.00000000       0.00000000       0.00000000
Br       2.90267073       2.90373570       5.78805804        7      -0.00000000      -0.00000000       0.13106564
Br       2.90267073      11.56328170       8.70801219        8       0.00000000      -0.20975467      -0.00000000
Br      11.59339950       2.90373570       8.70801219        9       0.13106564      -0.00000000       0.00000000
Cs       0.00000000       5.97305272       0.00000000       10       0.00000000      -0.09254514       0.00000000
Sn       2.90267073       8.71120711       2.90267073       11      -0.00000000       0.00000000      -0.00000000
Br       2.90267073       8.71120711      11.55972611       12       0.00000000       0.00000000      -0.13771790
Br       2.90267073       5.78959178       2.90267073       13      -0.00000000       0.20428497      -0.00000000
Br      11.55972611       8.71120711       2.90267073       14      -0.13771790       0.00000000       0.00000000
Cs       0.00000000       5.97305272       5.80534146       15       0.00000000      -0.09254514      -0.00000000
Ge       2.90267073       8.71120711       8.70801219       16      -0.00000000       0.00000000       0.00000000
Br       2.90267073       8.71120711       5.85629826       17      -0.00000000       0.00000000       0.13771790
Br       2.90267073       5.85913253       8.70801219       18      -0.00000000       0.20975467       0.00000000
Br       0.05095680       8.71120711       8.70801219       19       0.13771790       0.00000000      -0.00000000
Cs       5.80534146      11.44936151       0.00000000       20       0.00000000       0.09254514       0.00000000
Sn       8.70801219       2.90373570       2.90267073       21       0.00000000       0.00000000      -0.00000000
Br       8.70801219       2.90373570      11.59339950       22       0.00000000      -0.00000000       0.13106564
Br       8.70801219      11.56328170       2.90267073       23      -0.00000000      -0.20975467       0.00000000
Br       5.78805804       2.90373570       2.90267073       24       0.13106564      -0.00000000      -0.00000000
Cs       5.80534146      11.44936151       5.80534146       25       0.00000000       0.09254514       0.00000000
Sn       8.70801219       2.90373570       8.70801219       26      -0.00000000      -0.00000000      -0.00000000
Br       8.70801219       2.90373570       5.82262488       27       0.00000000      -0.00000000      -0.13106564
Br       8.70801219       0.01787963       8.70801219       28       0.00000000      -0.20428497       0.00000000
Br       5.82262488       2.90373570       8.70801219       29      -0.13106564      -0.00000000       0.00000000
Cs       5.80534146       5.97305272       0.00000000       30       0.00000000      -0.09254514       0.00000000
Ge       8.70801219       8.71120711       2.90267073       31       0.00000000       0.00000000      -0.00000000
Br       8.70801219       8.71120711       0.05095680       32      -0.00000000       0.00000000       0.13771790
Br       8.70801219       5.85913253       2.90267073       33       0.00000000       0.20975467      -0.00000000
Br       5.85629826       8.71120711       2.90267073       34       0.13771790       0.00000000      -0.00000000
Cs       5.80534146       5.97305272       5.80534146       35       0.00000000      -0.09254514       0.00000000
Sn       8.70801219       8.71120711       8.70801219       36       0.00000000       0.00000000       0.00000000
Br       8.70801219       8.71120711       5.75438466       37       0.00000000       0.00000000      -0.13771790
Br       8.70801219       5.78959178       8.70801219       38       0.00000000       0.20428497       0.00000000
Br       5.75438466       8.71120711       8.70801219       39      -0.13771790       0.00000000       0.00000000
40
Lattice="11.610682915150957 0.0 0.0 0.0 11.614942818929968 0.0 0.0 3.6804202294660474e-14 11.610682915150857" Properties=species:S:1:pos:R:3:spacegroup_kinds:I:1:forces:R:3 spacegroup="P 1" unit_cell=conventional occupancy="_JSON {\"0\": {\"Cs\": 1.0}, \"1\": {\"Sn\": 1.0}, \"2\": {\"Br\": 1.0}, \"3\": {\"Br\": 1.0}, \"4\": {\"Br\": 1.0}, \"5\": {\"Cs\": 1.0}, \"6\": {\"Sn\": 1.0}, \"7\": {\"Br\": 1.0}, \"8\": {\"Br\": 1.0}, \"9\": {\"Br\": 1.0}, \"10\": {\"Cs\": 1.0}, \"11\": {\"Sn\": 1.0}, \"12\": {\"Br\": 1.0}, \"13\": {\"Br\": 1.0}, \"14\": {\"Br\": 1.0}, \"15\": {\"Cs\": 1.0}, \"16\": {\"Ge\": 1.0}, \"17\": {\"Br\": 1.0}, \"18\": {\"Br\": 1.0}, \"19\": {\"Br\": 1.0}, \"20\": {\"Cs\": 1.0}, \"21\": {\"Sn\": 1.0}, \"22\": {\"Br\": 1.0}, \"23\": {\"Br\": 1.0}, \"24\": {\"Br\": 1.0}, \"25\": {\"Cs\": 1.0}, \"26\": {\"Sn\": 1.0}, \"27\": {\"Br\": 1.0}, \"28\": {\"Br\": 1.0}, \"29\": {\"Br\": 1.0}, \"30\": {\"Cs\": 1.0}, \"31\": {\"Ge\": 1.0}, \"32\": {\"Br\": 1.0}, \"33\": {\"Br\": 1.0}, \"34\": {\"Br\": 1.0}, \"35\": {\"Cs\": 1.0}, \"36\": {\"Sn\": 1.0}, \"37\": {\"Br\": 1.0}, \"38\": {\"Br\": 1.0}, \"39\": {\"Br\": 1.0}}" candidate_id=9173e93971a15157 formula=CsGe0.3Sn0.7Br3 config_index=1 rattle_stdev=0.08 method=PBE fidelity=phase2_force energy=-125.9107275172826 stress="-0.0029811394902939862 8.807467814277651e-05 -2.237614599354667e-05 8.807467814277651e-05 -0.0023158558287219057 -8.292930397965016e-05 -2.237614599354667e-05 -8.292930397965016e-05 -0.0031059455856945434" pbc="T T T"
Cs      -0.08691571      11.37767630      -0.02450395        0       0.00297483       0.16235462       0.03631314
Sn       2.79547604       2.80720886       2.85133258        1       0.39722264       0.40965900       0.28096141
Br       3.00730638       3.05137254       0.08361261        2      -0.09568351      -0.07819129      -0.14378957
Br       2.90080682       0.00119452       2.82934115        3      -0.02485125      -0.22112503      -0.01984287
Br      -0.06869599       2.89684423       2.99673781        4       0.37822991      -0.01416478      -0.00035612
Cs      -0.13080734      11.54761703       5.89145236        5       0.09142548       0.12653792      -0.07773927
Sn       2.93425256       2.87271964       8.75508433        6       0.11737409      -0.03190454      -0.20555890
Br       2.78800682       2.87784973       5.88829681        7       0.05952737       0.01380182      -0.03723046
Br       2.84421132      11.67756051       8.78358450        8       0.00066753      -0.48249500      -0.03258471
Br      11.57227927       2.89067864       8.63088360        9       0.22844901       0.00237531       0.02412122
Cs      -0.02741179       5.97696504      -0.03997056       10      -0.01007030      -0.12652095       0.01842246
Sn       2.72571837       8.73599406       2.77549863       11       0.73240087      -0.31336912      -0.10650269
Br       2.96102710       8.70257501      11.50771240       12      -0.10423997       0.02618619      -0.00321885
Br       2.76722621       5.76011385       2.77544099       13      -0.01930439       0.21638126       0.08300644
Br      11.67816658       8.74916233       2.97577983       14      -0.74762029       0.00021171       0.01273117
Cs       0.07683762       5.97981612       5.94271993       15       0.02055739      -0.15385396      -0.06245360
Ge       2.97082215       8.65081629       8.52500184       16       0.33498573      -0.04052573       0.16728941
Br       2.91140982       8.67519447       5.82326046       17      -0.01184291       0.01136552       0.25424259
Br       2.92818943       5.81584389       8.78390550       18      -0.02005948       0.62703046      -0.12366009
Br       0.06307160       8.71735931       8.70326015       19       0.36174802       0.02565703      -0.07259645
Cs       5.79973036      11.40406959       0.02488043       20       0.02865135       0.12551945       0.02726804
Sn       8.76594889       2.94505171       2.98475318       21      -0.51511596      -0.25706499      -0.64260013
Br       8.74962439       2.83414862      11.71344471       22       0.06768078       0.03649686      -0.28886453
Br       8.80132996      11.60263486       2.84408975       23      -0.02690116      -0.24005786       0.13790441
Br       5.84248253       2.94445545       2.83566783       24      -0.24645047      -0.02045386       0.07997406
Cs       5.85715305      11.45036467       5.93010859       25      -0.07032882       0.12757960      -0.07788333
Sn       8.79077982       2.93075112       8.60380335       26      -0.26780791       0.32993742       0.46502452
Br       8.61852864       3.00849691       5.78116752       27      -0.00232386      -0.04881278       0.34167331
Br       8.67656224       0.10131711       8.71398940       28       0.05932331      -0.41449449      -0.08882803
Br       5.82977984       2.90804829       8.74148795       29      -0.16990017      -0.01187527      -0.02971336
Cs       5.70712305       5.88588939       0.02536995       30       0.04677613      -0.07958169       0.01709812
Ge       8.64557974       8.64271663       2.79708102       31      -0.35325879       0.11805206      -0.26588622
Br       8.74431472       8.79134910       0.16405558       32      -0.03439808      -0.08840437       0.23534495
Br       8.69279756       5.86154137       2.75279739       33       0.03720814       0.43138737       0.04416079
Br       5.84695610       8.70100789       2.97484547       34       0.52250046      -0.00849127      -0.05145183
Cs       5.70019168       5.96508866       5.81658545       35       0.00726616      -0.12394755      -0.02135450
Sn       8.91831666       8.85166942       8.49716036       36      -0.58214559      -0.37492035       0.85108965
Br       8.60508063       8.69746934       5.89842095       37       0.09895424       0.03899864      -0.74280754
Br       8.75670784       5.79211382       8.59069921       38       0.03438873       0.36091443       0.04183925
Br       5.77913992       8.80258454       8.66714465       39      -0.32603865      -0.06153773      -0.01693805
40
Lattice="11.610682915150957 0.0 0.0 0.0 11.614942818929968 0.0 0.0 3.6804202294660474e-14 11.610682915150857" Properties=species:S:1:pos:R:3:spacegroup_kinds:I:1:forces:R:3 spacegroup="P 1" unit_cell=conventional occupancy="_JSON {\"0\": {\"Cs\": 1.0}, \"1\": {\"Sn\": 1.0}, \"2\": {\"Br\": 1.0}, \"3\": {\"Br\": 1.0}, \"4\": {\"Br\": 1.0}, \"5\": {\"Cs\": 1.0}, \"6\": {\"Sn\": 1.0}, \"7\": {\"Br\": 1.0}, \"8\": {\"Br\": 1.0}, \"9\": {\"Br\": 1.0}, \"10\": {\"Cs\": 1.0}, \"11\": {\"Sn\": 1.0}, \"12\": {\"Br\": 1.0}, \"13\": {\"Br\": 1.0}, \"14\": {\"Br\": 1.0}, \"15\": {\"Cs\": 1.0}, \"16\": {\"Ge\": 1.0}, \"17\": {\"Br\": 1.0}, \"18\": {\"Br\": 1.0}, \"19\": {\"Br\": 1.0}, \"20\": {\"Cs\": 1.0}, \"21\": {\"Sn\": 1.0}, \"22\": {\"Br\": 1.0}, \"23\": {\"Br\": 1.0}, \"24\": {\"Br\": 1.0}, \"25\": {\"Cs\": 1.0}, \"26\": {\"Sn\": 1.0}, \"27\": {\"Br\": 1.0}, \"28\": {\"Br\": 1.0}, \"29\": {\"Br\": 1.0}, \"30\": {\"Cs\": 1.0}, \"31\": {\"Ge\": 1.0}, \"32\": {\"Br\": 1.0}, \"33\": {\"Br\": 1.0}, \"34\": {\"Br\": 1.0}, \"35\": {\"Cs\": 1.0}, \"36\": {\"Sn\": 1.0}, \"37\": {\"Br\": 1.0}, \"38\": {\"Br\": 1.0}, \"39\": {\"Br\": 1.0}}" candidate_id=9173e93971a15157 formula=CsGe0.3Sn0.7Br3 config_index=2 rattle_stdev=0.08 method=PBE fidelity=phase2_force energy=-125.96635525850746 stress="-0.0023159957005447237 0.0001299083902464985 2.9568328472479135e-05 0.0001299083902464985 -0.0023381266284190454 -1.71515254429361e-05 2.9568328472479135e-05 -1.71515254429361e-05 -0.0018469052849053864" pbc="T T T"
Cs      -0.00901704      11.36323639       0.14280215        0       0.02859548       0.09830352      -0.11842023
Sn       2.78611206       2.87763004       2.80187901        1       0.91646604       0.36728071       0.20341934
Br       2.93274005       2.83348392      -0.01071464        2      -0.08604003       0.07556115      -0.13578179
Br       2.92640355       0.11395259       2.77715111        3      -0.02488888      -0.86740161       0.06345310
Br       0.16560572       2.94325265       2.89221381        4      -1.16196410       0.01511732      -0.03931689
Cs      -0.03224966      11.37146853       5.76794412        5      -0.01627686       0.07338923       0.09141165
Sn       2.84523701       3.00144717       8.64583619        6       0.45349770       0.02205704      -0.09528633
Br       2.85558868       2.89912620       5.79442443        7       0.00788815      -0.08971111       0.06341999
Br       2.80801464      11.43938231       8.78099268        8       0.02413886      -0.11628720      -0.02820591
Br      11.62641316       2.84807418       8.52491044        9       0.01216381       0.04798784       0.05716256
Cs      -0.06297932       5.89077138       0.00746465       10       0.03206609      -0.06914560      -0.01358468
Sn       2.86033520       8.77362670       2.88660555       11       0.28235053      -0.26690925       0.09334127
Br       2.86422204       8.62838614      11.51950736       12       0.02187915      -0.00177057       0.22009785
Br       2.96586194       5.71559197       3.07947355       13      -0.06635587       0.70725207      -0.10630869
Br      11.44770722       8.69207932       2.92005798       14       0.24872793      -0.04974228      -0.01956739
Cs      -0.02819082       5.97992276       5.81387362       15      -0.00880601      -0.08886451       0.00246158
Ge       2.88690823       8.81896182       8.73562610       16      -0.24059217      -0.03655792      -0.11126546
Br       2.94728228       8.66358430       5.91492483       17      -0.05902596       0.11938266      -0.18542176
Br       3.00917094       5.80072989       8.66915172       18      -0.07035643      -0.06036186       0.04511645
Br       0.13710994       8.50357852       8.72136644       19       0.14837780       0.10780050      -0.00368555
Cs       5.88845823      11.30467560       0.06069128       20      -0.05020600       0.17220233      -0.06728287
Sn       8.66800316       2.71619225       2.89403731       21      -0.34161124       0.41388442       0.22491094
Br       8.58778917       2.94283800      11.54914521       22       0.08876998       0.03305040       0.32292575
Br       8.79261279      11.49373627       2.89666344       23      -0.00950683      -0.02884401      -0.02960048
Br       5.77948564       3.07164147       2.87542769       24       0.53979639      -0.18602633      -0.01057233
Cs       5.76310905      11.34579216       5.82246938       25       0.02947766       0.14432167       0.03775606
Sn       8.79811375       2.93585857       8.76925901       26      -0.50038587      -0.08609265      -0.35930624
Br       8.59976199       2.94964438       5.80501391       27       0.05789016      -0.10655104      -0.22356968
Br       8.75962730      -0.06249791       8.85999127       28       0.01363177       0.31041282      -0.01318760
Br       5.83997374       2.94373334       8.65788490       29      -0.02991471      -0.05211065       0.00816535
Cs       5.72511072       5.91054790       0.01634222       30       0.00109507      -0.12922648       0.01594348
Ge       8.75089955       8.62520732       2.72524235       31      -0.30762117      -0.29019666       0.36213205
Br       8.75976660       8.68542025       0.03715167       32      -0.00692303      -0.07848907       0.38518419
Br       8.52493844       5.85016902       2.97909583       33       0.16440082       0.26263407      -0.13773153
Br       5.89267731       8.87616131       2.90766757       34      -0.26406160      -0.05788570      -0.07650222
Cs       5.80556885       5.93676841       5.83522006       35       0.01387651      -0.12419194      -0.03022576
Sn       8.64296291       8.70308251       8.74366924       36       0.15949329       0.05256946      -0.53672690
Br       8.60600190       8.71983366       5.82256361       37       0.09243947       0.06324608      -0.06128341
Br       8.69546402       5.88469732       8.59023112       38       0.05148475      -0.37468800       0.08889357
Br       5.82366792       8.63973595       8.66409454       39      -0.15562573       0.08397430       0.11545859
40
Lattice="11.610682915150957 0.0 0.0 0.0 11.614942818929968 0.0 0.0 3.6804202294660474e-14 11.610682915150857" Properties=species:S:1:pos:R:3:spacegroup_kinds:I:1:forces:R:3 spacegroup="P 1" unit_cell=conventional occupancy="_JSON {\"0\": {\"Cs\": 1.0}, \"1\": {\"Sn\": 1.0}, \"2\": {\"Br\": 1.0}, \"3\": {\"Br\": 1.0}, \"4\": {\"Br\": 1.0}, \"5\": {\"Cs\": 1.0}, \"6\": {\"Sn\": 1.0}, \"7\": {\"Br\": 1.0}, \"8\": {\"Br\": 1.0}, \"9\": {\"Br\": 1.0}, \"10\": {\"Cs\": 1.0}, \"11\": {\"Sn\": 1.0}, \"12\": {\"Br\": 1.0}, \"13\": {\"Br\": 1.0}, \"14\": {\"Br\": 1.0}, \"15\": {\"Cs\": 1.0}, \"16\": {\"Ge\": 1.0}, \"17\": {\"Br\": 1.0}, \"18\": {\"Br\": 1.0}, \"19\": {\"Br\": 1.0}, \"20\": {\"Cs\": 1.0}, \"21\": {\"Sn\": 1.0}, \"22\": {\"Br\": 1.0}, \"23\": {\"Br\": 1.0}, \"24\": {\"Br\": 1.0}, \"25\": {\"Cs\": 1.0}, \"26\": {\"Sn\": 1.0}, \"27\": {\"Br\": 1.0}, \"28\": {\"Br\": 1.0}, \"29\": {\"Br\": 1.0}, \"30\": {\"Cs\": 1.0}, \"31\": {\"Ge\": 1.0}, \"32\": {\"Br\": 1.0}, \"33\": {\"Br\": 1.0}, \"34\": {\"Br\": 1.0}, \"35\": {\"Cs\": 1.0}, \"36\": {\"Sn\": 1.0}, \"37\": {\"Br\": 1.0}, \"38\": {\"Br\": 1.0}, \"39\": {\"Br\": 1.0}}" candidate_id=9173e93971a15157 formula=CsGe0.3Sn0.7Br3 config_index=3 rattle_stdev=0.08 method=PBE fidelity=phase2_force energy=-125.7122894937125 stress="-0.0019510691507091844 0.00031127877848305695 7.940948456373232e-05 0.00031127877848305695 -0.002816609721888489 -1.1964154555967833e-05 7.940948456373232e-05 -1.1964154555967833e-05 -0.0016420513063672615" pbc="T T T"
Cs      -0.10568348      11.61070174       0.00380516        0       0.07392185       0.11091176       0.01626079
Sn       2.88365704       2.91046552       2.97943411        1      -0.33692191      -0.37177162      -0.84700707
Br       2.84814285       2.94606134      -0.04471004        2       0.04884755      -0.02747914      -0.22720903
Br       3.01506723      -0.00009480       2.79819987        3       0.01551642      -0.37186196       0.01366601
Br      -0.03699940       2.77406104       2.80027285        4       0.02390672       0.05656457       0.05881303
Cs      -0.01794374      11.38131663       5.74488225        5      -0.02177089       0.10424627      -0.00293814
Sn       2.92372439       2.69932026       8.57438951        6       0.04543433       0.48257406       0.62179775
Br       2.84573191       2.70799366       5.68592325        7      -0.02699994      -0.03676365       0.54478739
Br       2.95576053      11.46097498       8.64477941        8      -0.03654616       0.21032269       0.02590402
Br      11.47320983       2.80857251       8.88934740        9       0.53206792       0.01985179      -0.05817815
Cs      -0.03814223       6.04478584      -0.14439506       10       0.05370787      -0.21239919       0.03437249
Sn       2.86337356       8.61524739       2.83825310       11       0.05733785       0.36378028      -0.01508544
Br       3.01513622       8.69278186      11.50263039       12      -0.09826537      -0.02301825       0.38201993
Br       2.88966373       5.73528138       3.02380014       13      -0.02662621       0.47071536       0.01262731
Br      11.41992029       8.76388948       2.87514143       14       0.80792261      -0.11223309       0.01685393
Cs      -0.06069585       5.98681482       5.75275818       15      -0.01979129      -0.09838320       0.02141266
Ge       2.94688637       8.74181577       8.67830896       16       0.01791798      -0.58628063      -0.06003246
Br       3.02892225       8.72855091       5.95322559       17      -0.05383625       0.01395155      -0.28434170
Br       2.96118917       5.91305221       8.66158770       18      -0.02316131      -0.02928309      -0.04567614
Br       0.04300963       8.58441792       8.70203487       19      -0.08945918       0.09197000      -0.00293122
Cs       5.90124617      11.42812769      -0.05214397       20      -0.05750215       0.12283129       0.03298375
Sn       8.55628926       2.78051179       2.87124487       21       0.48004524       0.34160013       0.00077029
Br       8.67485372       2.96062113      11.64480153       22      -0.07703553      -0.05496046      -0.04743450
Br       8.89979909      11.54969912       2.82160003       23      -0.17874829      -0.43134401       0.04502734
Br       5.75257354       2.97141388       2.94221945       24      -0.00970800      -0.04427357       0.03078846
Cs       5.82763252      11.49112878       5.83075079       25       0.02162019       0.03154264      -0.01964504
Sn       8.72618310       2.87250846       8.65057078       26      -0.14193834      -0.03482564       0.06742058
Br       8.83154108       2.83470010       5.79391867       27      -0.01741607      -0.00079041       0.02032634
Br       8.71471633       0.15221740       8.61366521       28      -0.02359170      -1.18973110       0.08334650
Br       5.79072671       2.86986456       8.75275913       29      -0.39254870      -0.07201072      -0.08534608
Cs       5.75916188       5.97875251       0.06937641       30      -0.00076633      -0.16123511      -0.05563736
Ge       8.74120491       8.69310833       2.96311818       31      -0.20510461      -0.15453254       0.09050184
Br       8.72602258       8.67602687       0.10328314       32       0.03021337      -0.00071108       0.12314370
Br       8.63632233       5.74517663       3.04206946       33       0.09086300       0.33990960      -0.03226883
Br       6.08984431       8.65730909       2.84098879       34      -0.65401072       0.07124494       0.04437854
Cs       5.88978084       6.06470976       5.81499130       35      -0.00888829      -0.09473696       0.03164679
Sn       8.70901166       8.65524540       8.85811612       36       0.07689095      -0.00041503      -0.32269972
Br       8.67195951       8.68670837       5.86740401       37       0.03382010       0.03637322      -0.17820542
Br       8.65572491       5.60826645       8.75644034       38       0.00637363       1.22388291      -0.00395465
Br       5.71243922       8.72780630       8.79572435       39       0.07529396       0.01273903      -0.03032289
