Cs Sn I  Cs Sn I  Cs Sn Br I  Cs Sn I  Br I  Cs Sn I  Br Cs Sn I  Br Cs Sn I  Br Cs Sn I  Br
 1.0000000000000000
    13.1801875586047714    0.0000000000000000    0.0000000000000000
     0.0000000000000000   13.1801875586047714    0.0000000000000000
     0.0000000000000000    0.0000000000000000   13.1801875586047714
 Cs  Sn  I   Cs  Sn  I   Cs  Sn  Br  I   Cs  Sn  I   Br  I   Cs  Sn  I   Br  Cs  Sn  I   Br  Cs  Sn  I   Br  Cs  Sn  I   Br 
   1   1   3   1   1   3   1   1   2   1   1   1   1   1   1   1   1   2   1   1   1   2   1   1   1   1   2   1   1   2   1
Cartesian
  0.0000000000000000  0.0000000000000000  0.0000000000000000
  3.2950468896511929  3.2950468896511929  3.2950468896511929
  3.2950468896511929  3.2950468896511929  0.0000000000000000
  3.2950468896511929  0.0000000000000000  3.2950468896511929
  0.0000000000000000  3.2950468896511929  3.2950468896511929
  0.0000000000000000  0.0000000000000000  6.5900937793023848
  3.2950468896511929  3.2950468896511929  9.8851406689535786
  3.2950468896511929  3.2950468896511929  6.5900937793023848
  3.2950468896511929  0.0000000000000000  9.8851406689535786
  0.0000000000000000  3.2950468896511929  9.8851406689535786
  0.0000000000000000  6.5900937793023848  0.0000000000000000
  3.2950468896511929  9.8851406689535786  3.2950468896511929
  3.2950468896511929  9.8851406689535786  0.0000000000000000
  3.2950468896511929  6.5900937793023848  3.2950468896511929
  0.0000000000000000  9.8851406689535786  3.2950468896511929
  0.0000000000000000  6.5900937793023848  6.5900937793023848
  3.2950468896511929  9.8851406689535786  9.8851406689535786
  3.2950468896511929  9.8851406689535786  6.5900937793023848
  3.2950468896511929  6.5900937793023848  9.8851406689535786
  0.0000000000000000  9.8851406689535786  9.8851406689535786
  6.5900937793023848  0.0000000000000000  0.0000000000000000
  9.8851406689535786  3.2950468896511929  3.2950468896511929
  9.8851406689535786  3.2950468896511929  0.0000000000000000
  9.8851406689535786  0.0000000000000000  3.2950468896511929
  6.5900937793023848  3.2950468896511929  3.2950468896511929
  6.5900937793023848  0.0000000000000000  6.5900937793023848
  9.8851406689535786  3.2950468896511929  9.8851406689535786
  9.8851406689535786  3.2950468896511929  6.5900937793023848
  9.8851406689535786  0.0000000000000000  9.8851406689535786
  6.5900937793023848  3.2950468896511929  9.8851406689535786
  6.5900937793023848  6.5900937793023848  0.0000000000000000
  9.8851406689535786  9.8851406689535786  3.2950468896511929
  9.8851406689535786  9.8851406689535786  0.0000000000000000
  9.8851406689535786  6.5900937793023848  3.2950468896511929
  6.5900937793023848  9.8851406689535786  3.2950468896511929
  6.5900937793023848  6.5900937793023848  6.5900937793023848
  9.8851406689535786  9.8851406689535786  9.8851406689535786
  9.8851406689535786  9.8851406689535786  6.5900937793023848
  9.8851406689535786  6.5900937793023848  9.8851406689535786
  6.5900937793023848  9.8851406689535786  9.8851406689535786
