40
Lattice="12.14527873572376 0.0 0.0 0.0024432270926038023 12.007874515381541 0.0 0.00048302955381502086 -0.006273379969350322 12.285101929525306" Properties=species:S:1:pos:R:3:spacegroup_kinds:I:1:forces:R:3 spacegroup="P 1" unit_cell=conventional occupancy="_JSON {\"0\": {\"Cs\": 1.0}, \"1\": {\"Pb\": 1.0}, \"2\": {\"I\": 1.0}, \"3\": {\"I\": 1.0}, \"4\": {\"I\": 1.0}, \"5\": {\"Cs\": 1.0}, \"6\": {\"Pb\": 1.0}, \"7\": {\"Cl\": 1.0}, \"8\": {\"Cl\": 1.0}, \"9\": {\"I\": 1.0}, \"10\": {\"Cs\": 1.0}, \"11\": {\"Pb\": 1.0}, \"12\": {\"Cl\": 1.0}, \"13\": {\"Cl\": 1.0}, \"14\": {\"I\": 1.0}, \"15\": {\"Cs\": 1.0}, \"16\": {\"Pb\": 1.0}, \"17\": {\"I\": 1.0}, \"18\": {\"Cl\": 1.0}, \"19\": {\"I\": 1.0}, \"20\": {\"Cs\": 1.0}, \"21\": {\"Pb\": 1.0}, \"22\": {\"I\": 1.0}, \"23\": {\"I\": 1.0}, \"24\": {\"Cl\": 1.0}, \"25\": {\"Cs\": 1.0}, \"26\": {\"Pb\": 1.0}, \"27\": {\"Cl\": 1.0}, \"28\": {\"I\": 1.0}, \"29\": {\"Cl\": 1.0}, \"30\": {\"Cs\": 1.0}, \"31\": {\"Pb\": 1.0}, \"32\": {\"I\": 1.0}, \"33\": {\"Cl\": 1.0}, \"34\": {\"Cl\": 1.0}, \"35\": {\"Cs\": 1.0}, \"36\": {\"Pb\": 1.0}, \"37\": {\"I\": 1.0}, \"38\": {\"Cl\": 1.0}, \"39\": {\"Cl\": 1.0}}" candidate_id=1914be35ffa68b77 formula=FAPbCl0.5I0.53 config_index=0 rattle_stdev=0.0 method=PBE fidelity=phase2_force energy=-126.57955774020506 stress="0.0005845454398500403 -2.3226743195567358e-05 -3.196882163564869e-05 -2.3226743195567358e-05 0.0009014636032666838 -1.9541017148640067e-05 -3.196882163564869e-05 -1.9541017148640067e-05 -0.000837586485616935" pbc="T T T"
Cs       0.04678976       0.01871153      12.25627006        0      -0.02787240      -0.00454141       0.01863900
Pb       3.24509190       3.18859550       3.27277779        1       0.01873968       0.04094324       0.02591270
I        3.22752008       3.08377068       0.00533611        2      -0.04065614      -0.02305370      -0.05354976
I        3.26016494      -0.00128090       3.05749053        3      -0.02020301       0.00189375      -0.00248731
I        0.00305557       3.21723888       3.30649847        4       0.01152601      -0.02824864      -0.00543757
Cs       0.07168785      11.96915950       6.16149454        5      -0.02226896      -0.01894056      -0.02380806
Pb       3.24789587       3.04928333       9.06423487        6       0.05291503       0.02269266      -0.01650496
Cl       3.29795789       3.14271067       6.15370115        7      -0.00983084      -0.01231650       0.05417048
Cl       3.32041588      -0.00426440       9.22328317        8       0.02684894      -0.00510786       0.00103850
I        0.01791575       3.09873862       8.98762595        9       0.05654628      -0.02029810       0.00902971
Cs       0.09361374       5.96831611      12.25463055       10      -0.01462014      -0.00938402       0.01687498
Pb       3.24443040       8.81326492       2.88559212       11       0.00612318      -0.04126537      -0.00742142
Cl       3.30590419       8.85499483      12.27568347       12       0.00530458       0.00160590      -0.05153182
Cl       3.30364236       5.99655204       3.05749234       13      -0.01088521      -0.00197054      -0.01508287
I        0.00387284       8.78590214       2.94464256       14       0.03398377       0.01839446       0.00477732
Cs       0.08701678       6.02363135       6.17492707       15      -0.02204238       0.03378284      -0.01492145
Pb       3.25125740       8.95996102       9.35051077       16       0.05064372      -0.00949318      -0.00194773
I        3.24768526       8.90651400       6.13991492       17      -0.03161568       0.01797799       0.05005418
Cl       3.31023235       5.98864618       9.22369234       18      -0.01397770      -0.00818974       0.00875540
I        0.01958345       8.90633905       9.33767064       19       0.07886652       0.01341514      -0.00446203
Cs       5.95620531      11.95540769      12.14112268       20       0.02029217      -0.03947456      -0.01537914
Pb       8.88738515       3.20060843       3.28053906       21      -0.02049378       0.01147379      -0.02770123
I        8.89404501       3.22236829      12.28375919       22       0.01966667      -0.02303572      -0.01213199
I        8.88220095      -0.00116410       3.19002672       23       0.00536953       0.03127935       0.00076173
Cl       6.05886340       3.26839396       3.36895487       24      -0.00995701      -0.00659111       0.04159625
Cs       5.93311114       0.14263049       6.27988483       25       0.01286883       0.03931838      -0.00003651
Pb       8.91855916       3.18566366       9.01147549       26      -0.03840349       0.03859608       0.03559667
Cl       8.85195704       3.26852727       6.15284394       27      -0.00377523       0.00682975       0.00766588
I        8.91698012      -0.00416899       9.10158913       28       0.01135091       0.02680910       0.00923576
Cl       6.08092986       3.13906635       8.92052697       29      -0.07348565      -0.02941233      -0.01811349
Cs       5.90215706       6.09686711      12.19654356       30       0.01780778       0.03046922       0.01141613
Pb       8.86216028       8.78595754       3.07260662       31       0.02071798       0.03027835       0.00509834
I        8.95264489       8.79742459      12.28070649       32       0.03797672       0.01355073      -0.00267727
Cl       8.86671254       6.00139467       3.19425477       33      -0.00530685      -0.05546821       0.01469618
Cl       6.05952310       8.73483213       2.91426586       34      -0.05191256      -0.01326709      -0.04520607
Cs       5.99055715       5.79334699       6.22440629       35       0.04161384      -0.00562662      -0.01976668
Pb       8.90120412       8.79552650       9.20873736       36      -0.00329975       0.00399220      -0.00890186
I        8.92337352       8.79785710       6.14414012       37       0.02274782       0.00810791       0.00303730
Cl       8.85112503       5.99676823       9.09050739       38      -0.01741830      -0.04844425      -0.00768258
Cl       6.08411844       8.85336057       9.36698361       39      -0.11230987       0.01440428       0.03602521
40
Lattice="12.14527873572376 0.0 0.0 0.0024432270926038023 12.007874515381541 0.0 0.00048302955381502086 -0.006273379969350322 12.285101929525306" Properties=species:S:1:pos:R:3:spacegroup_kinds:I:1:forces:R:3 spacegroup="P 1" unit_cell=conventional occupancy="_JSON {\"0\": {\"Cs\": 1.0}, \"1\": {\"Pb\": 1.0}, \"2\": {\"I\": 1.0}, \"3\": {\"I\": 1.0}, \"4\": {\"I\": 1.0}, \"5\": {\"Cs\": 1.0}, \"6\": {\"Pb\": 1.0}, \"7\": {\"Cl\": 1.0}, \"8\": {\"Cl\": 1.0}, \"9\": {\"I\": 1.0}, \"10\": {\"Cs\": 1.0}, \"11\": {\"Pb\": 1.0}, \"12\": {\"Cl\": 1.0}, \"13\": {\"Cl\": 1.0}, \"14\": {\"I\": 1.0}, \"15\": {\"Cs\": 1.0}, \"16\": {\"Pb\": 1.0}, \"17\": {\"I\": 1.0}, \"18\": {\"Cl\": 1.0}, \"19\": {\"I\": 1.0}, \"20\": {\"Cs\": 1.0}, \"21\": {\"Pb\": 1.0}, \"22\": {\"I\": 1.0}, \"23\": {\"I\": 1.0}, \"24\": {\"Cl\": 1.0}, \"25\": {\"Cs\": 1.0}, \"26\": {\"Pb\": 1.0}, \"27\": {\"Cl\": 1.0}, \"28\": {\"I\": 1.0}, \"29\": {\"Cl\": 1.0}, \"30\": {\"Cs\": 1.0}, \"31\": {\"Pb\": 1.0}, \"32\": {\"I\": 1.0}, \"33\": {\"Cl\": 1.0}, \"34\": {\"Cl\": 1.0}, \"35\": {\"Cs\": 1.0}, \"36\": {\"Pb\": 1.0}, \"37\": {\"I\": 1.0}, \"38\": {\"Cl\": 1.0}, \"39\": {\"Cl\": 1.0}}" candidate_id=1914be35ffa68b77 formula=FAPbCl0.5I0.53 config_index=1 rattle_stdev=0.08 method=PBE fidelity=phase2_force energy=-125.77610369035786 stress="-0.0007072286024189585 -0.00011737639201609 -0.00018778184907600304 -0.00011737639201609 -8.73270857731152e-05 -0.00022004930049773232 -0.00018778184907600304 -0.00022004930049773232 -0.004030619582191301" pbc="T T T"
Cs      -0.04012595      -0.05297368      12.23176611        0      -0.06005134       0.03083299       0.05041313
Pb       3.13789721       3.09206865       3.22143964        1       0.32822647       0.39258246       0.19289391
I        3.33215574       3.23140751       0.07166530        2      -0.19454943      -0.19608664      -0.06645549
I        3.25830103      -0.01796602       2.98416095        3      -0.01236101       0.00550995       0.01532826
I       -0.08292384       3.21034740       3.40056556        4       0.48083817      -0.01240305       0.01869940
Cs      -0.05911949      12.06741502       6.24760544        5       0.01914552      -0.00452593      -0.08682949
Pb       3.27947770       3.01826726       9.11130701        6       0.09461676      -0.09547381      -0.13482002
Cl       3.18329398       3.11682469       6.25393993        7       0.04116909      -0.01036786      -0.06241951
Cl       3.26195648       0.11001441       9.29885549        8       0.04620575      -0.12693081      -0.05055219
I       -0.00320448       3.08568156       8.91049736        9       0.16168640      -0.02143513       0.06545777
Cs       0.06620196       5.97222843      12.21465999       10      -0.02564701      -0.04044270       0.06039181
Pb       3.06747804       8.83805187       2.75842002       11       0.76743283      -0.32952202      -0.09867863
Cl       3.36426055       8.84636273      12.22366975       12      -0.08047994       0.02131445      -0.02672200
Cl       3.16819784       5.96707412       2.93026261       13      -0.03529217       0.02605668       0.02865786
I        0.12231331       8.82385736       3.01775166       14      -0.68138560       0.00616339       0.02504694
Cs       0.16385440       6.03039475       6.31230555       15       0.00876461       0.00244022      -0.07378527
Pb       3.31940881       8.89957020       9.16750042       16       0.26770165      -0.01699591       0.41291636
I        3.25642435       8.87050135       6.10687712       17      -0.03176470       0.03347344      -0.09074490
Cl       3.33575106       5.94535754       9.29958566       18      -0.04507989       0.28137911      -0.07400038
I        0.03169825       8.91249124       9.33291861       19       0.32720843       0.02505727      -0.00586104
Cs       5.95059422      11.91011577      12.16600311       20       0.03300098      -0.03510076      -0.00450658
Pb       8.94532186       3.24192444       3.36262152       21      -0.43527266      -0.23499779      -0.50077544
I        8.93565722       3.15278120      12.40380440       22       0.06993662       0.00202281      -0.37632054
I        8.97551872       0.03818906       3.13144574       23       0.01282094      -0.11702428       0.10314422
Cl       6.11328789       3.30911371       3.30195198       24      -0.37958626      -0.02499612       0.09517045
Cs       5.98492273       0.14363364       6.40465196       25      -0.04878924       0.05122126      -0.06740741
Pb       9.00132679       3.21267907       8.90726666       26      -0.27186882       0.35510486       0.35156787
Cl       8.76247350       3.37328848       6.11138658       27       0.00312926      -0.02428820       0.41938272
I        8.88553018       0.07926848       9.10756635       28       0.05598015      -0.15609714       0.00635899
Cl       6.08808482       3.14337894       8.95400273       29      -0.08607334      -0.05003857      -0.04340044
Cs       5.80393865       6.00970378      12.22191351       30       0.17892979       0.15448091       0.05169542
Pb       8.79972784       8.71746706       2.96701691       31      -0.13649709       0.30365510       0.67137822
I        8.98894742       8.87756658      12.39380527       32       0.05652537       0.02841810      -0.83617054
Cl       8.85149791       6.00380352       3.04438143       33       0.03520335       0.00467153       0.01816924
Cl       6.05018094       8.72463291       2.98644060       34       0.07353024      -0.01588953      -0.03928239
Cs       5.88540737       5.78538293       6.23565028       35       0.05190161      -0.05756478      -0.05065448
Pb       9.11150860       8.93598881       8.99788554       36      -0.39688521      -0.26822467       1.83293296
I        8.82044196       8.78411933       6.28817642       37      -0.10662562      -0.02654683      -1.77893192
Cl       8.89982068       5.99929028       8.97319442       38       0.05431526       0.10374590       0.04229202
Cl       6.10887370       8.94473800       9.32611608       39      -0.14144826       0.03915839       0.00691687
40
Lattice="12.14527873572376 0.0 0.0 0.0024432270926038023 12.007874515381541 0.0 0.00048302955381502086 -0.006273379969350322 12.285101929525306" Properties=species:S:1:pos:R:3:spacegroup_kinds:I:1:forces:R:3 spacegroup="P 1" unit_cell=conventional occupancy="_JSON {\"0\": {\"Cs\": 1.0}, \"1\": {\"Pb\": 1.0}, \"2\": {\"I\": 1.0}, \"3\": {\"I\": 1.0}, \"4\": {\"I\": 1.0}, \"5\": {\"Cs\": 1.0}, \"6\": {\"Pb\": 1.0}, \"7\": {\"Cl\": 1.0}, \"8\": {\"Cl\": 1.0}, \"9\": {\"I\": 1.0}, \"10\": {\"Cs\": 1.0}, \"11\": {\"Pb\": 1.0}, \"12\": {\"Cl\": 1.0}, \"13\": {\"Cl\": 1.0}, \"14\": {\"I\": 1.0}, \"15\": {\"Cs\": 1.0}, \"16\": {\"Pb\": 1.0}, \"17\": {\"I\": 1.0}, \"18\": {\"Cl\": 1.0}, \"19\": {\"I\": 1.0}, \"20\": {\"Cs\": 1.0}, \"21\": {\"Pb\": 1.0}, \"22\": {\"I\": 1.0}, \"23\": {\"I\": 1.0}, \"24\": {\"Cl\": 1.0}, \"25\": {\"Cs\": 1.0}, \"26\": {\"Pb\": 1.0}, \"27\": {\"Cl\": 1.0}, \"28\": {\"I\": 1.0}, \"29\": {\"Cl\": 1.0}, \"30\": {\"Cs\": 1.0}, \"31\": {\"Pb\": 1.0}, \"32\": {\"I\": 1.0}, \"33\": {\"Cl\": 1.0}, \"34\": {\"Cl\": 1.0}, \"35\": {\"Cs\": 1.0}, \"36\": {\"Pb\": 1.0}, \"37\": {\"I\": 1.0}, \"38\": {\"Cl\": 1.0}, \"39\": {\"Cl\": 1.0}}" candidate_id=1914be35ffa68b77 formula=FAPbCl0.5I0.53 config_index=2 rattle_stdev=0.08 method=PBE fidelity=phase2_force energy=-125.96324498574712 stress="-0.0002219172076958858 8.503438113592947e-06 6.575504090827976e-05 8.503438113592947e-06 -0.00017328562015074984 4.291424286269678e-06 6.575504090827976e-05 4.291424286269678e-06 -0.001647768251333377" pbc="T T T"
Cs       0.03777272      -0.06741359      12.39907221        0      -0.00601354      -0.01905739      -0.05079845
Pb       3.12853324       3.16248984       3.17198607        1       0.72707054       0.38502847       0.21986438
I        3.25758940       3.01351889      -0.02266196        2      -0.09926900       0.02009280      -0.07781199
I        3.28389775       0.09479205       2.93197091        3      -0.03063591      -0.69120746       0.02926633
I        0.15137787       3.25675583       3.29604156        4      -0.83232874      -0.02368101      -0.02270572
Cs       0.03943819      11.89126652       6.12409720        5      -0.03136889      -0.04814424       0.02840374
Pb       3.19046215       3.14699479       9.00205887        6       0.48849654       0.12113831      -0.06549331
Cl       3.25087583       3.13810116       6.16006754        7      -0.01711275      -0.07393094       0.00459842
Cl       3.22575980      -0.12816379       9.29626367        8       0.04650597       0.00250888       0.00595019
I        0.05092941       3.04307710       8.80452420        9      -0.11391846      -0.01033598       0.05290184
Cs       0.03063442       5.88603477      12.26209520       10       0.01863313       0.01189878      -0.00373535
Pb       3.20209487       8.87568451       2.86952694       11       0.26291305      -0.28637727       0.11412667
Cl       3.26745550       8.77217386      12.23546472       12       0.01356633       0.01777580       0.27211620
Cl       3.36683358       5.92255223       3.23429517       13      -0.08154410       0.52316880      -0.10750933
I       -0.10814605       8.76677435       2.96202981       14       0.54953725       0.02179097       0.00838628
Cs       0.05882596       6.03050139       6.18345923       15      -0.03334820       0.06516673      -0.01825819
Pb       3.23549490       9.06771573       9.37812469       16       0.01016905      -0.06405096      -0.08261939
I        3.29229681       8.85889119       6.19854149       17      -0.08345834       0.09354420      -0.27215492
Cl       3.41673257       5.93024354       9.18483187       18      -0.08888070      -0.14063011       0.02034702
I        0.10573658       8.69871045       9.35102489       19      -0.01943356       0.04571572       0.01042236
Cs       6.03932209      11.81072179      12.20181396       20      -0.01373492      -0.00011125      -0.03909165
Pb       8.84737613       3.01306498       3.27190565       21      -0.31765449       0.61440923       0.18615232
I        8.77382199       3.26147058      12.23950491       22       0.09418359      -0.01219729       0.11534451
I        8.96680155      -0.07070952       3.18401943       23       0.01983583       0.07630422       0.00026486
Cl       6.05029100       3.43629972       3.34171184       24       0.31028306      -0.22995133      -0.02660886
Cs       5.89087874       0.03906114       6.29701275       25       0.05232028       0.06110904       0.03867813
Pb       9.00866072       3.21778653       9.07272232       26      -0.47645909      -0.00856167      -0.24477130
Cl       8.74370685       3.31443595       6.13523297       27       0.11584372      -0.12636815      -0.06046465
I        8.96859524      -0.08454654       9.25356821       28       0.03511002       0.54424194      -0.00373652
Cl       6.09827872       3.17906398       8.87039969       29       0.01907291      -0.10715505       0.03282300
Cs       5.82192632       6.03436229      12.21288578       30       0.01624287       0.01768504       0.02532844
Pb       8.90504764       8.69995774       2.89517824       31      -0.32412257      -0.20354775       1.03886554
I        9.00439931       8.77163773      12.26690136       32       0.05820989      -0.02913795      -0.11041815
Cl       8.68363880       5.99243116       3.27067988       33       0.10988833      -0.17023496      -0.07520501
Cl       6.09590215       8.89978633       2.91926269       34      -0.44633854       0.05233874      -0.13641401
Cs       5.99078454       5.75706269       6.25428489       35       0.05223095      -0.00796916      -0.06447741
Pb       8.83615484       8.78740190       9.24439442       36       0.32049482       0.10351583      -0.50599336
I        8.82136323       8.80648365       6.21231907       37       0.06240401       0.11580659      -0.41398131
Cl       8.83857686       6.09187378       8.97272632       38       0.05249010      -0.70204962       0.05216986
Cl       6.15340171       8.78188941       9.32306596       39      -0.41322195       0.06280420       0.12689279
40
Lattice="12.14527873572376 0.0 0.0 0.0024432270926038023 12.007874515381541 0.0 0.00048302955381502086 -0.006273379969350322 12.285101929525306" Properties=species:S:1:pos:R:3:spacegroup_kinds:I:1:forces:R:3 spacegroup="P 1" unit_cell=conventional occupancy="_JSON {\"0\": {\"Cs\": 1.0}, \"1\": {\"Pb\": 1.0}, \"2\": {\"I\": 1.0}, \"3\": {\"I\": 1.0}, \"4\": {\"I\": 1.0}, \"5\": {\"Cs\": 1.0}, \"6\": {\"Pb\": 1.0}, \"7\": {\"Cl\": 1.0}, \"8\": {\"Cl\": 1.0}, \"9\": {\"I\": 1.0}, \"10\": {\"Cs\": 1.0}, \"11\": {\"Pb\": 1.0}, \"12\": {\"Cl\": 1.0}, \"13\": {\"Cl\": 1.0}, \"14\": {\"I\": 1.0}, \"15\": {\"Cs\": 1.0}, \"16\": {\"Pb\": 1.0}, \"17\": {\"I\": 1.0}, \"18\": {\"Cl\": 1.0}, \"19\": {\"I\": 1.0}, \"20\": {\"Cs\": 1.0}, \"21\": {\"Pb\": 1.0}, \"22\": {\"I\": 1.0}, \"23\": {\"I\": 1.0}, \"24\": {\"Cl\": 1.0}, \"25\": {\"Cs\": 1.0}, \"26\": {\"Pb\": 1.0}, \"27\": {\"Cl\": 1.0}, \"28\": {\"I\": 1.0}, \"29\": {\"Cl\": 1.0}, \"30\": {\"Cs\": 1.0}, \"31\": {\"Pb\": 1.0}, \"32\": {\"I\": 1.0}, \"33\": {\"Cl\": 1.0}, \"34\": {\"Cl\": 1.0}, \"35\": {\"Cs\": 1.0}, \"36\": {\"Pb\": 1.0}, \"37\": {\"I\": 1.0}, \"38\": {\"Cl\": 1.0}, \"39\": {\"Cl\": 1.0}}" candidate_id=1914be35ffa68b77 formula=FAPbCl0.5I0.53 config_index=3 rattle_stdev=0.08 method=PBE fidelity=phase2_force energy=-125.88562294737925 stress="-0.0010679424526914083 0.00019057539518284748 -3.629448236970255e-05 0.00019057539518284748 -0.00022023064236348887 0.00010336949319723932 -3.629448236970255e-05 0.00010336949319723932 -0.0018287297092884137" pbc="T T T"
Cs      -0.05889372       0.18005176      12.26007522        0      -0.02552841       0.05558201       0.05856931
Pb       3.22607821       3.19532532       3.34954117        1      -0.25978976      -0.31379453      -0.59544601
I        3.17299221       3.12609631      -0.05665735        2      -0.00983133      -0.05950151      -0.16482454
I        3.37256143      -0.01925534       2.95301967        3      -0.00404035      -0.22116935       0.00889532
I       -0.05122725       3.08756422       3.20410059        4       0.12722246       0.03076406       0.04324605
Cs       0.05374411      11.90111462       6.10103533        5      -0.05727987       0.01754351      -0.04067367
Pb       3.26894953       2.84486788       8.93061220        6       0.01984091       0.29356243       0.49056376
Cl       3.24101907       2.94696862       6.05156637        7       0.00058989      -0.03369382       0.42751345
Cl       3.37350569      -0.10657112       9.16005040        8       0.03377864       0.37900481      -0.03191659
I       -0.10227392       3.00357542       9.16896116        9       0.49226745       0.01701142      -0.05375674
Cs       0.05547152       6.04004923      12.11023549       10       0.00177045      -0.13294245       0.04198963
Pb       3.20513323       8.71730519       2.82117449       11       0.07205704       0.33359864       0.02972802
Cl       3.41836968       8.83656958      12.21858775       12      -0.05864910      -0.04224847       0.41556572
Cl       3.29063536       5.94224165       3.17862176       13      -0.01493723       0.28848316       0.00721111
I       -0.13593298       8.83858451       2.91711326       14       0.99370459      -0.03678515      -0.00222552
Cs       0.02632093       6.03739345       6.12234379       15      -0.06936269      -0.03288901      -0.01419195
Pb       3.29547303       8.99056968       9.32080754       16      -0.12171559      -0.40435161       0.10878246
I        3.37393677       8.92385780       6.23684225       17      -0.06407098       0.03298473      -0.52922486
Cl       3.36875080       6.04256587       9.17726785       18      -0.04240590      -0.13659425      -0.03580452
I        0.01163628       8.77954986       9.33169333       19      -0.05997462       0.07018550      -0.04855098
Cs       6.05211002      11.93417388      12.08897871       20      -0.02129406      -0.00344739      -0.00552732
Pb       8.73566223       3.07738451       3.24911321       21       0.41972836       0.37957525      -0.04309442
I        8.86088654       3.27925371      12.33516122       22      -0.01255170      -0.06484855      -0.12247250
I        9.07398786      -0.01474668       3.10895602       23      -0.04463326      -0.29797358       0.00333466
Cl       6.02337891       3.33607214       3.40850360       24      -0.20743213      -0.03240697       0.08854556
Cs       5.95540220       0.18439776       6.30529416       25       0.03604114      -0.01234445      -0.03868454
Pb       8.93673007       3.15443642       8.95403408       26      -0.12341821      -0.01348818       0.06892865
Cl       8.97548594       3.19949166       6.12413773       27      -0.04802082       0.00108956       0.09258143
I        8.92368427       0.13016877       9.00724215       28      -0.00696483      -0.98594423       0.09438276
Cl       6.04903168       3.10519520       8.96527392       29      -0.30991697      -0.09433136      -0.10570860
Cs       5.85597748       6.10256690      12.26591997       30       0.03452971      -0.03818722      -0.05099415
Pb       8.89535300       8.76785876       3.13305407       31       0.13092922      -0.21486937       0.29060804
I        8.97065528       8.76224435      12.33303283       32       0.05923280       0.01931298       0.16068967
Cl       8.79502268       5.88743878       3.33365350       33       0.05894227       0.22125476       0.02999341
Cl       6.29306914       8.68093411       2.85258391       34      -1.18658161      -0.01134857      -0.07194492
Cs       6.07499653       5.88500403       6.23405613       35       0.05026982      -0.04302991       0.00892428
Pb       8.90220360       8.73956479       9.35884129       36       0.01779514       0.00070208      -0.46374312
I        8.88732085       8.77335836       6.25715947       37       0.02577082       0.04600686      -0.12097173
Cl       8.79883775       5.81544291       9.13893555       38      -0.02768340       1.00276628       0.02958900
Cl       6.04217300       8.86995975       9.45469578       39       0.20232392       0.04025958       0.04635247
