Cs Sn I  Cl Cs Sn Cl Cs Sn Cl I  Cs Sn Br Cl Br Cs Sn Cl Cs Sn Cl I  Cl Cs Sn Br Cl Cs Sn Cl
 1.0000000000000000
    12.2299774660462877    0.0000000000000000    0.0000000000000000
     0.0000000000000000   12.2299774660462877    0.0000000000000000
     0.0000000000000000    0.0000000000000000   12.2299774660462877
 Cs  Sn  I   Cl  Cs  Sn  Cl  Cs  Sn  Cl  I   Cs  Sn  Br  Cl  Br  Cs  Sn  Cl  Cs  Sn  Cl  I   Cl  Cs  Sn  Br  Cl  Cs  Sn  Cl 
   1   1   1   2   1   1   3   1   1   2   1   1   1   1   1   1   1   1   3   1   1   1   1   1   1   1   1   2   1   1   3
Cartesian
  0.0000000000000000  0.0000000000000000  0.0000000000000000
  3.0574943665115719  3.0574943665115719  3.0574943665115719
  3.0574943665115719  3.0574943665115719  0.0000000000000000
  3.0574943665115719  0.0000000000000000  3.0574943665115719
  0.0000000000000000  3.0574943665115719  3.0574943665115719
  0.0000000000000000  0.0000000000000000  6.1149887330231429
  3.0574943665115719  3.0574943665115719  9.1724830995347162
  3.0574943665115719  3.0574943665115719  6.1149887330231429
  3.0574943665115719  0.0000000000000000  9.1724830995347162
  0.0000000000000000  3.0574943665115719  9.1724830995347162
  0.0000000000000000  6.1149887330231429  0.0000000000000000
  3.0574943665115719  9.1724830995347162  3.0574943665115719
  3.0574943665115719  9.1724830995347162  0.0000000000000000
  3.0574943665115719  6.1149887330231429  3.0574943665115719
  0.0000000000000000  9.1724830995347162  3.0574943665115719
  0.0000000000000000  6.1149887330231429  6.1149887330231429
  3.0574943665115719  9.1724830995347162  9.1724830995347162
  3.0574943665115719  9.1724830995347162  6.1149887330231429
  3.0574943665115719  6.1149887330231429  9.1724830995347162
  0.0000000000000000  9.1724830995347162  9.1724830995347162
  6.1149887330231429  0.0000000000000000  0.0000000000000000
  9.1724830995347162  3.0574943665115719  3.0574943665115719
  9.1724830995347162  3.0574943665115719  0.0000000000000000
  9.1724830995347162  0.0000000000000000  3.0574943665115719
  6.1149887330231429  3.0574943665115719  3.0574943665115719
  6.1149887330231429  0.0000000000000000  6.1149887330231429
  9.1724830995347162  3.0574943665115719  9.1724830995347162
  9.1724830995347162  3.0574943665115719  6.1149887330231429
  9.1724830995347162  0.0000000000000000  9.1724830995347162
  6.1149887330231429  3.0574943665115719  9.1724830995347162
  6.1149887330231429  6.1149887330231429  0.0000000000000000
  9.1724830995347162  9.1724830995347162  3.0574943665115719
  9.1724830995347162  9.1724830995347162  0.0000000000000000
  9.1724830995347162  6.1149887330231429  3.0574943665115719
  6.1149887330231429  9.1724830995347162  3.0574943665115719
  6.1149887330231429  6.1149887330231429  6.1149887330231429
  9.1724830995347162  9.1724830995347162  9.1724830995347162
  9.1724830995347162  9.1724830995347162  6.1149887330231429
  9.1724830995347162  6.1149887330231429  9.1724830995347162
  6.1149887330231429  9.1724830995347162  9.1724830995347162
