Cs Pb I  Cs Pb I  Cs Pb Cl I  Cs Pb I  Cl I  Cs Pb I  Cl Cs Pb I  Cs Pb I  Cl I  Cs Pb I  Cl
 1.0000000000000000
    13.1615199395814439    0.0000000000000000    0.0000000000000000
     0.0000000000000000   13.1615199395814439    0.0000000000000000
     0.0000000000000000    0.0000000000000000   13.1615199395814439
 Cs  Pb  I   Cs  Pb  I   Cs  Pb  Cl  I   Cs  Pb  I   Cl  I   Cs  Pb  I   Cl  Cs  Pb  I   Cs  Pb  I   Cl  I   Cs  Pb  I   Cl 
   1   1   3   1   1   3   1   1   2   1   1   1   1   1   1   1   1   2   1   1   1   3   1   1   1   1   1   1   1   2   1
Cartesian
  0.0000000000000000  0.0000000000000000  0.0000000000000000
  3.2903799848953610  3.2903799848953610  3.2903799848953610
  3.2903799848953610  3.2903799848953610  0.0000000000000000
  3.2903799848953610  0.0000000000000000  3.2903799848953610
  0.0000000000000000  3.2903799848953610  3.2903799848953610
  0.0000000000000000  0.0000000000000000  6.5807599697907211
  3.2903799848953610  3.2903799848953610  9.8711399546860825
  3.2903799848953610  3.2903799848953610  6.5807599697907211
  3.2903799848953610  0.0000000000000000  9.8711399546860825
  0.0000000000000000  3.2903799848953610  9.8711399546860825
  0.0000000000000000  6.5807599697907211  0.0000000000000000
  3.2903799848953610  9.8711399546860825  3.2903799848953610
  3.2903799848953610  9.8711399546860825  0.0000000000000000
  3.2903799848953610  6.5807599697907211  3.2903799848953610
  0.0000000000000000  9.8711399546860825  3.2903799848953610
  0.0000000000000000  6.5807599697907211  6.5807599697907211
  3.2903799848953610  9.8711399546860825  9.8711399546860825
  3.2903799848953610  9.8711399546860825  6.5807599697907211
  3.2903799848953610  6.5807599697907211  9.8711399546860825
  0.0000000000000000  9.8711399546860825  9.8711399546860825
  6.5807599697907211  0.0000000000000000  0.0000000000000000
  9.8711399546860825  3.2903799848953610  3.2903799848953610
  9.8711399546860825  3.2903799848953610  0.0000000000000000
  9.8711399546860825  0.0000000000000000  3.2903799848953610
  6.5807599697907211  3.2903799848953610  3.2903799848953610
  6.5807599697907211  0.0000000000000000  6.5807599697907211
  9.8711399546860825  3.2903799848953610  9.8711399546860825
  9.8711399546860825  3.2903799848953610  6.5807599697907211
  9.8711399546860825  0.0000000000000000  9.8711399546860825
  6.5807599697907211  3.2903799848953610  9.8711399546860825
  6.5807599697907211  6.5807599697907211  0.0000000000000000
  9.8711399546860825  9.8711399546860825  3.2903799848953610
  9.8711399546860825  9.8711399546860825  0.0000000000000000
  9.8711399546860825  6.5807599697907211  3.2903799848953610
  6.5807599697907211  9.8711399546860825  3.2903799848953610
  6.5807599697907211  6.5807599697907211  6.5807599697907211
  9.8711399546860825  9.8711399546860825  9.8711399546860825
  9.8711399546860825  9.8711399546860825  6.5807599697907211
  9.8711399546860825  6.5807599697907211  9.8711399546860825
  6.5807599697907211  9.8711399546860825  9.8711399546860825
