Cs Pb I  Cs Pb I  Cs Sn I  Cs Sn I  Cs Sn I  Cs Pb I  Cs Sn I  Cs Sn I 
 1.0000000000000000
    13.5372764831039767    0.0000000000000000    0.0000000000000000
     0.0000000000000000   13.5372764831039767    0.0000000000000000
     0.0000000000000000    0.0000000000000000   13.5372764831039767
 Cs  Pb  I   Cs  Pb  I   Cs  Sn  I   Cs  Sn  I   Cs  Sn  I   Cs  Pb  I   Cs  Sn  I   Cs  Sn  I  
   1   1   3   1   1   3   1   1   3   1   1   3   1   1   3   1   1   3   1   1   3   1   1   3
Cartesian
  0.0000000000000000  0.0000000000000000  0.0000000000000000
  3.3843191207759933  3.3843191207759933  3.3843191207759933
  3.3843191207759933  3.3843191207759933  0.0000000000000000
  3.3843191207759933  0.0000000000000000  3.3843191207759933
  0.0000000000000000  3.3843191207759933  3.3843191207759933
  0.0000000000000000  0.0000000000000000  6.7686382415519875
  3.3843191207759933  3.3843191207759933 10.1529573623279816
  3.3843191207759933  3.3843191207759933  6.7686382415519875
  3.3843191207759933  0.0000000000000000 10.1529573623279816
  0.0000000000000000  3.3843191207759933 10.1529573623279816
  0.0000000000000000  6.7686382415519875  0.0000000000000000
  3.3843191207759933 10.1529573623279816  3.3843191207759933
  3.3843191207759933 10.1529573623279816  0.0000000000000000
  3.3843191207759933  6.7686382415519875  3.3843191207759933
  0.0000000000000000 10.1529573623279816  3.3843191207759933
  0.0000000000000000  6.7686382415519875  6.7686382415519875
  3.3843191207759933 10.1529573623279816 10.1529573623279816
  3.3843191207759933 10.1529573623279816  6.7686382415519875
  3.3843191207759933  6.7686382415519875 10.1529573623279816
  0.0000000000000000 10.1529573623279816 10.1529573623279816
  6.7686382415519875  0.0000000000000000  0.0000000000000000
 10.1529573623279816  3.3843191207759933  3.3843191207759933
 10.1529573623279816  3.3843191207759933  0.0000000000000000
 10.1529573623279816  0.0000000000000000  3.3843191207759933
  6.7686382415519875  3.3843191207759933  3.3843191207759933
  6.7686382415519875  0.0000000000000000  6.7686382415519875
 10.1529573623279816  3.3843191207759933 10.1529573623279816
 10.1529573623279816  3.3843191207759933  6.7686382415519875
 10.1529573623279816  0.0000000000000000 10.1529573623279816
  6.7686382415519875  3.3843191207759933 10.1529573623279816
  6.7686382415519875  6.7686382415519875  0.0000000000000000
 10.1529573623279816 10.1529573623279816  3.3843191207759933
 10.1529573623279816 10.1529573623279816  0.0000000000000000
 10.1529573623279816  6.7686382415519875  3.3843191207759933
  6.7686382415519875 10.1529573623279816  3.3843191207759933
  6.7686382415519875  6.7686382415519875  6.7686382415519875
 10.1529573623279816 10.1529573623279816 10.1529573623279816
 10.1529573623279816 10.1529573623279816  6.7686382415519875
 10.1529573623279816  6.7686382415519875 10.1529573623279816
  6.7686382415519875 10.1529573623279816 10.1529573623279816
