Rb Sn I  Rb Sn I  Rb Sn I  Rb Ge I  Rb Sn I  Rb Sn I  Rb Ge I  Rb Sn I 
 1.0000000000000000
    12.9896929917531150    0.0000000000000000    0.0000000000000000
     0.0000000000000000   12.9896929917531150    0.0000000000000000
     0.0000000000000000    0.0000000000000000   12.9896929917531150
 Rb  Sn  I   Rb  Sn  I   Rb  Sn  I   Rb  Ge  I   Rb  Sn  I   Rb  Sn  I   Rb  Ge  I   Rb  Sn  I  
   1   1   3   1   1   3   1   1   3   1   1   3   1   1   3   1   1   3   1   1   3   1   1   3
Cartesian
  0.0000000000000000  0.0000000000000000  0.0000000000000000
  3.2474232479382779  3.2474232479382779  3.2474232479382779
  3.2474232479382779  3.2474232479382779  0.0000000000000000
  3.2474232479382779  0.0000000000000000  3.2474232479382779
  0.0000000000000000  3.2474232479382779  3.2474232479382779
  0.0000000000000000  0.0000000000000000  6.4948464958765566
  3.2474232479382779  3.2474232479382779  9.7422697438148340
  3.2474232479382779  3.2474232479382779  6.4948464958765566
  3.2474232479382779  0.0000000000000000  9.7422697438148340
  0.0000000000000000  3.2474232479382779  9.7422697438148340
  0.0000000000000000  6.4948464958765566  0.0000000000000000
  3.2474232479382779  9.7422697438148340  3.2474232479382779
  3.2474232479382779  9.7422697438148340  0.0000000000000000
  3.2474232479382779  6.4948464958765566  3.2474232479382779
  0.0000000000000000  9.7422697438148340  3.2474232479382779
  0.0000000000000000  6.4948464958765566  6.4948464958765566
  3.2474232479382779  9.7422697438148340  9.7422697438148340
  3.2474232479382779  9.7422697438148340  6.4948464958765566
  3.2474232479382779  6.4948464958765566  9.7422697438148340
  0.0000000000000000  9.7422697438148340  9.7422697438148340
  6.4948464958765566  0.0000000000000000  0.0000000000000000
  9.7422697438148340  3.2474232479382779  3.2474232479382779
  9.7422697438148340  3.2474232479382779  0.0000000000000000
  9.7422697438148340  0.0000000000000000  3.2474232479382779
  6.4948464958765566  3.2474232479382779  3.2474232479382779
  6.4948464958765566  0.0000000000000000  6.4948464958765566
  9.7422697438148340  3.2474232479382779  9.7422697438148340
  9.7422697438148340  3.2474232479382779  6.4948464958765566
  9.7422697438148340  0.0000000000000000  9.7422697438148340
  6.4948464958765566  3.2474232479382779  9.7422697438148340
  6.4948464958765566  6.4948464958765566  0.0000000000000000
  9.7422697438148340  9.7422697438148340  3.2474232479382779
  9.7422697438148340  9.7422697438148340  0.0000000000000000
  9.7422697438148340  6.4948464958765566  3.2474232479382779
  6.4948464958765566  9.7422697438148340  3.2474232479382779
  6.4948464958765566  6.4948464958765566  6.4948464958765566
  9.7422697438148340  9.7422697438148340  9.7422697438148340
  9.7422697438148340  9.7422697438148340  6.4948464958765566
  9.7422697438148340  6.4948464958765566  9.7422697438148340
  6.4948464958765566  9.7422697438148340  9.7422697438148340
