Cs Sn I  Cs Sn I  Cs Sn I  Cs Sn I  Cs Sn I  Cs Sn I  Cs Ge I  Cs Sn I 
 1.0000000000000000
    13.2018250261090788    0.0000000000000000    0.0000000000000000
     0.0000000000000000   13.2018250261090788    0.0000000000000000
     0.0000000000000000    0.0000000000000000   13.2018250261090788
 Cs  Sn  I   Cs  Sn  I   Cs  Sn  I   Cs  Sn  I   Cs  Sn  I   Cs  Sn  I   Cs  Ge  I   Cs  Sn  I  
   1   1   3   1   1   3   1   1   3   1   1   3   1   1   3   1   1   3   1   1   3   1   1   3
Cartesian
  0.0000000000000000  0.0000000000000000  0.0000000000000000
  3.3004562565272688  3.3004562565272688  3.3004562565272688
  3.3004562565272688  3.3004562565272688  0.0000000000000000
  3.3004562565272688  0.0000000000000000  3.3004562565272688
  0.0000000000000000  3.3004562565272688  3.3004562565272688
  0.0000000000000000  0.0000000000000000  6.6009125130545385
  3.3004562565272688  3.3004562565272688  9.9013687695818096
  3.3004562565272688  3.3004562565272688  6.6009125130545385
  3.3004562565272688  0.0000000000000000  9.9013687695818096
  0.0000000000000000  3.3004562565272688  9.9013687695818096
  0.0000000000000000  6.6009125130545385  0.0000000000000000
  3.3004562565272688  9.9013687695818096  3.3004562565272688
  3.3004562565272688  9.9013687695818096  0.0000000000000000
  3.3004562565272688  6.6009125130545385  3.3004562565272688
  0.0000000000000000  9.9013687695818096  3.3004562565272688
  0.0000000000000000  6.6009125130545385  6.6009125130545385
  3.3004562565272688  9.9013687695818096  9.9013687695818096
  3.3004562565272688  9.9013687695818096  6.6009125130545385
  3.3004562565272688  6.6009125130545385  9.9013687695818096
  0.0000000000000000  9.9013687695818096  9.9013687695818096
  6.6009125130545385  0.0000000000000000  0.0000000000000000
  9.9013687695818096  3.3004562565272688  3.3004562565272688
  9.9013687695818096  3.3004562565272688  0.0000000000000000
  9.9013687695818096  0.0000000000000000  3.3004562565272688
  6.6009125130545385  3.3004562565272688  3.3004562565272688
  6.6009125130545385  0.0000000000000000  6.6009125130545385
  9.9013687695818096  3.3004562565272688  9.9013687695818096
  9.9013687695818096  3.3004562565272688  6.6009125130545385
  9.9013687695818096  0.0000000000000000  9.9013687695818096
  6.6009125130545385  3.3004562565272688  9.9013687695818096
  6.6009125130545385  6.6009125130545385  0.0000000000000000
  9.9013687695818096  9.9013687695818096  3.3004562565272688
  9.9013687695818096  9.9013687695818096  0.0000000000000000
  9.9013687695818096  6.6009125130545385  3.3004562565272688
  6.6009125130545385  9.9013687695818096  3.3004562565272688
  6.6009125130545385  6.6009125130545385  6.6009125130545385
  9.9013687695818096  9.9013687695818096  9.9013687695818096
  9.9013687695818096  9.9013687695818096  6.6009125130545385
  9.9013687695818096  6.6009125130545385  9.9013687695818096
  6.6009125130545385  9.9013687695818096  9.9013687695818096
