40
Lattice="12.561737952006485 0.0 0.0 0.0 12.565127923795213 0.0 0.0 -8.011953347229359e-14 12.56173795200644" Properties=species:S:1:pos:R:3:spacegroup_kinds:I:1:forces:R:3 spacegroup="P 1" unit_cell=conventional occupancy="_JSON {\"0\": {\"Cs\": 1.0}, \"1\": {\"Pb\": 1.0}, \"2\": {\"I\": 1.0}, \"3\": {\"I\": 1.0}, \"4\": {\"I\": 1.0}, \"5\": {\"Cs\": 1.0}, \"6\": {\"Pb\": 1.0}, \"7\": {\"I\": 1.0}, \"8\": {\"I\": 1.0}, \"9\": {\"I\": 1.0}, \"10\": {\"Cs\": 1.0}, \"11\": {\"Pb\": 1.0}, \"12\": {\"I\": 1.0}, \"13\": {\"I\": 1.0}, \"14\": {\"I\": 1.0}, \"15\": {\"Cs\": 1.0}, \"16\": {\"Ge\": 1.0}, \"17\": {\"I\": 1.0}, \"18\": {\"I\": 1.0}, \"19\": {\"I\": 1.0}, \"20\": {\"Cs\": 1.0}, \"21\": {\"Pb\": 1.0}, \"22\": {\"I\": 1.0}, \"23\": {\"I\": 1.0}, \"24\": {\"I\": 1.0}, \"25\": {\"Cs\": 1.0}, \"26\": {\"Pb\": 1.0}, \"27\": {\"I\": 1.0}, \"28\": {\"I\": 1.0}, \"29\": {\"I\": 1.0}, \"30\": {\"Cs\": 1.0}, \"31\": {\"Ge\": 1.0}, \"32\": {\"I\": 1.0}, \"33\": {\"I\": 1.0}, \"34\": {\"I\": 1.0}, \"35\": {\"Cs\": 1.0}, \"36\": {\"Pb\": 1.0}, \"37\": {\"I\": 1.0}, \"38\": {\"I\": 1.0}, \"39\": {\"I\": 1.0}}" candidate_id=874e98faed500766 formula=CsGe0.28Pb0.72I3 config_index=0 rattle_stdev=0.0 method=PBE fidelity=phase2_force energy=-112.63005232387427 stress="-0.0010696968751206304 -1.4146458903277683e-31 1.1071271161001559e-10 -1.4146458903277683e-31 -0.0010900921817792806 -6.952674652156563e-18 1.1071271161001559e-10 -6.952674652156563e-18 -0.0010696968751206383" pbc="T T T"
Cs       0.00000000      12.48612857       0.00000000        0       0.00000000      -0.00505035       0.00000000
Pb       3.14043449       3.14128198       3.14043449        1       0.00024335       0.00022849       0.00024335
I        3.14043449       3.14128198      12.55525382        2      -0.00000605      -0.00000470       0.01497883
I        3.14043449      12.54940821       3.14043449        3      -0.00000505       0.00264212      -0.00000505
I       12.55525382       3.14128198       3.14043449        4       0.01497883      -0.00000470      -0.00000605
Cs      12.56173795      12.48612857       6.28086898        5       0.00000000      -0.00504760       0.00000000
Pb       3.14043449       3.14128198       9.42130346        6       0.00026838      -0.00000452      -0.00026838
I        3.14043449       3.14128198       6.28735310        7      -0.00000370      -0.00000378      -0.01498592
I        3.14043449      12.40169085       9.42130346        8      -0.00000661       0.22587432       0.00000661
I        0.00648413       3.14128198       9.42130346        9      -0.01497883      -0.00000470       0.00000605
Cs      12.56173795       6.36156332       0.00000000       10       0.00000000       0.00504010      -0.00000000
Pb       3.14043449       9.42384594       3.14043449       11       0.00001353      -0.00029492       0.00001353
I        3.14043449       9.42384594      12.40782023       12      -0.00000617       0.00000685       0.25177492
I        3.14043449       6.29828367       3.14043449       13      -0.00000409      -0.00265901      -0.00000409
I       12.40782023       9.42384594       3.14043449       14       0.25177492       0.00000685      -0.00000617
Cs       0.00000000       6.36156332       6.28086898       15       0.00000000       0.00503686       0.00000000
Ge       3.14043449       9.42384594       9.42130346       16      -0.00002390       0.00002895       0.00002390
I        3.14043449       9.42384594       6.43478670       17      -0.00000440       0.00000561      -0.25181201
I        3.14043449       6.44600103       9.42130346       18      -0.00000545      -0.22591849       0.00000545
I        0.15391772       9.42384594       9.42130346       19      -0.25177492       0.00000685       0.00000617
Cs       6.28086898      12.48612857       0.00000000       20      -0.00000000      -0.00504760      -0.00000000
Pb       9.42130346       3.14128198       3.14043449       21      -0.00026838      -0.00000452       0.00026838
I        9.42130346       3.14128198       0.00648413       22       0.00000605      -0.00000470      -0.01497883
I        9.42130346      12.40169085       3.14043449       23       0.00000661       0.22587432      -0.00000661
I        6.28735310       3.14128198       3.14043449       24      -0.01498592      -0.00000378      -0.00000370
Cs       6.28086898      12.48612857       6.28086898       25       0.00000000      -0.00504378       0.00000000
Pb       9.42130346       3.14128198       9.42130346       26      -0.00024335       0.00022849      -0.00024335
I        9.42130346       3.14128198       6.27438485       27       0.00000370      -0.00000378       0.01498592
I        9.42130346      12.54940821       9.42130346       28       0.00000505       0.00264212       0.00000505
I        6.27438485       3.14128198       9.42130346       29       0.01498592      -0.00000378       0.00000370
Cs       6.28086898       6.36156332       0.00000000       30       0.00000000       0.00503686       0.00000000
Ge       9.42130346       9.42384594       3.14043449       31       0.00002390       0.00002895      -0.00002390
I        9.42130346       9.42384594       0.15391772       32       0.00000617       0.00000685      -0.25177492
I        9.42130346       6.44600103       3.14043449       33       0.00000545      -0.22591849      -0.00000545
I        6.43478670       9.42384594       3.14043449       34      -0.25181201       0.00000561      -0.00000440
Cs       6.28086898       6.36156332       6.28086898       35       0.00000000       0.00503336       0.00000000
Pb       9.42130346       9.42384594       9.42130346       36      -0.00001353      -0.00029492      -0.00001353
I        9.42130346       9.42384594       6.12695125       37       0.00000440       0.00000561       0.25181201
I        9.42130346       6.29828367       9.42130346       38       0.00000409      -0.00265901       0.00000409
I        6.12695125       9.42384594       9.42130346       39       0.25181201       0.00000561       0.00000440
40
Lattice="12.561737952006485 0.0 0.0 0.0 12.565127923795213 0.0 0.0 -8.011953347229359e-14 12.56173795200644" Properties=species:S:1:pos:R:3:spacegroup_kinds:I:1:forces:R:3 spacegroup="P 1" unit_cell=conventional occupancy="_JSON {\"0\": {\"Cs\": 1.0}, \"1\": {\"Pb\": 1.0}, \"2\": {\"I\": 1.0}, \"3\": {\"I\": 1.0}, \"4\": {\"I\": 1.0}, \"5\": {\"Cs\": 1.0}, \"6\": {\"Pb\": 1.0}, \"7\": {\"I\": 1.0}, \"8\": {\"I\": 1.0}, \"9\": {\"I\": 1.0}, \"10\": {\"Cs\": 1.0}, \"11\": {\"Pb\": 1.0}, \"12\": {\"I\": 1.0}, \"13\": {\"I\": 1.0}, \"14\": {\"I\": 1.0}, \"15\": {\"Cs\": 1.0}, \"16\": {\"Ge\": 1.0}, \"17\": {\"I\": 1.0}, \"18\": {\"I\": 1.0}, \"19\": {\"I\": 1.0}, \"20\": {\"Cs\": 1.0}, \"21\": {\"Pb\": 1.0}, \"22\": {\"I\": 1.0}, \"23\": {\"I\": 1.0}, \"24\": {\"I\": 1.0}, \"25\": {\"Cs\": 1.0}, \"26\": {\"Pb\": 1.0}, \"27\": {\"I\": 1.0}, \"28\": {\"I\": 1.0}, \"29\": {\"I\": 1.0}, \"30\": {\"Cs\": 1.0}, \"31\": {\"Ge\": 1.0}, \"32\": {\"I\": 1.0}, \"33\": {\"I\": 1.0}, \"34\": {\"I\": 1.0}, \"35\": {\"Cs\": 1.0}, \"36\": {\"Pb\": 1.0}, \"37\": {\"I\": 1.0}, \"38\": {\"I\": 1.0}, \"39\": {\"I\": 1.0}}" candidate_id=874e98faed500766 formula=CsGe0.28Pb0.72I3 config_index=1 rattle_stdev=0.08 method=PBE fidelity=phase2_force energy=-112.32504737481914 stress="-0.002469818021409004 6.811733632615239e-05 -4.775868466542983e-06 6.811733632615239e-05 -0.0017457214655607531 -7.075236860687796e-05 -4.775868466542983e-06 -7.075236860687796e-05 -0.003077317011387231" pbc="T T T"
Cs      -0.08691571      12.41444336      -0.02450395        0      -0.00688327       0.02629306       0.03150316
Pb       3.03323980       3.04475513       3.08909634        1       0.30093161       0.29354081       0.30663534
I        3.24507014       3.28891882      12.62158302        2      -0.04798138      -0.01018886      -0.09231747
I        3.13857058      12.53272310       3.06710491        3       0.03666485       0.01278757       0.00569267
I       12.46927442       3.13439050       3.23450157        4       0.59715975      -0.00769006       0.02092492
Cs      12.43093061      12.58438409       6.36697988        5       0.04112557       0.01546227      -0.04626843
Pb       3.17201632       3.11026592       9.46837560        6       0.04711740      -0.11588274      -0.09203351
I        3.02577058       3.11539601       6.38759188        7       0.03637019       0.02709708      -0.28610916
I        3.08197508      12.51596966       9.49687578        8      -0.00594613      -0.06782273      -0.01283926
I       -0.01463609       3.12822492       9.34417488        9       0.14502399       0.00765939       0.03199675
Cs      12.53432617       6.36547564      -0.03997056       10      -0.00313200      -0.01464012       0.01868508
Pb       2.96348213       9.44863289       3.01326239       11       0.30475235      -0.30669439      -0.19367335
I        3.19879086       9.41521384      12.35580651       12      -0.04273212       0.02389834       0.36001846
I        3.00498997       6.26880575       3.01320475       13       0.01755686       0.02720621       0.07076332
I       12.52626070       9.46180116       3.21354359       14      -0.19421289      -0.00028186       0.04117938
Cs       0.07683762       6.36832672       6.41824745       15       0.01209179      -0.02362445      -0.02610401
Ge       3.20858591       9.36345512       9.23829312       16       0.26398653       0.01830833       0.20320716
I        3.14917358       9.38783329       6.40174891       17       0.00752894      -0.00073739      -0.20400062
I        3.16595319       6.40271240       9.49719678       18      -0.01090163       0.14009704      -0.07171011
I        0.16603253       9.42999814       9.41655143       19      -0.15089811       0.01998601       0.00027409
Cs       6.27525788      12.44083665       0.02488043       20       0.01141807       0.02142791       0.02335778
Pb       9.47924017       3.18259798       3.22251694       21      -0.48849202      -0.19094821      -0.51082366
I        9.46291567       3.07169490       0.12652934       22       0.03622629       0.01263081      -0.51119021
I        9.51462124      12.44104401       3.08185351       23      -0.01576459       0.13469452       0.11915188
I        6.34177759       3.18200173       3.07343159       24      -0.40413858      -0.00356458       0.04835980
Cs       6.33268056      12.48713173       6.40563610       25      -0.02996139       0.00807025      -0.03390661
Pb       9.50407109       3.16829739       9.31709463       26      -0.21873631       0.27054039       0.40133700
I        9.33181992       3.24604319       6.23292749       27      -0.04513471      -0.01979998       0.48905250
I        9.38985352      12.63284569       9.42728068       28      -0.01090642      -0.17739281       0.00622675
I        6.28153981       3.14559457       9.45477922       29       0.03747785       0.00254139      -0.00368429
Cs       6.18265057       6.27439999       0.02536995       30       0.01547999      -0.00456140       0.02330079
Ge       9.35887102       9.35535546       3.03484478       31      -0.22357428       0.17453980       0.00411927
I        9.45760600       9.50398793       0.26701650       32      -0.00955356      -0.03171489      -0.33355210
I        9.40608883       6.44840988       2.99056115       33       0.03653051      -0.09294988       0.03919491
I        6.42544455       9.41364672       3.21260923       34       0.08630301       0.00410124      -0.01072964
Cs       6.17571920       6.35359926       6.29211296       35       0.00685529      -0.01108352      -0.01107218
Pb       9.63160794       9.56430825       9.21045164       36      -0.21044056      -0.38360738       0.31545525
I        9.31837190       9.41010817       6.27098755       37       0.05925923       0.04202447      -0.18251205
I        9.46999911       6.30080572       9.30399049       38      -0.00444060       0.20324087       0.06960876
I        6.15170651       9.51522337       9.38043593       39       0.02404080      -0.02187961      -0.00242857
40
Lattice="12.561737952006485 0.0 0.0 0.0 12.565127923795213 0.0 0.0 -8.011953347229359e-14 12.56173795200644" Properties=species:S:1:pos:R:3:spacegroup_kinds:I:1:forces:R:3 spacegroup="P 1" unit_cell=conventional occupancy="_JSON {\"0\": {\"Cs\": 1.0}, \"1\": {\"Pb\": 1.0}, \"2\": {\"I\": 1.0}, \"3\": {\"I\": 1.0}, \"4\": {\"I\": 1.0}, \"5\": {\"Cs\": 1.0}, \"6\": {\"Pb\": 1.0}, \"7\": {\"I\": 1.0}, \"8\": {\"I\": 1.0}, \"9\": {\"I\": 1.0}, \"10\": {\"Cs\": 1.0}, \"11\": {\"Pb\": 1.0}, \"12\": {\"I\": 1.0}, \"13\": {\"I\": 1.0}, \"14\": {\"I\": 1.0}, \"15\": {\"Cs\": 1.0}, \"16\": {\"Ge\": 1.0}, \"17\": {\"I\": 1.0}, \"18\": {\"I\": 1.0}, \"19\": {\"I\": 1.0}, \"20\": {\"Cs\": 1.0}, \"21\": {\"Pb\": 1.0}, \"22\": {\"I\": 1.0}, \"23\": {\"I\": 1.0}, \"24\": {\"I\": 1.0}, \"25\": {\"Cs\": 1.0}, \"26\": {\"Pb\": 1.0}, \"27\": {\"I\": 1.0}, \"28\": {\"I\": 1.0}, \"29\": {\"I\": 1.0}, \"30\": {\"Cs\": 1.0}, \"31\": {\"Ge\": 1.0}, \"32\": {\"I\": 1.0}, \"33\": {\"I\": 1.0}, \"34\": {\"I\": 1.0}, \"35\": {\"Cs\": 1.0}, \"36\": {\"Pb\": 1.0}, \"37\": {\"I\": 1.0}, \"38\": {\"I\": 1.0}, \"39\": {\"I\": 1.0}}" candidate_id=874e98faed500766 formula=CsGe0.28Pb0.72I3 config_index=2 rattle_stdev=0.08 method=PBE fidelity=phase2_force energy=-112.12696245699667 stress="-0.002444517739365194 0.00011061088183417309 1.0371040486748806e-06 0.00011061088183417309 -0.0025477590890447916 -7.761420717190502e-05 1.0371040486748806e-06 -7.761420717190502e-05 -0.001980697482889112" pbc="T T T"
Cs      -0.00901704      12.40000345       0.14280215        0       0.01438914      -0.00941312      -0.05748690
Pb       3.02387582       3.11517632       3.03964277        1       0.81928327       0.28202141       0.15578005
I        3.17050381       3.07103019      12.52725576        2      -0.02752703       0.01657342      -0.06058839
I        3.16416730      12.64548117       3.01491487        3       0.00568440      -0.64951474       0.03608635
I       12.70357612       3.18079893       3.12997757        4      -1.13242657       0.03556211      -0.01128005
Cs      12.52948829      12.40823559       6.24347163        5      -0.02002768      -0.01995781       0.05005245
Pb       3.08300077       3.23899345       9.35912746        6       0.44246892       0.21318484       0.04447347
I        3.09335244       3.13667247       6.29371949        7       0.02738944      -0.09694829      -0.16957138
I        3.04577840      12.27779146       9.49428396        8       0.01206435       0.51604101      -0.00850918
I        0.03949779       3.08562046       9.23820171        9      -0.21149975      -0.01370403       0.01833729
Cs      12.49875863       6.27928198       0.00746465       10       0.03266140       0.02497491      -0.02246087
Pb       3.09809895       9.48626553       3.12436931       11       0.19325228      -0.24376659       0.01998236
I        3.10198580       9.34102497      12.36760148       12       0.02939080      -0.03402939       0.60741669
I        3.20362570       6.22428386       3.31723731       13      -0.01573246       0.54445675      -0.03944444
I       12.29580133       9.40471815       3.15782174       14       0.70239304      -0.04479459       0.02576781
Cs      -0.02819082       6.36843336       6.28940113       15       0.00408469       0.01442770       0.01815937
Ge       3.12467199       9.53160065       9.44891738       16      -0.12514014      -0.24707866      -0.09328234
I        3.18504604       9.37622313       6.49341328       17      -0.02629237       0.07143444      -0.54995156
I        3.24693470       6.38759840       9.38244300       18      -0.02088042      -0.42152675       0.03386808
I        0.24007086       9.21621735       9.43465772       19      -0.27942639       0.02669777      -0.01011640
Cs       6.36398575      12.34144266       0.06069128       20      -0.02440488       0.02991480      -0.03029402
Pb       9.38129444       2.95373853       3.13180107       21      -0.11860994       0.06251930       0.11888862
I        9.30108045       3.18038427      -0.03777015       22       0.05370895       0.04801766       0.21191351
I        9.50590407      12.33214542       3.13442720       23       0.01257579       0.48469750      -0.01285405
I        6.27878071       3.30918774       3.11319145       24       0.28672376      -0.07844238      -0.00688438
Cs       6.23863657      12.38255922       6.29799690       25       0.02468398       0.00016022       0.02552525
Pb       9.51140503       3.17340485       9.48255029       26      -0.34708434      -0.07254041      -0.27703015
I        9.31305327       3.18719066       6.25677388       27       0.04041168      -0.04347314      -0.04183297
I        9.47291858      12.46903067       9.57328255       28       0.04101728       0.53003985       0.01616402
I        6.29173371       3.18127961       9.37117618       29       0.07529615      -0.06126488       0.00103582
Cs       6.20063824       6.29905850       0.01634222       30      -0.02284636      -0.02569335      -0.00755022
Ge       9.46419082       9.33784615       2.96300611       31      -0.31681521      -0.22879000       0.36322417
I        9.47305788       9.39805908       0.14011259       32       0.00542957      -0.04528086      -0.16850453
I        9.23822972       6.43703753       3.21685959       33       0.09296010      -0.14858380      -0.07586504
I        6.47116576       9.58880014       3.14543133       34      -0.57756004       0.00251539      -0.04997279
Cs       6.28109637       6.32527901       6.31074758       35      -0.00100150      -0.00756056       0.00273366
Pb       9.35625418       9.41572134       9.45696052       36       0.00452931       0.10480005      -0.40074842
I        9.31929317       9.43247249       6.19513020       37       0.06622038       0.05437585       0.22583451
I        9.40875530       6.39338922       9.30352239       38       0.06012391      -0.63117274       0.03595039
I        6.19623452       9.35237478       9.37738582       39       0.21559516       0.05896453       0.08220464
40
Lattice="12.561737952006485 0.0 0.0 0.0 12.565127923795213 0.0 0.0 -8.011953347229359e-14 12.56173795200644" Properties=species:S:1:pos:R:3:spacegroup_kinds:I:1:forces:R:3 spacegroup="P 1" unit_cell=conventional occupancy="_JSON {\"0\": {\"Cs\": 1.0}, \"1\": {\"Pb\": 1.0}, \"2\": {\"I\": 1.0}, \"3\": {\"I\": 1.0}, \"4\": {\"I\": 1.0}, \"5\": {\"Cs\": 1.0}, \"6\": {\"Pb\": 1.0}, \"7\": {\"I\": 1.0}, \"8\": {\"I\": 1.0}, \"9\": {\"I\": 1.0}, \"10\": {\"Cs\": 1.0}, \"11\": {\"Pb\": 1.0}, \"12\": {\"I\": 1.0}, \"13\": {\"I\": 1.0}, \"14\": {\"I\": 1.0}, \"15\": {\"Cs\": 1.0}, \"16\": {\"Ge\": 1.0}, \"17\": {\"I\": 1.0}, \"18\": {\"I\": 1.0}, \"19\": {\"I\": 1.0}, \"20\": {\"Cs\": 1.0}, \"21\": {\"Pb\": 1.0}, \"22\": {\"I\": 1.0}, \"23\": {\"I\": 1.0}, \"24\": {\"I\": 1.0}, \"25\": {\"Cs\": 1.0}, \"26\": {\"Pb\": 1.0}, \"27\": {\"I\": 1.0}, \"28\": {\"I\": 1.0}, \"29\": {\"I\": 1.0}, \"30\": {\"Cs\": 1.0}, \"31\": {\"Ge\": 1.0}, \"32\": {\"I\": 1.0}, \"33\": {\"I\": 1.0}, \"34\": {\"I\": 1.0}, \"35\": {\"Cs\": 1.0}, \"36\": {\"Pb\": 1.0}, \"37\": {\"I\": 1.0}, \"38\": {\"I\": 1.0}, \"39\": {\"I\": 1.0}}" candidate_id=874e98faed500766 formula=CsGe0.28Pb0.72I3 config_index=3 rattle_stdev=0.08 method=PBE fidelity=phase2_force energy=-111.83242616373906 stress="-0.002788977790676665 0.0002301822601431085 3.8410776974487305e-05 0.0002301822601431085 -0.0025280726466751103 -4.293082552041625e-05 3.8410776974487305e-05 -4.293082552041625e-05 -0.002026161308018785" pbc="T T T"
Cs      -0.10568348      12.64746880       0.00380516        0       0.03211130       0.03170867       0.02019349
Pb       3.12142079       3.14801179       3.21719787        1      -0.29287416      -0.29825144      -0.73556564
I        3.08590661       3.18360761      12.49326037        2       0.02614385       0.00878217      -0.05657774
I        3.25283098      12.53143377       3.03596363        3       0.03021847      -0.20418869      -0.00006887
I       12.50097101       3.01160732       3.03803661        4       0.13724404       0.03082638       0.02364053
Cs      12.54379422      12.41808369       6.22040977        5      -0.03004507       0.00591666      -0.01193757
Pb       3.16148815       2.93686654       9.28768079        6      -0.07105570       0.19163855       0.48437173
I        3.08349567       2.94553993       6.18521832        7      -0.04003537      -0.03539199       0.41228401
I        3.19352429      12.29938413       9.35807069        8      -0.05554861       0.74335542       0.03053778
I       -0.11370554       3.04611878       9.60263868        9       0.53074991       0.02718119      -0.00191566
Cs      12.52359573       6.43329644      -0.14439506       10       0.02499260      -0.06563858      -0.00448397
Pb       3.10113732       9.32788622       3.07601686       11      -0.05713589       0.35637539      -0.09070522
I        3.25289998       9.40542069      12.35072451       12      -0.06797986      -0.02900101       0.74588575
I        3.12742748       6.24397328       3.26156390       13      -0.00593956       0.21995932       0.03031267
I       12.26801440       9.47652831       3.11290519       14       1.24779658      -0.10433966       0.03627408
Cs      -0.06069585       6.37532542       6.22828570       15      -0.03560229       0.00473328       0.01231459
Ge       3.18465013       9.45445460       9.39160024       16      -0.07235920      -0.53581357      -0.00894018
I        3.26668600       9.44118974       6.53171403       17      -0.02361600       0.00544956      -0.69184919
I        3.19895293       6.49992072       9.37487898       18      -0.01492621      -0.42497986      -0.02321406
I        0.14597056       9.29705675       9.41532615       19      -0.40056507       0.04453270       0.00287584
Cs       6.37677368      12.46489475      -0.05214397       20      -0.03460196       0.01181233       0.00866948
Pb       9.26958054       3.01805806       3.10900863       21       0.44161428       0.13473076       0.06707575
I        9.38814500       3.19816740       0.05788616       22      -0.04902319      -0.01208759      -0.25632715
I        9.61309037      12.38810827       3.05936379       23      -0.12572824       0.07788275       0.04046254
I        6.25186861       3.20896016       3.17998321       24      -0.21094238       0.00110084       0.02746319
Cs       6.30316004      12.52789584       6.30627831       25       0.01528996      -0.03859198       0.00206113
Pb       9.43947437       3.11005474       9.36386206       26      -0.19635716      -0.02954747       0.04228672
I        9.54483236       3.07224637       6.24567864       27       0.01482324       0.00721491       0.10882684
I        9.42800761      12.68374597       9.32695649       28      -0.03535813      -1.04416075       0.05129884
I        6.24248668       3.10741084       9.46605041       29      -0.16004056      -0.02023830      -0.03875188
Cs       6.23468940       6.36726311       0.06937641       30      -0.00211885      -0.03019930      -0.03759757
Ge       9.45449618       9.40574716       3.20088194       31      -0.16528377      -0.17425085       0.15330072
I        9.43931385       9.38866570       0.20624407       32       0.02528540      -0.02364073      -0.34705853
I        9.34961360       6.33204514       3.27983322       33       0.08551190      -0.00752291      -0.00612574
I        6.66833275       9.36994792       3.07875255       34      -1.09076128       0.06104267       0.03091213
Cs       6.36530836       6.45322036       6.29051882       35       0.01495533       0.01825980       0.01937688
Pb       9.42230294       9.36788423       9.57140739       36       0.09504285       0.03861163      -0.15898433
I        9.38525079       9.39934720       6.23997060       37       0.01789632       0.02987322       0.13191443
I        9.36901618       6.11695835       9.46973162       38      -0.01826822       1.01198400       0.00175582
I        6.08500581       9.44044513       9.50901563       39       0.51291877       0.00670110      -0.01452570
