40
Lattice="12.757036351380286 0.0 0.0 0.0 12.684754446428125 0.0 0.0 0.000848584126619048 12.684754418043804" Properties=species:S:1:pos:R:3:spacegroup_kinds:I:1:forces:R:3 spacegroup="P 1" unit_cell=conventional occupancy="_JSON {\"0\": {\"Cs\": 1.0}, \"1\": {\"Pb\": 1.0}, \"2\": {\"I\": 1.0}, \"3\": {\"I\": 1.0}, \"4\": {\"I\": 1.0}, \"5\": {\"Cs\": 1.0}, \"6\": {\"Pb\": 1.0}, \"7\": {\"I\": 1.0}, \"8\": {\"I\": 1.0}, \"9\": {\"I\": 1.0}, \"10\": {\"Cs\": 1.0}, \"11\": {\"Pb\": 1.0}, \"12\": {\"Br\": 1.0}, \"13\": {\"I\": 1.0}, \"14\": {\"I\": 1.0}, \"15\": {\"Cs\": 1.0}, \"16\": {\"Pb\": 1.0}, \"17\": {\"I\": 1.0}, \"18\": {\"I\": 1.0}, \"19\": {\"I\": 1.0}, \"20\": {\"Cs\": 1.0}, \"21\": {\"Pb\": 1.0}, \"22\": {\"I\": 1.0}, \"23\": {\"I\": 1.0}, \"24\": {\"I\": 1.0}, \"25\": {\"Cs\": 1.0}, \"26\": {\"Pb\": 1.0}, \"27\": {\"I\": 1.0}, \"28\": {\"I\": 1.0}, \"29\": {\"I\": 1.0}, \"30\": {\"Cs\": 1.0}, \"31\": {\"Pb\": 1.0}, \"32\": {\"I\": 1.0}, \"33\": {\"Br\": 1.0}, \"34\": {\"I\": 1.0}, \"35\": {\"Cs\": 1.0}, \"36\": {\"Pb\": 1.0}, \"37\": {\"I\": 1.0}, \"38\": {\"I\": 1.0}, \"39\": {\"I\": 1.0}}" candidate_id=b1a09cc81edfa296 formula=CsPbBr0.086I0.913 config_index=0 rattle_stdev=0.0 method=PBE fidelity=phase2_force energy=-114.36902694923998 stress="-0.00044176101028321415 1.3690364816276353e-10 -1.9716692898580546e-10 1.3690364816276353e-10 -6.954392379418784e-05 -6.842167152988621e-06 -1.9716692898580546e-10 -6.842167152988621e-06 -6.947852979670203e-05" pbc="T T T"
Cs       0.01168791      12.66385889       0.00924274        0       0.01293217      -0.00929774      -0.00355456
Pb       3.18925909       3.17708921       3.16535964        1       0.00032846       0.00660540      -0.00413419
I        3.18925909       3.15593297       0.00189718        2       0.00000003      -0.00536606      -0.00340050
I        3.18925909      12.67988702       3.08114628        3      -0.00000010       0.00694905      -0.00111813
I       12.75411054       3.26108819       3.18565017        4       0.00310372       0.00117836       0.00494896
Cs      12.75703635      12.67595295       6.33315204        5      -0.00000252       0.00340476       0.00340947
Pb       3.18925909       3.17250247       9.51908057        6       0.00034097      -0.00318458       0.00454715
I        3.18925909       3.15608135       6.34035191        7       0.00000062      -0.00630526       0.00320066
I        3.18925909      12.68068613       9.60488678        8       0.00000050       0.00606149       0.00276467
I       12.75703635       3.15630721       9.49804902        9      -0.00000062      -0.00524925      -0.00524424
Cs      12.75703635       6.36006943       0.01769102       10      -0.00000082       0.00646007       0.00646735
Pb       3.18925909       9.50709598       3.05769550       11       0.00033406      -0.00308566      -0.01355046
Br       3.18925909       9.52446961       0.00275817       12      -0.00001120       0.00521487      -0.00093047
I        3.18925909       6.34741093       3.07949291       13       0.00000379      -0.00804784      -0.00226845
I       12.75703635       9.42808485       3.08550120       14      -0.00000463       0.00054218       0.00054083
Cs      12.74534845       6.35204285       6.32148104       15      -0.01293271      -0.00356260      -0.00928770
Pb       3.18925909       9.51497411       9.63017107       16       0.00034563       0.00426777       0.01371880
I        3.18925909       9.52825440       6.34035410       17       0.00000060       0.00322135       0.00166438
I        3.18925909       6.34789326       9.60631247       18       0.00000059      -0.00666277       0.00219623
I        0.00292581       9.52866984       9.60325228       19      -0.00310794       0.00495372       0.00117832
Cs       6.36683027      12.66385889       0.00924274       20      -0.01292641      -0.00929728      -0.00355428
Pb       9.56777726       3.28800607       3.17195264       21      -0.00034637       0.01321498       0.00491555
I        9.56777726       3.26393560       0.00487339       22      -0.00000006       0.00219569      -0.00664773
I        9.56777726      12.68294444       3.18545301       23       0.00000023       0.00166284       0.00321823
I        6.38144399       3.26108819       3.18565017       24      -0.00311054       0.00117873       0.00494996
Cs       6.37851818      12.67595295       6.33315204       25       0.00000189       0.00340487       0.00340915
Pb       9.56777726       3.17733985       9.51424286       26      -0.00034087       0.00516799      -0.00378420
I        9.56777726       3.26293355       6.33766634       27      -0.00000039       0.00276441       0.00606239
I        9.56777726      12.68336454       9.49803440       28      -0.00000047       0.00319791      -0.00629964
I        6.37851818       3.15630721       9.49804902       29       0.00000063      -0.00525008      -0.00524546
Cs       6.37851818       6.36006943       0.01769102       30       0.00000120       0.00645949       0.00646607
Pb       9.56777726       9.40028443       3.16451420       31      -0.00033581      -0.01302128      -0.00244256
I        9.56777726       9.42187046       0.00482770       32      -0.00000394      -0.00226866      -0.00803607
Br       9.56777726       6.34534827       3.18209219       33       0.00001128      -0.00091995       0.00520743
I        6.37851818       9.42808485       3.08550120       34       0.00000452       0.00054170       0.00054085
Cs       6.39020608       6.35204285       6.32148104       35       0.01292638      -0.00356301      -0.00928615
Pb       9.56777726       9.50837369       9.51925465       36      -0.00032962      -0.00476845       0.00601156
I        9.56777726       9.42394746       6.33730366       37       0.00000019      -0.00111737       0.00695349
I        9.56777726       6.34490982       9.49831004       38      -0.00000038      -0.00340431      -0.00537000
I        6.37559236       9.52866984       9.60325228       39       0.00311471       0.00495422       0.00117841
40
Lattice="12.757036351380286 0.0 0.0 0.0 12.684754446428125 0.0 0.0 0.000848584126619048 12.684754418043804" Properties=species:S:1:pos:R:3:spacegroup_kinds:I:1:forces:R:3 spacegroup="P 1" unit_cell=conventional occupancy="_JSON {\"0\": {\"Cs\": 1.0}, \"1\": {\"Pb\": 1.0}, \"2\": {\"I\": 1.0}, \"3\": {\"I\": 1.0}, \"4\": {\"I\": 1.0}, \"5\": {\"Cs\": 1.0}, \"6\": {\"Pb\": 1.0}, \"7\": {\"I\": 1.0}, \"8\": {\"I\": 1.0}, \"9\": {\"I\": 1.0}, \"10\": {\"Cs\": 1.0}, \"11\": {\"Pb\": 1.0}, \"12\": {\"Br\": 1.0}, \"13\": {\"I\": 1.0}, \"14\": {\"I\": 1.0}, \"15\": {\"Cs\": 1.0}, \"16\": {\"Pb\": 1.0}, \"17\": {\"I\": 1.0}, \"18\": {\"I\": 1.0}, \"19\": {\"I\": 1.0}, \"20\": {\"Cs\": 1.0}, \"21\": {\"Pb\": 1.0}, \"22\": {\"I\": 1.0}, \"23\": {\"I\": 1.0}, \"24\": {\"I\": 1.0}, \"25\": {\"Cs\": 1.0}, \"26\": {\"Pb\": 1.0}, \"27\": {\"I\": 1.0}, \"28\": {\"I\": 1.0}, \"29\": {\"I\": 1.0}, \"30\": {\"Cs\": 1.0}, \"31\": {\"Pb\": 1.0}, \"32\": {\"I\": 1.0}, \"33\": {\"Br\": 1.0}, \"34\": {\"I\": 1.0}, \"35\": {\"Cs\": 1.0}, \"36\": {\"Pb\": 1.0}, \"37\": {\"I\": 1.0}, \"38\": {\"I\": 1.0}, \"39\": {\"I\": 1.0}}" candidate_id=b1a09cc81edfa296 formula=CsPbBr0.086I0.913 config_index=1 rattle_stdev=0.08 method=PBE fidelity=phase2_force energy=-113.78264970313761 stress="-0.0020936871290690136 1.8605538932793523e-05 -2.797364804624042e-05 1.8605538932793523e-05 -0.0009213538927981158 -0.00010863509469086743 -2.797364804624042e-05 -0.00010863509469086743 -0.002328283744709528" pbc="T T T"
Cs      -0.07522780      12.59217368      -0.01526121        0      -0.01727900       0.02758984       0.03237079
Pb       3.08206440       3.08056236       3.11402150        1       0.24623594       0.27988945       0.25407002
I        3.29389474       3.30356980       0.06822637        2      -0.04288766      -0.03703307      -0.09127746
I        3.18739518      12.66320190       3.00781670        3       0.01085494       0.02941152      -0.00947883
I       12.66813113       3.25419671       3.27971725        4       0.50232225      -0.00650755       0.02294440
Cs      12.62622901      12.77420847       6.41926294        5       0.02804598       0.04058471      -0.03929636
Pb       3.22084092       3.14148640       9.56615271        6       0.08432290       0.04605339      -0.11301649
I        3.07459518       3.13019538       6.44059068        7       0.03884143       0.01681170      -0.21730237
I        3.13079968      12.79496493       9.68045909        8      -0.01942027      -0.53210772       0.02564725
I       12.73591613       3.14325015       9.42092043        9       0.10298363       0.00619617       0.02063727
Cs      12.72962456       6.36398175      -0.02227954       10      -0.01864334      -0.02971958       0.03361105
Pb       3.01230673       9.53188293       2.93052340       11       0.78394694      -0.26999109      -0.15293865
Br       3.24761546       9.51583751      -0.04925555       12      -0.05478893       0.02114436       0.01520020
I        3.05381457       6.31793301       2.95226317       13       0.01361513       0.02333176       0.06271251
I       12.87547682       9.46604006       3.15861031       14      -0.85178080       0.00910424       0.05217697
Cs      12.82218607       6.35880626       6.45885951       15       0.01673124      -0.03922243      -0.01992307
Pb       3.25741051       9.45458329       9.44716073       16       0.20383922       0.09953626       0.14354266
I        3.19799818       9.49224175       6.30731631       17      -0.00177934      -0.01411801       0.03014799
I        3.21477779       6.30460462       9.68220579       18      -0.02320367       0.36301021      -0.03497548
I        0.01504062       9.53482203       9.59850025       19       0.32084736       0.01072028       0.01035840
Cs       6.36121917      12.61856697       0.03412317       20       0.00136835       0.00787196       0.02299844
Pb       9.62571397       3.32932207       3.25403510       21      -0.40766596      -0.15710630      -0.48127877
I        9.60938947       3.19434851       0.12491861       22       0.04020447       0.01635848      -0.45361973
I        9.66109504      12.72229760       3.12687204       23      -0.00497499      -0.11396995       0.09970081
I        6.43586848       3.30180794       3.11864727       24      -0.33799188      -0.01230648       0.06076722
Cs       6.43032976      12.67695611       6.45791916       25      -0.01988260       0.01301929      -0.01936040
Pb       9.65054489       3.20435526       9.41003403       26      -0.17184694       0.26513655       0.35154381
I        9.47829372       3.36769476       6.29620898       27      -0.03380605      -0.02868475       0.43822220
I        9.53632732      12.76680202       9.50401161       28       0.01289678      -0.16741006      -0.03898210
I        6.38567314       3.16061980       9.53152477       29      -0.00189966      -0.00416239      -0.01720025
Cs       6.28029977       6.27290611       0.04306097       30       0.01836896      -0.00072344       0.04207767
Pb       9.50534482       9.33179394       3.05892449       31      -0.12954804       0.12009016       0.28230116
I        9.60407980       9.50201245       0.11792647       32       0.02069013      -0.00326819      -0.42651987
Br       9.55256263       6.34775712       3.03221886       33       0.03364158       0.12211117       0.02229828
I        6.36917602       9.41788562       3.15767595       34       0.18150216      -0.01234837       0.02250161
Cs       6.28505631       6.34407879       6.33272503       35      -0.00194942      -0.02088172      -0.02184744
Pb       9.77808174       9.64883600       9.30840283       36      -0.46138068      -0.25202794       0.92275304
I        9.46484570       9.41020968       6.48133996       37      -0.01197733       0.01224769      -0.96923908
I        9.61647291       6.34743186       9.38099707       38       0.01497838       0.16126445       0.07192583
I        6.40034762       9.62004727       9.56238475       39      -0.05921418       0.00088973       0.01373737
40
Lattice="12.757036351380286 0.0 0.0 0.0 12.684754446428125 0.0 0.0 0.000848584126619048 12.684754418043804" Properties=species:S:1:pos:R:3:spacegroup_kinds:I:1:forces:R:3 spacegroup="P 1" unit_cell=conventional occupancy="_JSON {\"0\": {\"Cs\": 1.0}, \"1\": {\"Pb\": 1.0}, \"2\": {\"I\": 1.0}, \"3\": {\"I\": 1.0}, \"4\": {\"I\": 1.0}, \"5\": {\"Cs\": 1.0}, \"6\": {\"Pb\": 1.0}, \"7\": {\"I\": 1.0}, \"8\": {\"I\": 1.0}, \"9\": {\"I\": 1.0}, \"10\": {\"Cs\": 1.0}, \"11\": {\"Pb\": 1.0}, \"12\": {\"Br\": 1.0}, \"13\": {\"I\": 1.0}, \"14\": {\"I\": 1.0}, \"15\": {\"Cs\": 1.0}, \"16\": {\"Pb\": 1.0}, \"17\": {\"I\": 1.0}, \"18\": {\"I\": 1.0}, \"19\": {\"I\": 1.0}, \"20\": {\"Cs\": 1.0}, \"21\": {\"Pb\": 1.0}, \"22\": {\"I\": 1.0}, \"23\": {\"I\": 1.0}, \"24\": {\"I\": 1.0}, \"25\": {\"Cs\": 1.0}, \"26\": {\"Pb\": 1.0}, \"27\": {\"I\": 1.0}, \"28\": {\"I\": 1.0}, \"29\": {\"I\": 1.0}, \"30\": {\"Cs\": 1.0}, \"31\": {\"Pb\": 1.0}, \"32\": {\"I\": 1.0}, \"33\": {\"Br\": 1.0}, \"34\": {\"I\": 1.0}, \"35\": {\"Cs\": 1.0}, \"36\": {\"Pb\": 1.0}, \"37\": {\"I\": 1.0}, \"38\": {\"I\": 1.0}, \"39\": {\"I\": 1.0}}" candidate_id=b1a09cc81edfa296 formula=CsPbBr0.086I0.913 config_index=2 rattle_stdev=0.08 method=PBE fidelity=phase2_force energy=-113.85359284429906 stress="-0.0015618659586550566 4.2924786824869464e-05 5.056308714213768e-06 4.2924786824869464e-05 -0.0014039865238929157 -1.3026358914239829e-05 5.056308714213768e-06 -1.3026358914239829e-05 -0.0009429540044342768" pbc="T T T"
Cs       0.00267086      12.57773378       0.15204489        0       0.02566180      -0.01936364      -0.06742876
Pb       3.07270042       3.15098354       3.06456792        1       0.66647967       0.25622054       0.15565651
I        3.21932841       3.08568118      -0.02610089        2      -0.02809264       0.03160950      -0.06786201
I        3.21299190      12.77595997       2.95562666        3      -0.00749109      -0.61021939       0.03070668
I       12.90243284       3.30060514       3.17519326        4      -0.92147465       0.02202660      -0.01249065
Cs      12.72478669      12.59805997       6.29575469        5      -0.01124617      -0.01038031       0.05496353
Pb       3.13182537       3.27021393       9.45690457        6       0.34980539      -0.13252533       0.01450335
I        3.14217704       3.15147184       6.34671830        7       0.02465003      -0.07886757      -0.11472322
I        3.09460300      12.55678673       9.67786727        8       0.00103902       0.59566746       0.01001829
I       12.79005001       3.10064569       9.31494727        9      -0.16659709       0.00532600       0.02204329
Cs      12.69405703       6.27778810       0.02515567       10       0.03509757       0.02893714      -0.02748182
Pb       3.14692355       9.56951557       3.04163032       11       0.20329975      -0.23087047       0.02766651
Br       3.15081040       9.44164864      -0.03746058       12       0.00969299      -0.00489026       0.32962216
I        3.25245030       6.27341112       3.25629573       13      -0.01232303       0.50219763      -0.04051938
I       12.64501746       9.40895706       3.10288846       14       0.56602653       0.00543011       0.03046451
Cs      12.71715762       6.35891290       6.33001320       15      -0.01327558       0.01049977       0.01840253
Pb       3.17349659       9.62272882       9.65778499       16      -0.00035970      -0.49323774      -0.07460596
I        3.23387064       9.48063159       6.39898068       17      -0.02461066       0.06895243      -0.28400997
I        3.29575930       6.28949063       9.56745201       18      -0.01183285       0.08071418       0.02065272
I        0.08907895       9.32104125       9.61660654       19      -0.15217603      -0.01087136      -0.00322019
Cs       6.44994704      12.51917299       0.06993401       20      -0.02788498       0.02640015      -0.03715818
Pb       9.52776824       3.10046262       3.16331923       21      -0.17832321       0.22852175       0.14417719
I        9.44755425       3.30303789      -0.03938089       22       0.05416345       0.03750282       0.17923442
I        9.65237787      12.61339901       3.17944573       23       0.01239926       0.14521486      -0.01548913
I        6.37287159       3.42899396       3.15840714       24       0.29159346      -0.10643965      -0.00880803
Cs       6.33628577      12.57238360       6.35027996       25       0.01682353      -0.00110806       0.02688545
Pb       9.65787883       3.20946272       9.57548969       26      -0.31068262      -0.05722174      -0.25606399
I        9.45952707       3.30884223       6.32005537       27       0.04567945      -0.05432111      -0.05974369
I        9.61939238      12.60298700       9.65001348       28       0.03257715       0.47029270       0.01496753
I        6.39586704       3.19630484       9.44792173       29       0.05899993      -0.05972027       0.00065302
Cs       6.29828744       6.29756461       0.03403324       30      -0.02109542      -0.02581266       0.00964850
Pb       9.61066462       9.31428463       2.98708582       31      -0.41562378      -0.24227349       0.62320686
I        9.61953168       9.39608360      -0.00897744       32       0.01382450      -0.02821177      -0.02194628
Br       9.38470352       6.33638476       3.25851730       33       0.09770703       0.00126521      -0.07147918
I        6.41489723       9.59303904       3.09049804       34      -0.35051424       0.04250364      -0.03193029
Cs       6.39043348       6.31575855       6.35135964       35       0.02250054      -0.01297842      -0.01880325
Pb       9.50272798       9.50024909       9.55491171       36       0.23811968       0.09754118      -0.39351726
I        9.46576697       9.43257400       6.40548261       37       0.04562160       0.07880784      -0.20443129
I        9.55522910       6.44001536       9.38052897       38       0.04993259      -0.58798017       0.03844947
I        6.44487563       9.45719868       9.55933463       39      -0.20915022       0.03412330       0.05798062
40
Lattice="12.757036351380286 0.0 0.0 0.0 12.684754446428125 0.0 0.0 0.000848584126619048 12.684754418043804" Properties=species:S:1:pos:R:3:spacegroup_kinds:I:1:forces:R:3 spacegroup="P 1" unit_cell=conventional occupancy="_JSON {\"0\": {\"Cs\": 1.0}, \"1\": {\"Pb\": 1.0}, \"2\": {\"I\": 1.0}, \"3\": {\"I\": 1.0}, \"4\": {\"I\": 1.0}, \"5\": {\"Cs\": 1.0}, \"6\": {\"Pb\": 1.0}, \"7\": {\"I\": 1.0}, \"8\": {\"I\": 1.0}, \"9\": {\"I\": 1.0}, \"10\": {\"Cs\": 1.0}, \"11\": {\"Pb\": 1.0}, \"12\": {\"Br\": 1.0}, \"13\": {\"I\": 1.0}, \"14\": {\"I\": 1.0}, \"15\": {\"Cs\": 1.0}, \"16\": {\"Pb\": 1.0}, \"17\": {\"I\": 1.0}, \"18\": {\"I\": 1.0}, \"19\": {\"I\": 1.0}, \"20\": {\"Cs\": 1.0}, \"21\": {\"Pb\": 1.0}, \"22\": {\"I\": 1.0}, \"23\": {\"I\": 1.0}, \"24\": {\"I\": 1.0}, \"25\": {\"Cs\": 1.0}, \"26\": {\"Pb\": 1.0}, \"27\": {\"I\": 1.0}, \"28\": {\"I\": 1.0}, \"29\": {\"I\": 1.0}, \"30\": {\"Cs\": 1.0}, \"31\": {\"Pb\": 1.0}, \"32\": {\"I\": 1.0}, \"33\": {\"Br\": 1.0}, \"34\": {\"I\": 1.0}, \"35\": {\"Cs\": 1.0}, \"36\": {\"Pb\": 1.0}, \"37\": {\"I\": 1.0}, \"38\": {\"I\": 1.0}, \"39\": {\"I\": 1.0}}" candidate_id=b1a09cc81edfa296 formula=CsPbBr0.086I0.913 config_index=3 rattle_stdev=0.08 method=PBE fidelity=phase2_force energy=-113.69662952696804 stress="-0.0017183442405895371 6.969116401514953e-05 1.5801242199478043e-05 6.969116401514953e-05 -0.0013928491062189909 0.00010079942488149097 1.5801242199478043e-05 0.00010079942488149097 -0.0007959568823512225" pbc="T T T"
Cs      -0.09399558      12.82519912       0.01304789        0       0.02527516       0.05427139       0.02235425
Pb       3.17024539       3.18381902       3.24212302        1      -0.26147199      -0.27158609      -0.66571526
I        3.13473121       3.19825860      -0.06009628        2       0.02284265      -0.00429075      -0.07783831
I        3.30165558      12.66191258       2.97667542        3       0.02214366      -0.17946122      -0.00091343
I       12.69982772       3.13141353       3.08325229        4       0.12829281       0.04110687       0.02927912
Cs      12.73909262      12.60790806       6.27269283        5      -0.03298130       0.02421489      -0.01319221
Pb       3.21031275       2.96808703       9.38545789        6      -0.02676710       0.45929035       0.45476124
I        3.13232027       2.96033930       6.23821712        7      -0.03653448      -0.04278391       0.38757781
I        3.24234889      12.57837941       9.54165400        8      -0.02613195       0.48456131       0.01386943
I       12.63684669       3.06114402       9.67938423        9       0.45244782       0.01861569      -0.01736819
Cs      12.71889412       6.43180255      -0.12670404       10       0.02040264      -0.07390360      -0.01096775
Pb       3.14996192       9.41113626       2.99327787       11       0.03997427       0.29639348      -0.04076987
Br       3.30172458       9.50604435      -0.05433755       12      -0.03420421      -0.04844204       0.42154563
I        3.17625208       6.29310054       3.20062232       13      -0.02221074       0.22592581       0.01838112
I       12.61723052       9.48076722       3.05797190       14       1.03698219      -0.04004497      -0.00506783
Cs      12.68465259       6.36580496       6.26889776       15      -0.05061750      -0.01737841      -0.00459550
Pb       3.23347473       9.54558277       9.60046785       16      -0.15163940      -0.58192940       0.01364118
I        3.31551060       9.54559820       6.43728144       17      -0.01761280       0.00982965      -0.41279506
I        3.24777753       6.40181295       9.55988798       18      -0.01750296      -0.33402715      -0.03530073
I       -0.00502135       9.40188065       9.59727497       19      -0.11828545       0.01853073       0.00036420
Cs       6.46273498      12.64262508      -0.04290123       20      -0.03765819       0.01395421       0.00312302
Pb       9.41605434       3.16478215       3.14052679       21       0.36240047       0.21049900       0.04234559
I        9.53461880       3.32082102       0.05627543       22      -0.04659940      -0.01828517      -0.18351527
I        9.75956417      12.66936185       3.10438232       23      -0.09225646      -0.17393608       0.01625821
I        6.34595950       3.32876637       3.22519889       24      -0.13639776      -0.01761132       0.02986864
Cs       6.40080924      12.71772022       6.35856137       25       0.01340969      -0.01762667       0.01063317
Pb       9.58594817       3.14611261       9.45680146       26      -0.13715278      -0.02181342       0.03908068
I        9.69130616       3.19389794       6.30896014       27       0.00605999      -0.00050687       0.09948776
I        9.57448141      12.81770231       9.40368742       28      -0.03169987      -0.94425956       0.04387560
I        6.34662000       3.12243607       9.54279596       29      -0.18683765      -0.03623625      -0.04959536
Cs       6.33233860       6.36576922       0.08706743       30      -0.00902627      -0.02683759      -0.03967161
Pb       9.60096998       9.38218565       3.22496165       31      -0.12496786      -0.18473076       0.22308315
I        9.58578765       9.38669022       0.05715404       32       0.02138722      -0.01044551       0.03044301
Br       9.49608740       6.23139238       3.32149092       33       0.04289701       0.17652290       0.01108504
I        6.61206422       9.37418683       3.02381926       34      -0.97435773       0.02062700      -0.00354963
Cs       6.47464547       6.44369989       6.33113088       35       0.03752112       0.00753163       0.00372348
Pb       9.56877674       9.45241197       9.66935858       36       0.04146014       0.00115233      -0.26720391
I        9.53172459       9.39944872       6.45032301       37       0.00561139       0.00809580      -0.09789271
I        9.51548998       6.16358449       9.54673820       38      -0.01299212       0.94564660      -0.00124169
I        6.33364692       9.54526902       9.69096445       39       0.29165100       0.01434166       0.01322799
