Cs Sn I  Cs Sn I  Cs Sn I  Cs Ge I  Cs Ge I  Cs Sn I  Cs Ge I  Cs Sn I 
 1.0000000000000000
    12.8848997667812686    0.0000000000000000    0.0000000000000000
     0.0000000000000000   12.8848997667812686    0.0000000000000000
     0.0000000000000000    0.0000000000000000   12.8848997667812686
 Cs  Sn  I   Cs  Sn  I   Cs  Sn  I   Cs  Ge  I   Cs  Ge  I   Cs  Sn  I   Cs  Ge  I   Cs  Sn  I  
   1   1   3   1   1   3   1   1   3   1   1   3   1   1   3   1   1   3   1   1   3   1   1   3
Cartesian
  0.0000000000000000  0.0000000000000000  0.0000000000000000
  3.2212249416953171  3.2212249416953171  3.2212249416953171
  3.2212249416953171  3.2212249416953171  0.0000000000000000
  3.2212249416953171  0.0000000000000000  3.2212249416953171
  0.0000000000000000  3.2212249416953171  3.2212249416953171
  0.0000000000000000  0.0000000000000000  6.4424498833906334
  3.2212249416953171  3.2212249416953171  9.6636748250859519
  3.2212249416953171  3.2212249416953171  6.4424498833906334
  3.2212249416953171  0.0000000000000000  9.6636748250859519
  0.0000000000000000  3.2212249416953171  9.6636748250859519
  0.0000000000000000  6.4424498833906334  0.0000000000000000
  3.2212249416953171  9.6636748250859519  3.2212249416953171
  3.2212249416953171  9.6636748250859519  0.0000000000000000
  3.2212249416953171  6.4424498833906334  3.2212249416953171
  0.0000000000000000  9.6636748250859519  3.2212249416953171
  0.0000000000000000  6.4424498833906334  6.4424498833906334
  3.2212249416953171  9.6636748250859519  9.6636748250859519
  3.2212249416953171  9.6636748250859519  6.4424498833906334
  3.2212249416953171  6.4424498833906334  9.6636748250859519
  0.0000000000000000  9.6636748250859519  9.6636748250859519
  6.4424498833906334  0.0000000000000000  0.0000000000000000
  9.6636748250859519  3.2212249416953171  3.2212249416953171
  9.6636748250859519  3.2212249416953171  0.0000000000000000
  9.6636748250859519  0.0000000000000000  3.2212249416953171
  6.4424498833906334  3.2212249416953171  3.2212249416953171
  6.4424498833906334  0.0000000000000000  6.4424498833906334
  9.6636748250859519  3.2212249416953171  9.6636748250859519
  9.6636748250859519  3.2212249416953171  6.4424498833906334
  9.6636748250859519  0.0000000000000000  9.6636748250859519
  6.4424498833906334  3.2212249416953171  9.6636748250859519
  6.4424498833906334  6.4424498833906334  0.0000000000000000
  9.6636748250859519  9.6636748250859519  3.2212249416953171
  9.6636748250859519  9.6636748250859519  0.0000000000000000
  9.6636748250859519  6.4424498833906334  3.2212249416953171
  6.4424498833906334  9.6636748250859519  3.2212249416953171
  6.4424498833906334  6.4424498833906334  6.4424498833906334
  9.6636748250859519  9.6636748250859519  9.6636748250859519
  9.6636748250859519  9.6636748250859519  6.4424498833906334
  9.6636748250859519  6.4424498833906334  9.6636748250859519
  6.4424498833906334  9.6636748250859519  9.6636748250859519
