Rb Pb I  Rb Pb I  Rb Ge I  Rb Ge I  Rb Ge I  Rb Pb I  Rb Ge I  Rb Pb I 
 1.0000000000000000
    12.5891877108890533    0.0000000000000000    0.0000000000000000
     0.0000000000000000   12.5891877108890533    0.0000000000000000
     0.0000000000000000    0.0000000000000000   12.5891877108890533
 Rb  Pb  I   Rb  Pb  I   Rb  Ge  I   Rb  Ge  I   Rb  Ge  I   Rb  Pb  I   Rb  Ge  I   Rb  Pb  I  
   1   1   3   1   1   3   1   1   3   1   1   3   1   1   3   1   1   3   1   1   3   1   1   3
Cartesian
  0.0000000000000000  0.0000000000000000  0.0000000000000000
  3.1472969277222624  3.1472969277222624  3.1472969277222624
  3.1472969277222624  3.1472969277222624  0.0000000000000000
  3.1472969277222624  0.0000000000000000  3.1472969277222624
  0.0000000000000000  3.1472969277222624  3.1472969277222624
  0.0000000000000000  0.0000000000000000  6.2945938554445258
  3.1472969277222624  3.1472969277222624  9.4418907831667909
  3.1472969277222624  3.1472969277222624  6.2945938554445258
  3.1472969277222624  0.0000000000000000  9.4418907831667909
  0.0000000000000000  3.1472969277222624  9.4418907831667909
  0.0000000000000000  6.2945938554445258  0.0000000000000000
  3.1472969277222624  9.4418907831667909  3.1472969277222624
  3.1472969277222624  9.4418907831667909  0.0000000000000000
  3.1472969277222624  6.2945938554445258  3.1472969277222624
  0.0000000000000000  9.4418907831667909  3.1472969277222624
  0.0000000000000000  6.2945938554445258  6.2945938554445258
  3.1472969277222624  9.4418907831667909  9.4418907831667909
  3.1472969277222624  9.4418907831667909  6.2945938554445258
  3.1472969277222624  6.2945938554445258  9.4418907831667909
  0.0000000000000000  9.4418907831667909  9.4418907831667909
  6.2945938554445258  0.0000000000000000  0.0000000000000000
  9.4418907831667909  3.1472969277222624  3.1472969277222624
  9.4418907831667909  3.1472969277222624  0.0000000000000000
  9.4418907831667909  0.0000000000000000  3.1472969277222624
  6.2945938554445258  3.1472969277222624  3.1472969277222624
  6.2945938554445258  0.0000000000000000  6.2945938554445258
  9.4418907831667909  3.1472969277222624  9.4418907831667909
  9.4418907831667909  3.1472969277222624  6.2945938554445258
  9.4418907831667909  0.0000000000000000  9.4418907831667909
  6.2945938554445258  3.1472969277222624  9.4418907831667909
  6.2945938554445258  6.2945938554445258  0.0000000000000000
  9.4418907831667909  9.4418907831667909  3.1472969277222624
  9.4418907831667909  9.4418907831667909  0.0000000000000000
  9.4418907831667909  6.2945938554445258  3.1472969277222624
  6.2945938554445258  9.4418907831667909  3.1472969277222624
  6.2945938554445258  6.2945938554445258  6.2945938554445258
  9.4418907831667909  9.4418907831667909  9.4418907831667909
  9.4418907831667909  9.4418907831667909  6.2945938554445258
  9.4418907831667909  6.2945938554445258  9.4418907831667909
  6.2945938554445258  9.4418907831667909  9.4418907831667909
