40
Lattice="10.719762184704168 0.0 0.0 0.0 10.719762184704326 0.0 0.0 -7.31318300126247e-14 10.719762184704152" Properties=species:S:1:pos:R:3:spacegroup_kinds:I:1:forces:R:3 spacegroup="P 1" unit_cell=conventional candidate_id=3dae9e7a137f0397 formula=CsGe0.88Sn0.12Cl3 config_index=0 rattle_stdev=0.0 method=PBE fidelity=phase2_force energy=-138.78511928552456 stress="-0.000958797214962902 7.366400649967985e-10 -7.366400649968055e-10 7.366400649967985e-10 -0.000958797214962873 -7.366400715378585e-10 -7.366400649968055e-10 -7.366400715378585e-10 -0.0009587972149629045" pbc="T T T"
Cs      10.67689117      10.67689117       0.04287101        0       0.03875507       0.03875507      -0.03875507
Ge       2.67994055       2.67994055       2.67994055        1       0.00000000       0.00000000       0.00000000
Cl       2.67994055       2.67994055      10.69730757        2       0.00000118       0.00000118       0.75807708
Cl       2.67994055       0.00206006       2.67994055        3       0.00000037      -0.02419873       0.00000099
Cl       0.00206006       2.67994055       2.67994055        4      -0.02419873       0.00000037       0.00000099
Cs      10.67689117      10.67689117       5.31701008        5       0.03875710       0.03875710       0.03875761
Sn       2.67994055       2.67994055       8.03982164        6       0.00000000       0.00000000      -0.00000000
Cl       2.67994055       2.67994055       5.38233570        7      -0.00000118      -0.00000118      -0.75807708
Cl       2.67994055       0.02245461       8.03982164        8       0.00000118      -0.75807708      -0.00000118
Cl       0.02245461       2.67994055       8.03982164        9      -0.75807708       0.00000118      -0.00000118
Cs      10.67689117       5.40275210       0.04287101       10       0.03875710      -0.03875761      -0.03875710
Ge       2.67994055       8.03982164       2.67994055       11       0.00000000      -0.00000000       0.00000000
Cl       2.67994055       8.03982164      10.71770212       12       0.00000037      -0.00000099       0.02419873
Cl       2.67994055       5.35782103       2.67994055       13      -0.00000037       0.02419873      -0.00000099
Cl      10.71760099       8.03982164       2.67994055       14      -0.01116405       0.00000032      -0.00000032
Cs      10.67689117       5.40275210       5.31701008       15       0.03875761      -0.03875710       0.03875710
Ge       2.67994055       8.03982164       8.03982164       16       0.00000000      -0.00000000      -0.00000000
Cl       2.67994055       8.03982164       5.36194116       17      -0.00000037       0.00000099      -0.02419873
Cl       2.67994055       5.33742648       8.03982164       18      -0.00000118       0.75807708       0.00000118
Cl       0.00206006       8.03982164       8.03982164       19      -0.02419873      -0.00000099      -0.00000037
Cs       5.40275210      10.67689117       0.04287101       20      -0.03875761       0.03875710      -0.03875710
Ge       8.03982164       2.67994055       2.67994055       21      -0.00000000       0.00000000       0.00000000
Cl       8.03982164       2.67994055      10.71770212       22      -0.00000099       0.00000037       0.02419873
Cl       8.03982164      10.71760099       2.67994055       23       0.00000032      -0.01116405      -0.00000032
Cl       5.35782103       2.67994055       2.67994055       24       0.02419873      -0.00000037      -0.00000099
Cs       5.40275210      10.67689117       5.31701008       25      -0.03875710       0.03875761       0.03875710
Ge       8.03982164       2.67994055       8.03982164       26      -0.00000000       0.00000000      -0.00000000
Cl       8.03982164       2.67994055       5.36194116       27       0.00000099      -0.00000037      -0.02419873
Cl       8.03982164       0.00206006       8.03982164       28      -0.00000099      -0.02419873      -0.00000037
Cl       5.33742648       2.67994055       8.03982164       29       0.75807708      -0.00000118       0.00000118
Cs       5.40275210       5.40275210       0.04287101       30      -0.03875710      -0.03875710      -0.03875761
Ge       8.03982164       8.03982164       2.67994055       31      -0.00000000      -0.00000000       0.00000000
Cl       8.03982164       8.03982164       0.00216119       32       0.00000032       0.00000032       0.01116405
Cl       8.03982164       5.36204228       2.67994055       33      -0.00000032       0.01116405       0.00000032
Cl       5.36204228       8.03982164       2.67994055       34       0.01116405      -0.00000032       0.00000032
Cs       5.40275210       5.40275210       5.31701008       35      -0.03875507      -0.03875507       0.03875507
Ge       8.03982164       8.03982164       8.03982164       36      -0.00000000      -0.00000000      -0.00000000
Cl       8.03982164       8.03982164       5.35771990       37      -0.00000032      -0.00000032      -0.01116405
Cl       8.03982164       5.35782103       8.03982164       38       0.00000099       0.02419873       0.00000037
Cl       5.35782103       8.03982164       8.03982164       39       0.02419873       0.00000099       0.00000037
40
Lattice="10.719762184704168 0.0 0.0 0.0 10.719762184704326 0.0 0.0 -7.31318300126247e-14 10.719762184704152" Properties=species:S:1:pos:R:3:spacegroup_kinds:I:1:forces:R:3 spacegroup="P 1" unit_cell=conventional candidate_id=3dae9e7a137f0397 formula=CsGe0.88Sn0.12Cl3 config_index=1 rattle_stdev=0.08 method=PBE fidelity=phase2_force energy=-138.20839036834454 stress="-0.0038184848788292668 -8.238654690702156e-05 -7.958923214490172e-05 -8.238654690702156e-05 -0.004042181617623524 -0.00020286078131544262 -7.958923214490172e-05 -0.00020286078131544262 -0.004341794814836715" pbc="T T T"
Cs      10.58997546      10.60520596       0.01836706        0       0.09215636       0.16746242      -0.00017351
Ge       2.57274585       2.58341370       2.62860240        1       0.34819978       0.34983329      -0.03253263
Cl       2.78457620       2.82757738      10.76363677        2      -0.21289596      -0.21965567       0.89629724
Cl       2.67807664      -0.01462505       2.60661097        3      -0.08365702       0.08828888       0.00514735
Cl      -0.08391934       2.67304907       2.77400763        4       0.45554377      -0.00779242      -0.03333366
Cs      10.54608383      10.77514669       5.40312098        5       0.16807925       0.03496830      -0.09572444
Sn       2.71152238       2.64892448       8.08689378        6       0.08105554       0.19622769      -0.11200308
Cl       2.56527664       2.65405457       5.48257448        7       0.09220380      -0.00305060      -0.83041458
Cl       2.62148114       0.13673342       8.11539395        8       0.00050430      -1.35381796      -0.04121241
Cl       0.00133439       2.66688348       7.96269306        9      -0.76587692       0.01935666       0.04390790
Cs      10.64947939       5.40666443       0.00290045       10       0.01984437      -0.09643491      -0.02768735
Ge       2.50298819       8.06460859       2.55276844       11       0.52010579      -0.29826626      -0.21969995
Cl       2.73829691       8.03118954      10.66568840       12      -0.16554080       0.03820209       0.23298962
Cl       2.54449603       5.32834311       2.55271081       13      -0.01667700       0.05782659       0.14920402
Cl      10.83604146       8.07777685       2.75304965       14      -0.39778958      -0.00022592      -0.04410099
Cs      10.75372879       5.40951551       5.45438855       15       0.03248140      -0.09422564      -0.10935038
Ge       2.74809196       7.97943081       7.85681129       16       0.45348158      -0.02442933       0.22889446
Cl       2.68867964       8.00380899       5.32890336       17      -0.02504466       0.01524921       0.22253235
Cl       2.70545925       5.29413785       8.11571496       18      -0.01834588       1.30319095      -0.18398212
Cl       0.01417487       8.04597383       8.03506961       19       0.03671733       0.06026968      -0.14981623
Cs       5.39714101      10.63159925       0.06775144       20       0.00028707       0.09836697       0.00075363
Ge       8.09775834       2.72125655       2.76202300       21      -0.46619681      -0.30385335      -0.73681403
Cl       8.08143385       2.61035346      10.83774733       22       0.08208697       0.08427905      -0.23838596
Cl       8.13313941      10.75695415       2.62135957       23      -0.07937266      -0.10884659       0.21040255
Cl       5.41224552       2.72066029       2.61293765       24      -0.28196875      -0.06848700       0.15503417
Cs       5.45456369      10.67789433       5.44177721       25      -0.14100327       0.10034278      -0.13130003
Ge       8.12258927       2.70695596       7.93561281       26      -0.10349301       0.35565788       0.28900046
Cl       7.95033810       2.78470176       5.32048380       27       0.06542418      -0.08424037       0.50539891
Cl       8.00837169       0.08549754       8.04579886       28       0.13081188      -0.20212929      -0.14849751
Cl       5.34458145       2.68425314       8.07329740       29       0.60680311      -0.02291867      -0.08256189
Cs       5.30453370       5.31558878       0.06824096       30       0.08447531       0.03972409      -0.03944865
Ge       7.97738920       7.97133115       2.57435083       31      -0.44347747       0.17770450      -0.29865935
Cl       8.07612417       8.11996363       0.11525997       32      -0.06317959      -0.13756189       0.32866948
Cl       8.02460701       5.36445113       2.53006721       33       0.05045781       0.27843451       0.11184902
Cl       5.35270013       8.02962241       2.75211529       34       0.61952445      -0.01336043      -0.08912333
Cs       5.29760233       5.39478805       5.32825407       35      -0.01929536      -0.08264496      -0.02213548
Ge       8.25012611       8.18028395       7.82896981       36      -0.54867150      -0.38138876       0.53391961
Cl       7.93689008       8.02608386       5.50175620       37       0.23667193       0.09223475      -0.31193088
Cl       8.08851729       5.36034307       7.92250866       38       0.03831029       0.02212411       0.07069920
Cl       5.38257629       8.13119907       7.99895411       39      -0.37505093      -0.07786076      -0.03096929
40
Lattice="10.719762184704168 0.0 0.0 0.0 10.719762184704326 0.0 0.0 -7.31318300126247e-14 10.719762184704152" Properties=species:S:1:pos:R:3:spacegroup_kinds:I:1:forces:R:3 spacegroup="P 1" unit_cell=conventional candidate_id=3dae9e7a137f0397 formula=CsGe0.88Sn0.12Cl3 config_index=2 rattle_stdev=0.08 method=PBE fidelity=phase2_force energy=-138.10434182639054 stress="-0.0032406560414572887 -0.00010979165952467021 -0.00012399618882397566 -0.00010979165952467021 -0.0031842628738270235 0.0001595882965264954 -0.00012399618882397566 0.0001595882965264954 -0.0029861536107267414" pbc="T T T"
Cs      10.66787413      10.59076605       0.18567317        0       0.11224725       0.08955341      -0.26474063
Ge       2.56338188       2.65383488       2.57914883        1       0.53661189       0.31859179       0.07954905
Cl       2.71000987       2.60968876      10.66930951        2      -0.15563634       0.09679874       0.80099741
Cl       2.70367336       0.09813302       2.55442093        3      -0.08219322      -0.63899487       0.11097159
Cl       0.15038236       2.71945749       2.66948363        4      -0.59847582      -0.04972643      -0.07254461
Cs      10.64464151      10.59899819       5.27961274        5       0.03317260       0.03107465       0.17652524
Sn       2.62250683       2.77765201       7.97764564        6       0.75352938      -0.48592587       0.02954087
Cl       2.63285849       2.67533104       5.38870209        7       0.00228526      -0.12324092      -0.74718431
Cl       2.58528446      -0.10144479       8.11280213        8       0.02194233      -0.47232295      -0.03713967
Cl       0.05546827       2.62427903       7.85671989        9      -1.12101501       0.07114816       0.13888012
Cs      10.61391185       5.32047077       0.05033566       10       0.09378527       0.00212983      -0.05316805
Ge       2.63760501       8.10224123       2.66387537       11       0.38107729      -0.27078368       0.08483965
Cl       2.64149186       7.95700067      10.67748337       12       0.00930312       0.01728592       0.48275518
Cl       2.74313176       5.28382122       2.85674337       13      -0.14985768       0.52951566      -0.22890648
Cl      10.60558210       8.02069385       2.69732780       14       0.44103557      -0.06109319      -0.03857783
Cs      10.64870035       5.40962215       5.32554224       15       0.01727893      -0.01392304       0.01878295
Ge       2.66417805       8.14757635       8.06743556       16      -0.30541814      -0.05874437      -0.13586723
Cl       2.72455210       7.99219883       5.42056773       17      -0.09625702       0.17013364      -0.39101396
Cl       2.78644076       5.27902385       8.00096118       18      -0.09678167       0.71848001       0.06370517
Cl       0.08821320       7.83219304       8.05317589       19       0.14037287       0.15538830       0.00392481
Cs       5.48586888      10.53220526       0.10356229       20      -0.15137681       0.21214612      -0.17176905
Ge       7.99981261       2.49239709       2.67130713       21      -0.59584682       0.46806737       0.32437453
Cl       7.91959862       2.71904284      10.67344784       22       0.19823576      -0.02371078       0.05280746
Cl       8.12442224      10.64805556       2.67393326       23      -0.07322059       0.34397636      -0.01461785
Cl       5.34924863       2.84784631       2.65269751       24       0.69264742      -0.39422498      -0.00920996
Cs       5.36051970      10.57332183       5.33413800       25      -0.00309861       0.15540166       0.09335403
Ge       8.12992320       2.71206341       8.10106846       26      -0.53101557      -0.07465801      -0.24485044
Cl       7.93157144       2.72584923       5.34433019       27       0.14596231      -0.21632805      -0.24533362
Cl       8.09143676      -0.07831748       8.19180072       28       0.01626211       0.39470797      -0.05708958
Cl       5.35477535       2.71993818       7.98969435       29       0.69235811      -0.09765509       0.03658528
Cs       5.32252137       5.34024729       0.05921323       30      -0.04237690      -0.03348497      -0.03557132
Ge       8.08270900       7.95382184       2.50251217       31      -0.40952516      -0.36115047       0.52630809
Cl       8.09157606       8.01403477      -0.01164394       32      -0.01389887      -0.10985822       0.29888780
Cl       7.85674789       5.35307878       2.75636565       33       0.27769879       0.16567636      -0.21409973
Cl       5.39842134       8.20477583       2.68493738       34      -0.44212326      -0.12340060      -0.09611158
Cs       5.40297950       5.36646780       5.34688868       35      -0.05077324      -0.02642710       0.00966088
Ge       7.97477236       8.03169704       8.07547869       36      -0.02269655      -0.00652583      -0.71714246
Cl       7.93781135       8.04844818       5.42589885       37       0.14507933       0.08415976       0.05486453
Cl       8.02727347       5.45292657       7.92204057       38       0.07618179      -0.48892281       0.20069765
Cl       5.42710430       7.96835048       7.99590399       39       0.14523304       0.12350043       0.17443671
40
Lattice="10.719762184704168 0.0 0.0 0.0 10.719762184704326 0.0 0.0 -7.31318300126247e-14 10.719762184704152" Properties=species:S:1:pos:R:3:spacegroup_kinds:I:1:forces:R:3 spacegroup="P 1" unit_cell=conventional candidate_id=3dae9e7a137f0397 formula=CsGe0.88Sn0.12Cl3 config_index=3 rattle_stdev=0.08 method=PBE fidelity=phase2_force energy=-138.0839183914745 stress="-0.0031225367309147167 0.0001612566506471451 0.00014112840801360827 0.0001612566506471451 -0.0033183532440063963 -4.327092247997971e-05 0.00014112840801360827 -4.327092247997971e-05 -0.002569157569851607" pbc="T T T"
Cs      10.57120769      10.83823140       0.04667617        0       0.20289696      -0.02984639      -0.08502176
Ge       2.66092685       2.68667036       2.75670393        1      -0.31369980      -0.37407610      -0.54292788
Cl       2.62541267       2.72226618      10.63531412        2       0.08244744      -0.04256607       0.39146374
Cl       2.79233704      -0.01591438       2.57546969        3      -0.02735670      -0.24436928       0.05730150
Cl      -0.05222275       2.55026588       2.57754266        4       0.21859158       0.16975860       0.14947393
Cs      10.65894744      10.60884629       5.25655087        5       0.03680751       0.06449111       0.06969044
Sn       2.70099421       2.47552510       7.90619897        6      -0.18306240       1.09044646       0.88017490
Cl       2.62300173       2.48419850       5.28020092        7      -0.01879647       0.05821623      -0.72659526
Cl       2.73303035      -0.07985211       7.97658886        8      -0.01556350      -0.48083394       0.05550727
Cl      -0.09773505       2.58477735       8.22115685        9      -0.36652470       0.07267352      -0.18280081
Cs      10.63874895       5.47448523      -0.10152405       10       0.12223334      -0.22730827       0.05741027
Ge       2.64064338       7.94386191       2.61552292       11       0.03679252       0.36030591      -0.14149749
Cl       2.79240604       8.02139639      10.66060640       12      -0.14130683      -0.04455063       0.72538482
Cl       2.66693354       5.30351064       2.80106996       13      -0.05131349       0.34645098      -0.03369987
Cl      10.57779517       8.09250401       2.65241125       14       1.10233049      -0.15949204      -0.00268591
Cs      10.61619532       5.41651421       5.26442680       15       0.04995772      -0.09448419       0.09917031
Ge       2.72415618       8.07043030       8.01011841       16       0.01379830      -0.75537925      -0.07398391
Cl       2.80619206       8.05716544       5.45886849       17      -0.07345151       0.01666007      -0.42978424
Cl       2.73845899       5.39134617       7.99339715       18      -0.02591415       0.25015535      -0.07134181
Cl      -0.00588711       7.91303245       8.03384432       19      -0.34373525       0.12107524       0.02138168
Cs       5.49865681      10.65565736      -0.00927296       20      -0.12496569       0.10141097       0.01984962
Ge       7.88809871       2.55671663       2.64851469       21       0.46760967       0.43587282      -0.08712598
Cl       8.00666317       2.73682597      10.76910415       22      -0.12427452      -0.08959047       0.07038499
Cl       8.23160854      10.70401841       2.59886985       23      -0.35377790      -0.24848749       0.09124882
Cl       5.32233654       2.74761872       2.71948927       24      -0.05123478      -0.12898061       0.03910358
Cs       5.42504316      10.71865845       5.34241942       25       0.01651597      -0.04619542      -0.02800369
Ge       8.05799255       2.64871331       7.98238023       26       0.14645677      -0.09904689       0.02031026
Cl       8.16335053       2.61090494       5.33323495       27      -0.09148702       0.00326003       0.17190328
Cl       8.04652578       0.13639783       7.94547466       28      -0.02344131      -0.78154223       0.13731150
Cl       5.30552831       2.64606940       8.08456858       29       0.40406122      -0.06833956      -0.09965417
Cs       5.35657253       5.40845190       0.11224742       30      -0.04355228      -0.14470104      -0.13625983
Ge       8.07301436       8.02172286       2.74038800       31      -0.26443867      -0.20542699       0.11378698
Cl       8.05783203       8.00464140       0.05448753       32       0.02935255       0.00705957      -0.11259435
Cl       7.96813178       5.24808639       2.81933928       33       0.12900801       0.21903215      -0.12130608
Cl       5.59558833       7.98592362       2.61825861       34      -0.78739628       0.10055212       0.06128975
Cs       5.48719149       5.49440915       5.32665992       35      -0.10217241      -0.09893960       0.12629769
Ge       8.04082111       7.98385992       8.18992557       36       0.15930768      -0.04364697      -0.34030125
Cl       8.00376897       8.01532290       5.47073925       37       0.04379866       0.04585039      -0.08134475
Cl       7.98753436       5.17649570       8.08824980       38       0.02343757       0.91965027      -0.02793707
Cl       5.31587559       8.05642082       8.12753381       39       0.23189739       0.01494989      -0.02672553
