40
Lattice="11.462503251514008 0.0 0.0 0.0 11.46441787109556 0.0 0.0 -2.4749994163483818e-14 11.462503251513919" Properties=species:S:1:pos:R:3:spacegroup_kinds:I:1:forces:R:3 spacegroup="P 1" unit_cell=conventional occupancy="_JSON {\"0\": {\"Rb\": 1.0}, \"1\": {\"Sn\": 1.0}, \"2\": {\"Br\": 1.0}, \"3\": {\"Br\": 1.0}, \"4\": {\"Br\": 1.0}, \"5\": {\"Rb\": 1.0}, \"6\": {\"Sn\": 1.0}, \"7\": {\"Br\": 1.0}, \"8\": {\"Br\": 1.0}, \"9\": {\"Br\": 1.0}, \"10\": {\"Rb\": 1.0}, \"11\": {\"Sn\": 1.0}, \"12\": {\"Br\": 1.0}, \"13\": {\"Br\": 1.0}, \"14\": {\"Br\": 1.0}, \"15\": {\"Rb\": 1.0}, \"16\": {\"Ge\": 1.0}, \"17\": {\"Br\": 1.0}, \"18\": {\"Br\": 1.0}, \"19\": {\"Br\": 1.0}, \"20\": {\"Rb\": 1.0}, \"21\": {\"Ge\": 1.0}, \"22\": {\"Br\": 1.0}, \"23\": {\"Br\": 1.0}, \"24\": {\"Br\": 1.0}, \"25\": {\"Rb\": 1.0}, \"26\": {\"Sn\": 1.0}, \"27\": {\"Br\": 1.0}, \"28\": {\"Br\": 1.0}, \"29\": {\"Br\": 1.0}, \"30\": {\"Rb\": 1.0}, \"31\": {\"Ge\": 1.0}, \"32\": {\"Br\": 1.0}, \"33\": {\"Br\": 1.0}, \"34\": {\"Br\": 1.0}, \"35\": {\"Rb\": 1.0}, \"36\": {\"Sn\": 1.0}, \"37\": {\"Br\": 1.0}, \"38\": {\"Br\": 1.0}, \"39\": {\"Br\": 1.0}}" candidate_id=682dd46c20190325 formula=RbGe0.36Sn0.64Br3 config_index=0 rattle_stdev=0.0 method=PBE fidelity=phase2_force energy=-124.74650233002197 stress="-0.0011543406430440809 7.370595120586012e-16 4.155057662018633e-11 7.370595120586012e-16 -0.0015511150293205257 -7.404087008946062e-16 4.155057662018633e-11 -7.404087008946062e-16 -0.0011543406430440987" pbc="T T T"
Rb      11.36459422      11.36313161       0.09790903        0       0.03135822       0.03723905      -0.03135822
Sn       2.86562581       2.86610447       2.86562581        1       0.00000000      -0.00000000       0.00000000
Br       2.86562581       2.86610447       0.00943050        2       0.00000004      -0.00000000      -0.04459249
Br       2.86562581       0.00829995       2.86562581        3      -0.00000000      -0.10558479      -0.00000000
Br      11.44017522       2.86610447       2.86562581        4      -0.37430284      -0.00000000      -0.00000007
Rb      11.36459422      11.36313161       5.63334260        5       0.03135825       0.03723901       0.03135825
Sn       2.86562581       2.86610447       8.59687744        6       0.00000000       0.00000000      -0.00000000
Br       2.86562581       2.86610447       5.72182113        7      -0.00000004      -0.00000000       0.04459249
Br       2.86562581      11.42832003       8.59687744        8      -0.00000000      -0.27820796       0.00000000
Br      11.45307275       2.86610447       8.59687744        9       0.04459249      -0.00000000      -0.00000004
Rb      11.36459422       5.83349519       0.09790903       10       0.03135822      -0.03723905      -0.03135822
Sn       2.86562581       8.59831340       2.86562581       11       0.00000000       0.00000000       0.00000000
Br       2.86562581       8.59831340      11.42855987       12       0.00000003       0.00000000      -0.21427183
Br       2.86562581       5.72390899       2.86562581       13      -0.00000000       0.10558479      -0.00000000
Br      11.42317406       8.59831340       2.86562581       14      -0.26211280      -0.00000000      -0.00000001
Rb      11.36459422       5.83349519       5.63334260       15       0.03135825      -0.03723901       0.03135825
Ge       2.86562581       8.59831340       8.59687744       16       0.00000000      -0.00000000      -0.00000000
Br       2.86562581       8.59831340       5.76519501       17      -0.00000003       0.00000000       0.21427183
Br       2.86562581       5.76830677       8.59687744       18      -0.00000000       0.27820796       0.00000000
Br       0.03394339       8.59831340       8.59687744       19       0.21427183       0.00000000      -0.00000003
Rb       5.82916065      11.36313161       0.09790903       20      -0.03135825       0.03723901      -0.03135825
Ge       8.59687744       2.86610447       2.86562581       21      -0.00000000       0.00000000       0.00000000
Br       8.59687744       2.86610447       0.02232804       22       0.00000007      -0.00000000       0.37430284
Br       8.59687744      11.45482605       2.86562581       23       0.00000000       0.00474868      -0.00000000
Br       5.75357966       2.86610447       2.86562581       24       0.37430284      -0.00000000       0.00000007
Rb       5.82916065      11.36313161       5.63334260       25      -0.03135822       0.03723905       0.03135822
Sn       8.59687744       2.86610447       8.59687744       26      -0.00000000      -0.00000000      -0.00000000
Br       8.59687744       2.86610447       5.70892359       27      -0.00000007      -0.00000000      -0.37430284
Br       8.59687744       0.00829995       8.59687744       28       0.00000000      -0.10558479       0.00000000
Br       5.74068213       2.86610447       8.59687744       29      -0.04459249      -0.00000000       0.00000004
Rb       5.82916065       5.83349519       0.09790903       30      -0.03135825      -0.03723901      -0.03135825
Ge       8.59687744       8.59831340       2.86562581       31       0.00000000       0.00000000      -0.00000000
Br       8.59687744       8.59831340       0.03932919       32       0.00000001      -0.00000000       0.26211280
Br       8.59687744       5.74180075       2.86562581       33       0.00000000      -0.00474868      -0.00000000
Br       5.77058082       8.59831340       2.86562581       34       0.26211280       0.00000000       0.00000001
Rb       5.82916065       5.83349519       5.63334260       35      -0.03135822      -0.03723905       0.03135822
Sn       8.59687744       8.59831340       8.59687744       36      -0.00000000       0.00000000      -0.00000000
Br       8.59687744       8.59831340       5.69192244       37      -0.00000001       0.00000000      -0.26211280
Br       8.59687744       5.72390899       8.59687744       38       0.00000000       0.10558479       0.00000000
Br       5.69730824       8.59831340       8.59687744       39      -0.21427183       0.00000000       0.00000003
40
Lattice="11.462503251514008 0.0 0.0 0.0 11.46441787109556 0.0 0.0 -2.4749994163483818e-14 11.462503251513919" Properties=species:S:1:pos:R:3:spacegroup_kinds:I:1:forces:R:3 spacegroup="P 1" unit_cell=conventional occupancy="_JSON {\"0\": {\"Rb\": 1.0}, \"1\": {\"Sn\": 1.0}, \"2\": {\"Br\": 1.0}, \"3\": {\"Br\": 1.0}, \"4\": {\"Br\": 1.0}, \"5\": {\"Rb\": 1.0}, \"6\": {\"Sn\": 1.0}, \"7\": {\"Br\": 1.0}, \"8\": {\"Br\": 1.0}, \"9\": {\"Br\": 1.0}, \"10\": {\"Rb\": 1.0}, \"11\": {\"Sn\": 1.0}, \"12\": {\"Br\": 1.0}, \"13\": {\"Br\": 1.0}, \"14\": {\"Br\": 1.0}, \"15\": {\"Rb\": 1.0}, \"16\": {\"Ge\": 1.0}, \"17\": {\"Br\": 1.0}, \"18\": {\"Br\": 1.0}, \"19\": {\"Br\": 1.0}, \"20\": {\"Rb\": 1.0}, \"21\": {\"Ge\": 1.0}, \"22\": {\"Br\": 1.0}, \"23\": {\"Br\": 1.0}, \"24\": {\"Br\": 1.0}, \"25\": {\"Rb\": 1.0}, \"26\": {\"Sn\": 1.0}, \"27\": {\"Br\": 1.0}, \"28\": {\"Br\": 1.0}, \"29\": {\"Br\": 1.0}, \"30\": {\"Rb\": 1.0}, \"31\": {\"Ge\": 1.0}, \"32\": {\"Br\": 1.0}, \"33\": {\"Br\": 1.0}, \"34\": {\"Br\": 1.0}, \"35\": {\"Rb\": 1.0}, \"36\": {\"Sn\": 1.0}, \"37\": {\"Br\": 1.0}, \"38\": {\"Br\": 1.0}, \"39\": {\"Br\": 1.0}}" candidate_id=682dd46c20190325 formula=RbGe0.36Sn0.64Br3 config_index=1 rattle_stdev=0.08 method=PBE fidelity=phase2_force energy=-124.17437454092419 stress="-0.0037660262199866565 8.651851717167133e-05 -7.035145689786255e-05 8.651851717167133e-05 -0.003416205520916703 -0.0001155852789394573 -7.035145689786255e-05 -0.0001155852789394573 -0.0038436079407202237" pbc="T T T"
Rb      11.27767851      11.29144640       0.07340508        0       0.00576613       0.09432644      -0.00391740
Sn       2.75843112       2.76957762       2.81428767        1       0.36558867       0.43325507       0.32370883
Br       2.97026146       3.01374130       0.07575970        2      -0.06993143      -0.05899384      -0.09470352
Br       2.86376191      -0.00838517       2.79229623        3      -0.00850507      -0.13239468      -0.03670459
Br      11.35419581       2.85921299       2.95969290        4       0.00012656       0.00134145       0.01488535
Rb      11.23378688      11.46138713       5.71945350        5       0.08895884       0.09886906      -0.03417890
Sn       2.89720764       2.83508840       8.64394958        6       0.10467185       0.00416800      -0.18347772
Br       2.75096191       2.84021849       5.82205990        7       0.05455769       0.01851281      -0.17454022
Br       2.80716641      11.54259884       8.67244975        8      -0.01181006      -0.64787611      -0.00978923
Br      11.43195253       2.85304740       8.51974886        9       0.18965414      -0.00063519       0.01358959
Rb      11.33718244       5.83740752       0.05793847       10       0.02431139      -0.08122241      -0.01414643
Sn       2.68867345       8.62310035       2.73845371       11       0.97471284      -0.35667181      -0.11935882
Br       2.92398218       8.58968130      11.37654615       12      -0.08021411       0.03360072      -0.08862667
Br       2.73018129       5.69443107       2.73839608       13      -0.03236275       0.14146429       0.07512372
Br      11.54161453       8.63626862       2.93873492       14      -1.12366626       0.01098376       0.03741434
Rb      11.44143184       5.84025860       5.77072107       15       0.06640213      -0.09528541       0.00360471
Ge       2.93377723       8.53792258       8.41386709       16       0.35858495      -0.05765272       0.15598620
Br       2.87436491       8.56230075       5.73215722       17      -0.00108033      -0.02470384       0.30700488
Br       2.89114451       5.72501814       8.67277076       18      -0.01816231       0.75164162      -0.12054585
Br       0.04605819       8.60446560       8.59212541       19       0.53768735       0.01734251      -0.06671451
Rb       5.82354956      11.31783969       0.12278946       20      -0.01214970       0.06479359      -0.00786028
Ge       8.65481414       2.90742047       2.94770827       21      -0.34441604      -0.23070366      -0.57825195
Br       8.63848965       2.79651738       0.14237325       22       0.08039859       0.04759283      -0.07293087
Br       8.69019521      11.49417921       2.80704484       23      -0.03226096      -0.07476012       0.17809650
Br       5.80800415       2.90682422       2.79862291       24      -0.04372981      -0.01774975       0.09672633
Rb       5.88097224      11.36413477       5.75810973       25      -0.07593191       0.05188438      -0.01010603
Sn       8.67964507       2.89311988       8.49266861       26      -0.29035629       0.34055581       0.44514101
Br       8.50739390       2.97086568       5.66746623       27       0.00648207      -0.05611603      -0.01638882
Br       8.56542749       0.09173743       8.60285466       28       0.05403110      -0.33159242      -0.10262667
Br       5.74783709       2.87041706       8.63035320       29      -0.06960691      -0.01250844      -0.03359243
Rb       5.73094225       5.74633187       0.12327898       30      -0.03387935      -0.06493961      -0.01010950
Ge       8.53444500       8.52982292       2.76003610       31      -0.33208387       0.12251877      -0.19513371
Br       8.63317997       8.67845539       0.15242796       32      -0.01955382      -0.06788144       0.20505392
Br       8.58166281       5.74420960       2.71575248       33       0.05154493       0.19577048       0.06903984
Br       5.76123866       8.58811418       2.93780056       34       0.60090410      -0.01033702      -0.04452462
Rb       5.72401088       5.82553114       5.64458659       35      -0.04081269      -0.05974636       0.01483055
Sn       8.80718191       8.73877571       8.38602561       36      -0.64342771      -0.41105774       1.17815260
Br       8.49394588       8.58457563       5.83595873       37       0.05945291       0.03732332      -1.16996662
Br       8.64557309       5.72643103       8.47956446       38       0.04416991       0.33852806       0.03150025
Br       5.72206350       8.68969083       8.55600991       39      -0.37569264      -0.02261819      -0.03098795
40
Lattice="11.462503251514008 0.0 0.0 0.0 11.46441787109556 0.0 0.0 -2.4749994163483818e-14 11.462503251513919" Properties=species:S:1:pos:R:3:spacegroup_kinds:I:1:forces:R:3 spacegroup="P 1" unit_cell=conventional occupancy="_JSON {\"0\": {\"Rb\": 1.0}, \"1\": {\"Sn\": 1.0}, \"2\": {\"Br\": 1.0}, \"3\": {\"Br\": 1.0}, \"4\": {\"Br\": 1.0}, \"5\": {\"Rb\": 1.0}, \"6\": {\"Sn\": 1.0}, \"7\": {\"Br\": 1.0}, \"8\": {\"Br\": 1.0}, \"9\": {\"Br\": 1.0}, \"10\": {\"Rb\": 1.0}, \"11\": {\"Sn\": 1.0}, \"12\": {\"Br\": 1.0}, \"13\": {\"Br\": 1.0}, \"14\": {\"Br\": 1.0}, \"15\": {\"Rb\": 1.0}, \"16\": {\"Ge\": 1.0}, \"17\": {\"Br\": 1.0}, \"18\": {\"Br\": 1.0}, \"19\": {\"Br\": 1.0}, \"20\": {\"Rb\": 1.0}, \"21\": {\"Ge\": 1.0}, \"22\": {\"Br\": 1.0}, \"23\": {\"Br\": 1.0}, \"24\": {\"Br\": 1.0}, \"25\": {\"Rb\": 1.0}, \"26\": {\"Sn\": 1.0}, \"27\": {\"Br\": 1.0}, \"28\": {\"Br\": 1.0}, \"29\": {\"Br\": 1.0}, \"30\": {\"Rb\": 1.0}, \"31\": {\"Ge\": 1.0}, \"32\": {\"Br\": 1.0}, \"33\": {\"Br\": 1.0}, \"34\": {\"Br\": 1.0}, \"35\": {\"Rb\": 1.0}, \"36\": {\"Sn\": 1.0}, \"37\": {\"Br\": 1.0}, \"38\": {\"Br\": 1.0}, \"39\": {\"Br\": 1.0}}" candidate_id=682dd46c20190325 formula=RbGe0.36Sn0.64Br3 config_index=2 rattle_stdev=0.08 method=PBE fidelity=phase2_force energy=-124.1827404858469 stress="-0.003102612100464706 7.63192352710609e-06 1.5958166493521378e-05 7.63192352710609e-06 -0.003316818551624259 -3.2177246342831524e-05 1.5958166493521378e-05 -3.2177246342831524e-05 -0.002470882786192268" pbc="T T T"
Rb      11.35557718      11.27700649       0.24071118        0       0.06331980       0.03315698      -0.12055436
Sn       2.74906715       2.83999880       2.76483409        1       0.89908384       0.39233160       0.21689045
Br       2.89569513       2.79585268      -0.01856756        2      -0.08467279       0.07400262      -0.07132542
Br       2.88935863       0.10437290       2.74010619        3      -0.02971760      -0.84379697       0.04398785
Br      11.58849752       2.90562141       2.85516890        4      -1.31985977       0.00480682      -0.04900768
Rb      11.33234456      11.28523863       5.59594525        5       0.00981687       0.02581135       0.11105938
Sn       2.80819210       2.96381593       8.53470144        6       0.51519774      -0.05157139      -0.04250387
Br       2.81854376       2.86149496       5.72818752        7       0.00821909      -0.10732667      -0.08710888
Br       2.77096973      11.30442064       8.66985793        8       0.01511709      -0.10115149      -0.01994031
Br      11.48608641       2.81044295       8.41377569        9      -0.11307236       0.03805588       0.03266899
Rb      11.30161490       5.75121386       0.10537368       10       0.04916101      -0.00403311      -0.04711294
Sn       2.82329028       8.66073299       2.84956064       11       0.27666534      -0.29362307       0.08644826
Br       2.82717713       8.51549243      11.38834112       12       0.02283033      -0.02308933       0.18309883
Br       2.92881703       5.64990918       3.04242864       13      -0.04821013       0.69633648      -0.08524057
Br      11.31115517       8.57918561       2.88301307       14       0.20997353      -0.03261511      -0.01396000
Rb      11.33640340       5.84036524       5.64187476       15       0.01991596      -0.02494552       0.05665571
Ge       2.84986332       8.70606811       8.62449136       16      -0.25865396      -0.04260575      -0.10639236
Br       2.91023737       8.55069059       5.82382159       17      -0.03707808       0.12438574      -0.15624936
Br       2.97212603       5.70990414       8.55801698       18      -0.03680319       0.07301429       0.04431274
Br       0.12009652       8.39068481       8.61023169       19       0.18399208       0.05712965      -0.01217002
Rb       5.91227743      11.21844570       0.15860030       20      -0.06935045       0.09885713      -0.07161367
Ge       8.55686841       2.67856102       2.85699240       21      -0.47498285       0.28796676       0.24069142
Br       8.47665442       2.90520676      -0.02192625       22       0.11561022       0.01537119       0.55856980
Br       8.68147804      11.38528062       2.85961853       23      -0.01001476       0.29976285      -0.04239721
Br       5.74500726       3.03401023       2.83838278       24       0.76009047      -0.23925929      -0.01670919
Rb       5.78692825      11.25956227       5.65047052       25      -0.00970362       0.04763414       0.06229078
Sn       8.68697900       2.89822734       8.65812426       26      -0.52503331      -0.10592991      -0.33206263
Br       8.48862724       2.91201315       5.69131262       27       0.08102081      -0.13942848      -0.46941594
Br       8.64849256      -0.07207760       8.74885652       28       0.02367502       0.49600446       0.01792083
Br       5.75803099       2.90610210       8.54675015       29       0.04981375      -0.05787647      -0.00104770
Rb       5.74892992       5.77099038       0.11425125       30      -0.05693012      -0.09182633      -0.01688920
Ge       8.63976480       8.51231361       2.68819743       31      -0.33376933      -0.27715618       0.40691823
Br       8.64863186       8.57252654       0.02552405       32       0.00641547      -0.07014380       0.50783852
Br       8.41380369       5.73283725       2.94205092       33       0.19713401       0.15417912      -0.15533382
Br       5.80695987       8.76326760       2.87062265       34      -0.19150463      -0.00284418      -0.09117663
Rb       5.82938805       5.79721089       5.66322120       35      -0.03511057      -0.06447745       0.02770401
Sn       8.53182816       8.59018880       8.63253449       36       0.24538417       0.08447714      -0.53225380
Br       8.49486715       8.60693995       5.76010139       37       0.08586386       0.08560237      -0.24124424
Br       8.58432927       5.81901453       8.47909637       38       0.05681913      -0.57369968       0.06454423
Br       5.76659151       8.52684224       8.55295979       39      -0.30407722       0.07817002       0.10564053
40
Lattice="11.462503251514008 0.0 0.0 0.0 11.46441787109556 0.0 0.0 -2.4749994163483818e-14 11.462503251513919" Properties=species:S:1:pos:R:3:spacegroup_kinds:I:1:forces:R:3 spacegroup="P 1" unit_cell=conventional occupancy="_JSON {\"0\": {\"Rb\": 1.0}, \"1\": {\"Sn\": 1.0}, \"2\": {\"Br\": 1.0}, \"3\": {\"Br\": 1.0}, \"4\": {\"Br\": 1.0}, \"5\": {\"Rb\": 1.0}, \"6\": {\"Sn\": 1.0}, \"7\": {\"Br\": 1.0}, \"8\": {\"Br\": 1.0}, \"9\": {\"Br\": 1.0}, \"10\": {\"Rb\": 1.0}, \"11\": {\"Sn\": 1.0}, \"12\": {\"Br\": 1.0}, \"13\": {\"Br\": 1.0}, \"14\": {\"Br\": 1.0}, \"15\": {\"Rb\": 1.0}, \"16\": {\"Ge\": 1.0}, \"17\": {\"Br\": 1.0}, \"18\": {\"Br\": 1.0}, \"19\": {\"Br\": 1.0}, \"20\": {\"Rb\": 1.0}, \"21\": {\"Ge\": 1.0}, \"22\": {\"Br\": 1.0}, \"23\": {\"Br\": 1.0}, \"24\": {\"Br\": 1.0}, \"25\": {\"Rb\": 1.0}, \"26\": {\"Sn\": 1.0}, \"27\": {\"Br\": 1.0}, \"28\": {\"Br\": 1.0}, \"29\": {\"Br\": 1.0}, \"30\": {\"Rb\": 1.0}, \"31\": {\"Ge\": 1.0}, \"32\": {\"Br\": 1.0}, \"33\": {\"Br\": 1.0}, \"34\": {\"Br\": 1.0}, \"35\": {\"Rb\": 1.0}, \"36\": {\"Sn\": 1.0}, \"37\": {\"Br\": 1.0}, \"38\": {\"Br\": 1.0}, \"39\": {\"Br\": 1.0}}" candidate_id=682dd46c20190325 formula=RbGe0.36Sn0.64Br3 config_index=3 rattle_stdev=0.08 method=PBE fidelity=phase2_force energy=-124.08224413363529 stress="-0.0025938046501386464 0.00015068931369933373 5.361334424500248e-05 0.00015068931369933373 -0.0037187596945393517 -3.737555857267608e-06 5.361334424500248e-05 -3.737555857267608e-06 -0.002347250907727051" pbc="T T T"
Rb      11.25891074      11.52447184       0.10171419        0       0.08429090       0.11277061      -0.01446647
Sn       2.84661212       2.87283428       2.94238919        1      -0.33474183      -0.39971590      -0.93221939
Br       2.81109793       2.90843010      -0.05256296        2       0.04625037      -0.01365111      -0.13977686
Br       2.97802231      -0.00967449       2.76115496        3       0.04104240      -0.30398580       0.00455000
Br      11.38589240       2.73642980       2.76322793        4      -0.10792840       0.06634160       0.06331893
Rb      11.34665049      11.29508673       5.57288339        5       0.00510382       0.06279005       0.01759198
Sn       2.88667948       2.66168902       8.46325477        6      -0.01172787       0.55904961       0.66247151
Br       2.80868700       2.67036242       5.61968634        7      -0.03819239      -0.05868604       0.51155585
Br       2.91871562      11.32601331       8.53364466        8      -0.02971394       0.14292660       0.01767931
Br      11.33288309       2.77094127       8.77821265        9       0.54293959       0.00956342      -0.01715801
Rb      11.32645200       5.90522831      -0.04648603       10       0.06498218      -0.13164378      -0.04853459
Sn       2.82632864       8.50235368       2.80120819       11       0.07770583       0.41528929       0.00787352
Br       2.97809130       8.57988815      11.37146415       12      -0.06506442      -0.05232721       0.35266070
Br       2.85261881       5.66959860       2.98675523       13      -0.02979601       0.37954968       0.03745047
Br      11.28336823       8.65099577       2.83809651       14       0.81845367      -0.10575380       0.02157541
Rb      11.30389837       5.84725730       5.58075932       15      -0.00405055      -0.04115376       0.04197234
Ge       2.90984145       8.62892206       8.56717421       16       0.00888637      -0.63145317      -0.06977318
Br       2.99187733       8.61565720       5.86212234       17      -0.02210605       0.02227470      -0.29060046
Br       2.92414426       5.82222646       8.55045295       18      -0.01985766      -0.03146127      -0.05442678
Br       0.02599622       8.47152421       8.59090012       19      -0.02086538       0.03692643       0.01905518
Rb       5.92506536      11.34189780       0.04576506       20      -0.08469483       0.05368960      -0.01697233
Ge       8.44515451       2.74288055       2.83419995       21       0.34584199       0.30153557      -0.07732773
Br       8.56371897       2.92298989       0.07373007       22      -0.10783135      -0.07431886       0.25879992
Br       8.78866434      11.44124347       2.78455512       23      -0.24180409      -0.15484854       0.04548190
Br       5.71809517       2.93378264       2.90517453       24       0.36468081      -0.08162903       0.03110076
Rb       5.85145171      11.40489889       5.65875193       25      -0.02441376      -0.00778511       0.02887475
Sn       8.61504835       2.83487723       8.53943603       26      -0.18367926      -0.03849127       0.04722004
Br       8.72040633       2.79706886       5.68021738       27      -0.04029663      -0.01826340      -0.19969653
Br       8.60358158       0.14263771       8.50253046       28      -0.02836003      -1.27067306       0.07704584
Br       5.70878395       2.83223332       8.64162438       29      -0.28134571      -0.07470582      -0.07771918
Rb       5.78298108       5.83919498       0.16728544       30      -0.04027212      -0.08646510      -0.07588636
Ge       8.63007016       8.58021462       2.92607326       31      -0.20696038      -0.16185610       0.10408872
Br       8.61488783       8.56313316       0.09165553       32       0.04232319      -0.00400865       0.31856611
Br       8.52518758       5.62784486       3.00502454       33       0.09030746       0.17500486      -0.04291871
Br       6.00412686       8.54441538       2.80394387       34      -0.70786268       0.05515382       0.02873504
Rb       5.91360004       5.92515223       5.64299244       35      -0.03184961      -0.01649812       0.05651063
Sn       8.59787691       8.54235169       8.74698137       36       0.07717058       0.01809385      -0.37907103
Br       8.56082477       8.57381466       5.80494179       37       0.02513360       0.02529197      -0.31969135
Br       8.54459016       5.54258366       8.64530560       38       0.00216210       1.27885117       0.00417545
Br       5.65536280       8.61491259       8.68458961       39       0.02807517       0.02669973      -0.00283228
