Cs Pb I  Cs Pb I  Cs Pb Cl I  Cs Pb I  Cl I  Cs Pb I  Cl Cs Pb I  Cs Pb I  Cl I  Cs Pb I  Cl
 1.0000000000000000
    13.1418623710644589    0.0000000000000000    0.0000000000000000
     0.0000000000000000   13.1418623710644589    0.0000000000000000
     0.0000000000000000    0.0000000000000000   13.1418623710644589
 Cs  Pb  I   Cs  Pb  I   Cs  Pb  Cl  I   Cs  Pb  I   Cl  I   Cs  Pb  I   Cl  Cs  Pb  I   Cs  Pb  I   Cl  I   Cs  Pb  I   Cl 
   1   1   3   1   1   3   1   1   2   1   1   1   1   1   1   1   1   2   1   1   1   3   1   1   1   1   1   1   1   2   1
Cartesian
  0.0000000000000000  0.0000000000000000  0.0000000000000000
  3.2854655927661147  3.2854655927661147  3.2854655927661147
  3.2854655927661147  3.2854655927661147  0.0000000000000000
  3.2854655927661147  0.0000000000000000  3.2854655927661147
  0.0000000000000000  3.2854655927661147  3.2854655927661147
  0.0000000000000000  0.0000000000000000  6.5709311855322285
  3.2854655927661147  3.2854655927661147  9.8563967782983433
  3.2854655927661147  3.2854655927661147  6.5709311855322285
  3.2854655927661147  0.0000000000000000  9.8563967782983433
  0.0000000000000000  3.2854655927661147  9.8563967782983433
  0.0000000000000000  6.5709311855322285  0.0000000000000000
  3.2854655927661147  9.8563967782983433  3.2854655927661147
  3.2854655927661147  9.8563967782983433  0.0000000000000000
  3.2854655927661147  6.5709311855322285  3.2854655927661147
  0.0000000000000000  9.8563967782983433  3.2854655927661147
  0.0000000000000000  6.5709311855322285  6.5709311855322285
  3.2854655927661147  9.8563967782983433  9.8563967782983433
  3.2854655927661147  9.8563967782983433  6.5709311855322285
  3.2854655927661147  6.5709311855322285  9.8563967782983433
  0.0000000000000000  9.8563967782983433  9.8563967782983433
  6.5709311855322285  0.0000000000000000  0.0000000000000000
  9.8563967782983433  3.2854655927661147  3.2854655927661147
  9.8563967782983433  3.2854655927661147  0.0000000000000000
  9.8563967782983433  0.0000000000000000  3.2854655927661147
  6.5709311855322285  3.2854655927661147  3.2854655927661147
  6.5709311855322285  0.0000000000000000  6.5709311855322285
  9.8563967782983433  3.2854655927661147  9.8563967782983433
  9.8563967782983433  3.2854655927661147  6.5709311855322285
  9.8563967782983433  0.0000000000000000  9.8563967782983433
  6.5709311855322285  3.2854655927661147  9.8563967782983433
  6.5709311855322285  6.5709311855322285  0.0000000000000000
  9.8563967782983433  9.8563967782983433  3.2854655927661147
  9.8563967782983433  9.8563967782983433  0.0000000000000000
  9.8563967782983433  6.5709311855322285  3.2854655927661147
  6.5709311855322285  9.8563967782983433  3.2854655927661147
  6.5709311855322285  6.5709311855322285  6.5709311855322285
  9.8563967782983433  9.8563967782983433  9.8563967782983433
  9.8563967782983433  9.8563967782983433  6.5709311855322285
  9.8563967782983433  6.5709311855322285  9.8563967782983433
  6.5709311855322285  9.8563967782983433  9.8563967782983433
