Cs Pb I  Cs Pb I  Cs Pb Br I  Cs Pb I  Cs Pb I  Cs Pb I  Cs Pb I  Br I  Cs Pb I 
 1.0000000000000000
    13.4698184961787799    0.0000000000000000    0.0000000000000000
     0.0000000000000000   13.4698184961787799    0.0000000000000000
     0.0000000000000000    0.0000000000000000   13.4698184961787799
 Cs  Pb  I   Cs  Pb  I   Cs  Pb  Br  I   Cs  Pb  I   Cs  Pb  I   Cs  Pb  I   Cs  Pb  I   Br  I   Cs  Pb  I  
   1   1   3   1   1   3   1   1   1   2   1   1   3   1   1   3   1   1   3   1   1   1   1   1   1   1   3
Cartesian
  0.0000000000000000  0.0000000000000000  0.0000000000000000
  3.3674546240446950  3.3674546240446950  3.3674546240446950
  3.3674546240446950  3.3674546240446950  0.0000000000000000
  3.3674546240446950  0.0000000000000000  3.3674546240446950
  0.0000000000000000  3.3674546240446950  3.3674546240446950
  0.0000000000000000  0.0000000000000000  6.7349092480893891
  3.3674546240446950  3.3674546240446950 10.1023638721340845
  3.3674546240446950  3.3674546240446950  6.7349092480893891
  3.3674546240446950  0.0000000000000000 10.1023638721340845
  0.0000000000000000  3.3674546240446950 10.1023638721340845
  0.0000000000000000  6.7349092480893891  0.0000000000000000
  3.3674546240446950 10.1023638721340845  3.3674546240446950
  3.3674546240446950 10.1023638721340845  0.0000000000000000
  3.3674546240446950  6.7349092480893891  3.3674546240446950
  0.0000000000000000 10.1023638721340845  3.3674546240446950
  0.0000000000000000  6.7349092480893891  6.7349092480893891
  3.3674546240446950 10.1023638721340845 10.1023638721340845
  3.3674546240446950 10.1023638721340845  6.7349092480893891
  3.3674546240446950  6.7349092480893891 10.1023638721340845
  0.0000000000000000 10.1023638721340845 10.1023638721340845
  6.7349092480893891  0.0000000000000000  0.0000000000000000
 10.1023638721340845  3.3674546240446950  3.3674546240446950
 10.1023638721340845  3.3674546240446950  0.0000000000000000
 10.1023638721340845  0.0000000000000000  3.3674546240446950
  6.7349092480893891  3.3674546240446950  3.3674546240446950
  6.7349092480893891  0.0000000000000000  6.7349092480893891
 10.1023638721340845  3.3674546240446950 10.1023638721340845
 10.1023638721340845  3.3674546240446950  6.7349092480893891
 10.1023638721340845  0.0000000000000000 10.1023638721340845
  6.7349092480893891  3.3674546240446950 10.1023638721340845
  6.7349092480893891  6.7349092480893891  0.0000000000000000
 10.1023638721340845 10.1023638721340845  3.3674546240446950
 10.1023638721340845 10.1023638721340845  0.0000000000000000
 10.1023638721340845  6.7349092480893891  3.3674546240446950
  6.7349092480893891 10.1023638721340845  3.3674546240446950
  6.7349092480893891  6.7349092480893891  6.7349092480893891
 10.1023638721340845 10.1023638721340845 10.1023638721340845
 10.1023638721340845 10.1023638721340845  6.7349092480893891
 10.1023638721340845  6.7349092480893891 10.1023638721340845
  6.7349092480893891 10.1023638721340845 10.1023638721340845
