Cs Sn I  Cs Sn Br I  Cs Sn Cl I  Cs Sn I  Cl I  Cs Sn I  Cl Cs Sn Br I  Br Cs Sn I  Cl Br Cs Sn I  Br Cl
 1.0000000000000000
    12.8899909356058107    0.0000000000000000    0.0000000000000000
     0.0000000000000000   12.8899909356058107    0.0000000000000000
     0.0000000000000000    0.0000000000000000   12.8899909356058107
 Cs  Sn  I   Cs  Sn  Br  I   Cs  Sn  Cl  I   Cs  Sn  I   Cl  I   Cs  Sn  I   Cl  Cs  Sn  Br  I   Br  Cs  Sn  I   Cl  Br  Cs  Sn  I   Br  Cl 
   1   1   3   1   1   2   1   1   1   2   1   1   1   1   1   1   1   1   2   1   1   1   1   1   1   1   1   1   1   1   1   1   1   1   1
Cartesian
  0.0000000000000000  0.0000000000000000  0.0000000000000000
  3.2224977339014518  3.2224977339014518  3.2224977339014518
  3.2224977339014518  3.2224977339014518  0.0000000000000000
  3.2224977339014518  0.0000000000000000  3.2224977339014518
  0.0000000000000000  3.2224977339014518  3.2224977339014518
  0.0000000000000000  0.0000000000000000  6.4449954678029044
  3.2224977339014518  3.2224977339014518  9.6674932017043584
  3.2224977339014518  3.2224977339014518  6.4449954678029044
  3.2224977339014518  0.0000000000000000  9.6674932017043584
  0.0000000000000000  3.2224977339014518  9.6674932017043584
  0.0000000000000000  6.4449954678029044  0.0000000000000000
  3.2224977339014518  9.6674932017043584  3.2224977339014518
  3.2224977339014518  9.6674932017043584  0.0000000000000000
  3.2224977339014518  6.4449954678029044  3.2224977339014518
  0.0000000000000000  9.6674932017043584  3.2224977339014518
  0.0000000000000000  6.4449954678029044  6.4449954678029044
  3.2224977339014518  9.6674932017043584  9.6674932017043584
  3.2224977339014518  9.6674932017043584  6.4449954678029044
  3.2224977339014518  6.4449954678029044  9.6674932017043584
  0.0000000000000000  9.6674932017043584  9.6674932017043584
  6.4449954678029044  0.0000000000000000  0.0000000000000000
  9.6674932017043584  3.2224977339014518  3.2224977339014518
  9.6674932017043584  3.2224977339014518  0.0000000000000000
  9.6674932017043584  0.0000000000000000  3.2224977339014518
  6.4449954678029044  3.2224977339014518  3.2224977339014518
  6.4449954678029044  0.0000000000000000  6.4449954678029044
  9.6674932017043584  3.2224977339014518  9.6674932017043584
  9.6674932017043584  3.2224977339014518  6.4449954678029044
  9.6674932017043584  0.0000000000000000  9.6674932017043584
  6.4449954678029044  3.2224977339014518  9.6674932017043584
  6.4449954678029044  6.4449954678029044  0.0000000000000000
  9.6674932017043584  9.6674932017043584  3.2224977339014518
  9.6674932017043584  9.6674932017043584  0.0000000000000000
  9.6674932017043584  6.4449954678029044  3.2224977339014518
  6.4449954678029044  9.6674932017043584  3.2224977339014518
  6.4449954678029044  6.4449954678029044  6.4449954678029044
  9.6674932017043584  9.6674932017043584  9.6674932017043584
  9.6674932017043584  9.6674932017043584  6.4449954678029044
  9.6674932017043584  6.4449954678029044  9.6674932017043584
  6.4449954678029044  9.6674932017043584  9.6674932017043584
