Cs Pb I  Cs Pb I  Cs Pb Br I  Cs Pb I  Cs Pb I  Br Cs Pb I  Cs Pb I  Br I  Cs Pb I 
 1.0000000000000000
    13.4399785900127089    0.0000000000000000    0.0000000000000000
     0.0000000000000000   13.4399785900127089    0.0000000000000000
     0.0000000000000000    0.0000000000000000   13.4399785900127089
 Cs  Pb  I   Cs  Pb  I   Cs  Pb  Br  I   Cs  Pb  I   Cs  Pb  I   Br  Cs  Pb  I   Cs  Pb  I   Br  I   Cs  Pb  I  
   1   1   3   1   1   3   1   1   1   2   1   1   3   1   1   2   1   1   1   3   1   1   1   1   1   1   1   3
Cartesian
  0.0000000000000000  0.0000000000000000  0.0000000000000000
  3.3599946475031772  3.3599946475031772  3.3599946475031772
  3.3599946475031772  3.3599946475031772  0.0000000000000000
  3.3599946475031772  0.0000000000000000  3.3599946475031772
  0.0000000000000000  3.3599946475031772  3.3599946475031772
  0.0000000000000000  0.0000000000000000  6.7199892950063536
  3.3599946475031772  3.3599946475031772 10.0799839425095339
  3.3599946475031772  3.3599946475031772  6.7199892950063536
  3.3599946475031772  0.0000000000000000 10.0799839425095339
  0.0000000000000000  3.3599946475031772 10.0799839425095339
  0.0000000000000000  6.7199892950063536  0.0000000000000000
  3.3599946475031772 10.0799839425095339  3.3599946475031772
  3.3599946475031772 10.0799839425095339  0.0000000000000000
  3.3599946475031772  6.7199892950063536  3.3599946475031772
  0.0000000000000000 10.0799839425095339  3.3599946475031772
  0.0000000000000000  6.7199892950063536  6.7199892950063536
  3.3599946475031772 10.0799839425095339 10.0799839425095339
  3.3599946475031772 10.0799839425095339  6.7199892950063536
  3.3599946475031772  6.7199892950063536 10.0799839425095339
  0.0000000000000000 10.0799839425095339 10.0799839425095339
  6.7199892950063536  0.0000000000000000  0.0000000000000000
 10.0799839425095339  3.3599946475031772  3.3599946475031772
 10.0799839425095339  3.3599946475031772  0.0000000000000000
 10.0799839425095339  0.0000000000000000  3.3599946475031772
  6.7199892950063536  3.3599946475031772  3.3599946475031772
  6.7199892950063536  0.0000000000000000  6.7199892950063536
 10.0799839425095339  3.3599946475031772 10.0799839425095339
 10.0799839425095339  3.3599946475031772  6.7199892950063536
 10.0799839425095339  0.0000000000000000 10.0799839425095339
  6.7199892950063536  3.3599946475031772 10.0799839425095339
  6.7199892950063536  6.7199892950063536  0.0000000000000000
 10.0799839425095339 10.0799839425095339  3.3599946475031772
 10.0799839425095339 10.0799839425095339  0.0000000000000000
 10.0799839425095339  6.7199892950063536  3.3599946475031772
  6.7199892950063536 10.0799839425095339  3.3599946475031772
  6.7199892950063536  6.7199892950063536  6.7199892950063536
 10.0799839425095339 10.0799839425095339 10.0799839425095339
 10.0799839425095339 10.0799839425095339  6.7199892950063536
 10.0799839425095339  6.7199892950063536 10.0799839425095339
  6.7199892950063536 10.0799839425095339 10.0799839425095339
