Rb Pb I  Rb Pb I  Rb Pb I  Rb Ge I  Rb Pb I  Rb Pb I  Rb Ge I  Rb Pb I 
 1.0000000000000000
    13.0980217506308918    0.0000000000000000    0.0000000000000000
     0.0000000000000000   13.0980217506308918    0.0000000000000000
     0.0000000000000000    0.0000000000000000   13.0980217506308918
 Rb  Pb  I   Rb  Pb  I   Rb  Pb  I   Rb  Ge  I   Rb  Pb  I   Rb  Pb  I   Rb  Ge  I   Rb  Pb  I  
   1   1   3   1   1   3   1   1   3   1   1   3   1   1   3   1   1   3   1   1   3   1   1   3
Cartesian
  0.0000000000000000  0.0000000000000000  0.0000000000000000
  3.2745054376577230  3.2745054376577230  3.2745054376577230
  3.2745054376577230  3.2745054376577230  0.0000000000000000
  3.2745054376577230  0.0000000000000000  3.2745054376577230
  0.0000000000000000  3.2745054376577230  3.2745054376577230
  0.0000000000000000  0.0000000000000000  6.5490108753154450
  3.2745054376577230  3.2745054376577230  9.8235163129731689
  3.2745054376577230  3.2745054376577230  6.5490108753154450
  3.2745054376577230  0.0000000000000000  9.8235163129731689
  0.0000000000000000  3.2745054376577230  9.8235163129731689
  0.0000000000000000  6.5490108753154450  0.0000000000000000
  3.2745054376577230  9.8235163129731689  3.2745054376577230
  3.2745054376577230  9.8235163129731689  0.0000000000000000
  3.2745054376577230  6.5490108753154450  3.2745054376577230
  0.0000000000000000  9.8235163129731689  3.2745054376577230
  0.0000000000000000  6.5490108753154450  6.5490108753154450
  3.2745054376577230  9.8235163129731689  9.8235163129731689
  3.2745054376577230  9.8235163129731689  6.5490108753154450
  3.2745054376577230  6.5490108753154450  9.8235163129731689
  0.0000000000000000  9.8235163129731689  9.8235163129731689
  6.5490108753154450  0.0000000000000000  0.0000000000000000
  9.8235163129731689  3.2745054376577230  3.2745054376577230
  9.8235163129731689  3.2745054376577230  0.0000000000000000
  9.8235163129731689  0.0000000000000000  3.2745054376577230
  6.5490108753154450  3.2745054376577230  3.2745054376577230
  6.5490108753154450  0.0000000000000000  6.5490108753154450
  9.8235163129731689  3.2745054376577230  9.8235163129731689
  9.8235163129731689  3.2745054376577230  6.5490108753154450
  9.8235163129731689  0.0000000000000000  9.8235163129731689
  6.5490108753154450  3.2745054376577230  9.8235163129731689
  6.5490108753154450  6.5490108753154450  0.0000000000000000
  9.8235163129731689  9.8235163129731689  3.2745054376577230
  9.8235163129731689  9.8235163129731689  0.0000000000000000
  9.8235163129731689  6.5490108753154450  3.2745054376577230
  6.5490108753154450  9.8235163129731689  3.2745054376577230
  6.5490108753154450  6.5490108753154450  6.5490108753154450
  9.8235163129731689  9.8235163129731689  9.8235163129731689
  9.8235163129731689  9.8235163129731689  6.5490108753154450
  9.8235163129731689  6.5490108753154450  9.8235163129731689
  6.5490108753154450  9.8235163129731689  9.8235163129731689
