40
Lattice="11.725574215663963 0.0 0.0 0.0 11.726650424587143 0.0 0.0 -6.177409680955373e-14 11.726650424587065" Properties=species:S:1:pos:R:3:spacegroup_kinds:I:1:forces:R:3 spacegroup="P 1" unit_cell=conventional candidate_id=8527f8d6126b2ea5 formula=FA0.29Rb0.71SnBr3 config_index=0 rattle_stdev=0.0 method=PBE fidelity=phase2_force energy=-125.59670174223244 stress="0.000325643618139083 0.0 0.0 0.0 0.0003141459603689873 1.6548700835728666e-18 0.0 1.6548700835728666e-18 0.0003141459603598741" pbc="T T T"
Rb       0.00000000       0.00000000       0.00000000        0      -0.00000000      -0.00000000       0.00000000
Sn       2.93139355       2.94328564       2.92003957        1       0.00000000      -0.00974729       0.00974729
Br       2.93139355       2.96492379      11.72665042        2       0.00000000      -0.00813656       0.00000000
Br       2.93139355      11.72665042       2.86848827        3       0.00000000      -0.00000000       0.01171128
Br       0.00000000       2.97676577       2.88655944        4       0.00000000      -0.01109785       0.01109785
Cs       0.00000000      -0.00000000       5.86332521        5       0.00000000       0.00000000       0.00000000
Sn       2.93139355       2.94328564       8.80661086        6       0.00000000      -0.00974729      -0.00974729
Br       2.93139355       2.99483694       5.86332521        7       0.00000000      -0.01171128       0.00000000
Br       2.93139355      11.72665042       8.85816215        8       0.00000000       0.00000000      -0.01171128
Br       0.00000000       2.97676577       8.84009099        9       0.00000000      -0.01109785      -0.01109785
Rb       0.00000000       5.86332521      11.72665042       10       0.00000000       0.00000000       0.00000000
Sn       2.93139355       8.78336478       2.92003957       11       0.00000000       0.00974729       0.00974729
Br       2.93139355       8.76172663      11.72665042       12       0.00000000       0.00813656       0.00000000
Br       2.93139355       5.86332521       2.89840142       13       0.00000000      -0.00000000       0.00813656
Br      11.72557422       8.74988465       2.88655944       14       0.00000000       0.01109785       0.01109785
Rb       0.00000000       5.86332521       5.86332521       15      -0.00000000      -0.00000000       0.00000000
Sn       2.93139355       8.78336478       8.80661086       16       0.00000000       0.00974729      -0.00974729
Br       2.93139355       8.73181348       5.86332521       17       0.00000000       0.01171128       0.00000000
Br       2.93139355       5.86332521       8.82824900       18       0.00000000       0.00000000      -0.00813656
Br      11.72557422       8.74988465       8.84009099       19       0.00000000       0.01109785      -0.01109785
Rb       5.86278711       0.00000000       0.00000000       20      -0.00000000      -0.00000000       0.00000000
Sn       8.79418066       2.94328564       2.92003957       21      -0.00000000      -0.00974729       0.00974729
Br       8.79418066       2.96492379      11.72665042       22      -0.00000000      -0.00813656       0.00000000
Br       8.79418066      11.72665042       2.86848827       23      -0.00000000      -0.00000000       0.01171128
Br       5.86278711       2.97676577       2.88655944       24       0.00000000      -0.01109785       0.01109785
Cs       5.86278711      -0.00000000       5.86332521       25       0.00000000      -0.00000000       0.00000000
Sn       8.79418066       2.94328564       8.80661086       26      -0.00000000      -0.00974729      -0.00974729
Br       8.79418066       2.99483694       5.86332521       27      -0.00000000      -0.01171128       0.00000000
Br       8.79418066      11.72665042       8.85816215       28      -0.00000000       0.00000000      -0.01171128
Br       5.86278711       2.97676577       8.84009099       29       0.00000000      -0.01109785      -0.01109785
Rb       5.86278711       5.86332521       0.00000000       30       0.00000000       0.00000000       0.00000000
Sn       8.79418066       8.78336478       2.92003957       31      -0.00000000       0.00974729       0.00974729
Br       8.79418066       8.76172663      11.72665042       32      -0.00000000       0.00813656       0.00000000
Br       8.79418066       5.86332521       2.89840142       33      -0.00000000      -0.00000000       0.00813656
Br       5.86278711       8.74988465       2.88655944       34       0.00000000       0.01109785       0.01109785
Rb       5.86278711       5.86332521       5.86332521       35       0.00000000       0.00000000       0.00000000
Sn       8.79418066       8.78336478       8.80661086       36      -0.00000000       0.00974729      -0.00974729
Br       8.79418066       8.73181348       5.86332521       37      -0.00000000       0.01171128       0.00000000
Br       8.79418066       5.86332521       8.82824900       38      -0.00000000       0.00000000      -0.00813656
Br       5.86278711       8.74988465       8.84009099       39       0.00000000       0.01109785      -0.01109785
40
Lattice="11.725574215663963 0.0 0.0 0.0 11.726650424587143 0.0 0.0 -6.177409680955373e-14 11.726650424587065" Properties=species:S:1:pos:R:3:spacegroup_kinds:I:1:forces:R:3 spacegroup="P 1" unit_cell=conventional candidate_id=8527f8d6126b2ea5 formula=FA0.29Rb0.71SnBr3 config_index=1 rattle_stdev=0.08 method=PBE fidelity=phase2_force energy=-125.0125998642046 stress="-0.0019381630022319574 6.76550057475107e-05 -1.0116475001189644e-06 6.76550057475107e-05 -0.0009637425247535203 -0.0001414504464467142 -1.0116475001189644e-06 -0.0001414504464467142 -0.002423475671636364" pbc="T T T"
Rb      -0.08691571      -0.07168521      -0.02450395        0      -0.05286862       0.02768912       0.03152353
Sn       2.82419886       2.84675880       2.86870142        1       0.34358948       0.34178809       0.19275884
Br       3.03602920       3.11256063      11.79297962        2      -0.08907574      -0.08140756       0.00913522
Br       2.92952965      11.70996531       2.79515869        3      -0.03302595       0.03235127      -0.03318296
Br      -0.08597941       2.96987430       2.98062652        4       0.50924211      -0.01820839       0.00755021
Cs      -0.13080734       0.09825552       5.94943611        5       0.06375519       0.04419070      -0.06323672
Sn       2.96297538       2.91226958       8.85368300        6       0.10452985      -0.00261576      -0.17511575
Br       2.81672965       2.96895097       5.96356399        7       0.04895040       0.00233514      -0.11960831
Br       2.87293415      11.84092923       8.93373447        8      -0.00795435      -0.43480149      -0.01992197
Br      -0.02112022       2.96370871       8.76296241        9       0.07666168       0.00103182       0.00558441
Rb      -0.02741179       5.86723754      11.68667987       10      -0.00623262      -0.03804394       0.02154441
Sn       2.75444119       8.80815173       2.79286747       11       0.84411661      -0.29035062      -0.08874377
Br       2.98974992       8.75309453      11.67463671       12      -0.07419237       0.03479216       0.00713739
Br       2.79594903       5.83384729       2.77117168       13      -0.02695063       0.02469797       0.07299421
Br      11.84401468       8.78783987       2.95966854       14      -0.81592027       0.02054704       0.01843254
Rb       0.07683762       5.87008862       6.00070369       15       0.03471669      -0.05713743      -0.00849024
Sn       2.99954497       8.72297395       8.62360051       16       0.28216815       0.07794533       0.35310234
Br       2.94013265       8.69580083       5.83028742       17      -0.01402946      -0.03370139      -0.05288537
Br       2.95691225       5.82003658       8.90414232       18      -0.01975348       0.43445863      -0.09869000
Br      11.73768902       8.75603684       8.83533896       19       0.30325448       0.01876987      -0.06773938
Rb       5.85717601      -0.04529192       0.02488043       20       0.02485880       0.01711759       0.02716510
Sn       8.85211737       2.98460165       3.00212202       21      -0.49950820      -0.27370737      -0.59038670
Br       8.83579287       2.89533671      11.84669564       22       0.07658673       0.02631402      -0.38143424
Br       8.88749843      11.76600358       2.80990729       23      -0.00746555      -0.11695544       0.11716235
Br       5.91721160       3.01748552       2.81955654       24      -0.32812284      -0.02992573       0.08271746
Cs       5.91459870       0.00100316       5.98809234       25      -0.04139389       0.01862796      -0.04829340
Sn       8.87694829       2.97030106       8.70240202       26      -0.23302480       0.29194566       0.38182622
Br       8.70469712       3.09959815       5.82186785       27       0.00485197      -0.05120440       0.47557657
Br       8.76273072      11.81008790       8.86413937       28       0.07520556      -0.17008421      -0.11370925
Br       5.86994207       2.98107836       8.87356675       29      -0.04503928      -0.02284358      -0.04846999
Rb       5.76456870       5.77616189       0.02536995       30      -0.00234116      -0.02913588       0.03854049
Sn       8.73174822       8.71487430       2.81444986       31      -0.22886683       0.25697277       0.14261381
Br       8.83048319       8.84186862      11.83974920       32       0.01503297      -0.00428725      -0.21482266
Br       8.77896603       5.86573406       2.74852808       33       0.03743504       0.13115917      -0.00376019
Br       5.85344495       8.73968542       2.95873418       34       0.32363784      -0.00213943      -0.02037398
Rb       5.75763733       5.85536115       5.87456920       35      -0.00577497      -0.01982586      -0.01918862
Sn       9.00448514       8.92382709       8.59575903       36      -0.63294263      -0.33688685       0.90520457
Br       8.69124910       8.71807571       6.00736151       37       0.06725477       0.04978209      -0.76271340
Br       8.84287631       5.86584726       8.71093603       38       0.05793577       0.15214989       0.02561440
Br       5.88754237       8.84126208       8.79922345       39      -0.12644364       0.00093905      -0.03321318
40
Lattice="11.725574215663963 0.0 0.0 0.0 11.726650424587143 0.0 0.0 -6.177409680955373e-14 11.726650424587065" Properties=species:S:1:pos:R:3:spacegroup_kinds:I:1:forces:R:3 spacegroup="P 1" unit_cell=conventional candidate_id=8527f8d6126b2ea5 formula=FA0.29Rb0.71SnBr3 config_index=2 rattle_stdev=0.08 method=PBE fidelity=phase2_force energy=-125.03370618390862 stress="-0.0012032517058539322 1.2763686390805528e-05 -2.3089158587161973e-05 1.2763686390805528e-05 -0.0013607331448499175 -2.8429585869310275e-05 -2.3089158587161973e-05 -2.8429585869310275e-05 -0.0008559659684411021" pbc="T T T"
Rb      -0.00901704      -0.08612512       0.14280215        0       0.02846789      -0.02035716      -0.06406130
Sn       2.81483489       2.91717998       2.81924785        1       0.77497038       0.29157387       0.18801514
Br       2.96146287       2.89467200      11.69865236        2      -0.09092903       0.07121674       0.00132912
Br       2.95512637      11.82272338       2.74296865        3      -0.05445084      -0.60033564       0.03610018
Br       0.14832230       3.01628272       2.87610252        4      -0.91204539       0.00175159      -0.05236429
Cs      -0.03224966      -0.07789298       5.82592787        5      -0.01519107      -0.01039138       0.07113854
Sn       2.87395984       3.04099711       8.74443486        6       0.44054476      -0.07765401      -0.09244474
Br       2.88431150       2.99022743       5.86969160        7      -0.01254475      -0.08938694      -0.02627393
Br       2.83673747      11.60275103       8.93114265        8      -0.01580767       0.38193509      -0.02277512
Br       0.03301366       2.92110425       8.65698924        9      -0.13679295       0.05394964       0.04892248
Rb      -0.06297932       5.78104388      11.73411507       10       0.02536740       0.03542560      -0.03018904
Sn       2.88905802       8.84578437       2.90397439       11       0.27960910      -0.26328181       0.08147070
Br       2.89294487       8.67890566      11.68643167       12       0.01163632      -0.02460591       0.41540384
Br       2.99458477       5.78932540       3.07520425       13      -0.05782510       0.51372451      -0.08409147
Br      11.61355532       8.73075686       2.90394669       14       0.56364370       0.00456667       0.00553349
Rb      -0.02819082       5.87019525       5.87185737       15      -0.00258593       0.01576151       0.02641746
Sn       2.91563106       8.89111949       8.83422478       16      -0.08358671      -0.38661699      -0.15334491
Br       2.97600511       8.68419067       5.92195179       17      -0.04444036       0.12224154      -0.32885543
Br       3.03789377       5.80492258       8.78938854       18      -0.04350966      -0.05492353       0.03037969
Br      11.81172735       8.54225606       8.85344524       19      -0.05293458       0.03909902      -0.02788719
Rb       5.94590388      -0.14468591       0.06069128       20      -0.02779679       0.03171016      -0.02094493
Sn       8.75417164       2.75574219       2.91140615       21      -0.31817974       0.50710225       0.20047743
Br       8.67395765       3.00402608      11.68239614       22       0.09727954       0.02705127       0.17522214
Br       8.87878126      11.65710500       2.86248098       23       0.00899616       0.12130870      -0.02877733
Br       5.85421471       3.14467154       2.85931640       24       0.42693486      -0.20317904      -0.00275084
Cs       5.82055470      -0.10356935       5.88045313       25       0.02411489       0.01937985       0.02485397
Sn       8.88428223       2.97540851       8.86785768       26      -0.46825814      -0.07036999      -0.31107249
Br       8.68593047       3.04074562       5.84571424       27       0.05788860      -0.12056214      -0.10912983
Br       8.84579578      11.64627288       9.01014124       28       0.01238809       0.45294346       0.00209450
Br       5.88013597       3.01676341       8.78996370       29       0.08513429      -0.05687838      -0.00823035
Rb       5.78255637       5.80082039       0.01634222       30      -0.02464036      -0.06478255       0.00943295
Sn       8.83706802       8.69736498       2.74261119       31      -0.45236522      -0.23650788       0.63970351
Br       8.84593508       8.73593977      11.71284529       32       0.00674490      -0.04003908       0.06454015
Br       8.61110692       5.85436170       2.97482653       33       0.12129440      -0.06902011      -0.08418615
Br       5.89916616       8.91483885       2.89155627       34      -0.40309896       0.06199735      -0.08021735
Rb       5.86301450       5.82704091       5.89320381       35       0.01379858      -0.03077113      -0.01293097
Sn       8.72913138       8.77524018       8.84226791       36       0.20894041       0.06661155      -0.55343458
Br       8.69217037       8.74044003       5.93150416       37       0.06280725       0.09361532      -0.10287950
Br       8.78163249       5.95843075       8.71046793       38       0.05812994      -0.55853123       0.07294861
Br       5.93207038       8.67841349       8.79617334       39      -0.11256579       0.07733642       0.08683411
40
Lattice="11.725574215663963 0.0 0.0 0.0 11.726650424587143 0.0 0.0 -6.177409680955373e-14 11.726650424587065" Properties=species:S:1:pos:R:3:spacegroup_kinds:I:1:forces:R:3 spacegroup="P 1" unit_cell=conventional candidate_id=8527f8d6126b2ea5 formula=FA0.29Rb0.71SnBr3 config_index=3 rattle_stdev=0.08 method=PBE fidelity=phase2_force energy=-124.86590819691828 stress="-0.001268523326298278 0.00016534087429481833 3.8507768757384e-05 0.00016534087429481833 -0.0013699060351450277 7.548655478145513e-05 3.8507768757384e-05 7.548655478145513e-05 -0.0006356108883374313" pbc="T T T"
Rb      -0.10568348       0.16134023       0.00380516        0       0.02128508       0.09772104       0.04731819
Sn       2.91237986       2.95001546       2.99680295        1      -0.29045353      -0.35240783      -0.71460118
Br       2.87686567       3.00724942      11.66465697        2       0.04824437      -0.03271378      -0.13417389
Br       3.04379005      11.70867599       2.76401742        3       0.02034108      -0.16727940       0.03785996
Br      -0.05428282       2.84709111       2.78416155        4       0.11671648       0.03812363       0.06483619
Cs      -0.01794374      -0.06804488       5.80286600        5      -0.03520746       0.01856712      -0.02246437
Sn       2.95244722       2.73887020       8.67298818        6       0.03325004       0.53476554       0.60553568
Br       2.87445474       2.79909489       5.76119043        7      -0.01658331      -0.03290352       0.32415860
Br       2.98448336      11.62434371       8.79492938        8      -0.00412923       0.51341767      -0.00464132
Br      -0.12018966       2.88160258       9.02142620        9       0.36175607      -0.01124652      -0.05797373
Rb      -0.03814223       5.93505833      11.58225536       10       0.02278223      -0.09055051      -0.03332864
Sn       2.89209638       8.68740505       2.85562194       11       0.07234885       0.35086321      -0.01329529
Br       3.04385904       8.74330138      11.66955470       12      -0.04597477      -0.05835669       0.54233543
Br       2.91838655       5.80901482       3.01953084       13      -0.03115844       0.24228408       0.03099473
Br      11.58576839       8.80256702       2.85903014       14       1.12097242      -0.07677700       0.00650699
Rb      -0.06069585       5.87708731       5.81074193       15      -0.04557453      -0.00250351       0.00676451
Sn       2.97560919       8.81397344       8.77690763       16      -0.12734615      -0.65824433       0.01260351
Br       3.05764507       8.74915728       5.96025254       17      -0.00407291       0.02705106      -0.51451278
Br       2.98991200       5.91724490       8.78182451       18      -0.01267690      -0.28274956      -0.06797768
Br      11.71762705       8.62309546       8.83411367       19      -0.17783591       0.01804995       0.00802965
Rb       5.95869182      -0.02123382      -0.05214397       20      -0.04327229       0.01349287       0.00587337
Sn       8.64245773       2.82006173       2.88861371       21       0.47043838       0.35071150       0.00342478
Br       8.76102219       3.02180921      11.77805246       22      -0.07915026      -0.06170897      -0.13575509
Br       8.98596757      11.71306784       2.78741758       23      -0.11719154      -0.27789634       0.00246679
Br       5.82730261       3.04444395       2.92610816       24      -0.16751471      -0.04912929       0.04287332
Cs       5.88507817       0.04176727       5.88873455       25       0.01824259      -0.04464180      -0.00703727
Sn       8.81235157       2.91205840       8.74916945       26      -0.08143765      -0.06164123       0.04017703
Br       8.91770956       2.92580133       5.83461901       27      -0.00777084      -0.02416353       0.14185651
Br       8.80088481      11.86098819       8.76381518       28      -0.01625441      -0.87356951       0.07288527
Br       5.83088894       2.94289463       8.88483793       29      -0.28779917      -0.09445497      -0.09162068
Rb       5.81660753       5.86902500       0.06937641       30      -0.01517414      -0.04076740      -0.04118612
Sn       8.82737338       8.76526600       2.98048702       31      -0.17085924      -0.21114714       0.18862666
Br       8.81219105       8.72654639      11.77897677       32       0.03483562      -0.00357934       0.05597501
Br       8.72249080       5.74936932       3.03780015       33       0.07000929       0.23254477       0.01699910
Br       6.09633316       8.69598663       2.82487750       34      -1.01128568       0.03006671       0.00051140
Rb       5.94722649       5.95498225       5.87297506       35       0.02898281       0.03640368       0.01349752
Sn       8.79518013       8.72740306       8.95671479       36       0.07742251      -0.01169273      -0.35610721
Br       8.75812799       8.70731474       5.97634456       37       0.00861607       0.01149773      -0.07188288
Br       8.74189338       5.68199989       8.87667716       38       0.00491211       0.96021464      -0.00597016
Br       5.82084167       8.76648383       8.92780315       39       0.24726762       0.03173109      -0.00334603
