Cs Sn I  Cs Sn I  Cs Sn Br I  Cs Sn I  Br I  Cs Sn I  Br Cs Sn I  Cs Sn I  Br I  Cs Sn I 
 1.0000000000000000
    13.3419735901402525    0.0000000000000000    0.0000000000000000
     0.0000000000000000   13.3419735901402525    0.0000000000000000
     0.0000000000000000    0.0000000000000000   13.3419735901402525
 Cs  Sn  I   Cs  Sn  I   Cs  Sn  Br  I   Cs  Sn  I   Br  I   Cs  Sn  I   Br  Cs  Sn  I   Cs  Sn  I   Br  I   Cs  Sn  I  
   1   1   3   1   1   3   1   1   1   2   1   1   1   1   1   1   1   2   1   1   1   3   1   1   1   1   1   1   1   3
Cartesian
  0.0000000000000000  0.0000000000000000  0.0000000000000000
  3.3354933975350631  3.3354933975350631  3.3354933975350631
  3.3354933975350631  3.3354933975350631  0.0000000000000000
  3.3354933975350631  0.0000000000000000  3.3354933975350631
  0.0000000000000000  3.3354933975350631  3.3354933975350631
  0.0000000000000000  0.0000000000000000  6.6709867950701254
  3.3354933975350631  3.3354933975350631 10.0064801926051885
  3.3354933975350631  3.3354933975350631  6.6709867950701254
  3.3354933975350631  0.0000000000000000 10.0064801926051885
  0.0000000000000000  3.3354933975350631 10.0064801926051885
  0.0000000000000000  6.6709867950701254  0.0000000000000000
  3.3354933975350631 10.0064801926051885  3.3354933975350631
  3.3354933975350631 10.0064801926051885  0.0000000000000000
  3.3354933975350631  6.6709867950701254  3.3354933975350631
  0.0000000000000000 10.0064801926051885  3.3354933975350631
  0.0000000000000000  6.6709867950701254  6.6709867950701254
  3.3354933975350631 10.0064801926051885 10.0064801926051885
  3.3354933975350631 10.0064801926051885  6.6709867950701254
  3.3354933975350631  6.6709867950701254 10.0064801926051885
  0.0000000000000000 10.0064801926051885 10.0064801926051885
  6.6709867950701254  0.0000000000000000  0.0000000000000000
 10.0064801926051885  3.3354933975350631  3.3354933975350631
 10.0064801926051885  3.3354933975350631  0.0000000000000000
 10.0064801926051885  0.0000000000000000  3.3354933975350631
  6.6709867950701254  3.3354933975350631  3.3354933975350631
  6.6709867950701254  0.0000000000000000  6.6709867950701254
 10.0064801926051885  3.3354933975350631 10.0064801926051885
 10.0064801926051885  3.3354933975350631  6.6709867950701254
 10.0064801926051885  0.0000000000000000 10.0064801926051885
  6.6709867950701254  3.3354933975350631 10.0064801926051885
  6.6709867950701254  6.6709867950701254  0.0000000000000000
 10.0064801926051885 10.0064801926051885  3.3354933975350631
 10.0064801926051885 10.0064801926051885  0.0000000000000000
 10.0064801926051885  6.6709867950701254  3.3354933975350631
  6.6709867950701254 10.0064801926051885  3.3354933975350631
  6.6709867950701254  6.6709867950701254  6.6709867950701254
 10.0064801926051885 10.0064801926051885 10.0064801926051885
 10.0064801926051885 10.0064801926051885  6.6709867950701254
 10.0064801926051885  6.6709867950701254 10.0064801926051885
  6.6709867950701254 10.0064801926051885 10.0064801926051885
