40
Lattice="12.31886584326367 0.0 0.0 0.018506171594160487 12.248874014040075 0.0 -0.008742929758358466 0.019466158054097037 12.401789526132841" Properties=species:S:1:pos:R:3:spacegroup_kinds:I:1:forces:R:3 spacegroup="P 1" unit_cell=conventional occupancy="_JSON {\"0\": {\"Cs\": 1.0}, \"1\": {\"Sn\": 1.0}, \"2\": {\"I\": 1.0}, \"3\": {\"I\": 1.0}, \"4\": {\"I\": 1.0}, \"5\": {\"Cs\": 1.0}, \"6\": {\"Sn\": 1.0}, \"7\": {\"I\": 1.0}, \"8\": {\"I\": 1.0}, \"9\": {\"I\": 1.0}, \"10\": {\"Cs\": 1.0}, \"11\": {\"Sn\": 1.0}, \"12\": {\"Cl\": 1.0}, \"13\": {\"Cl\": 1.0}, \"14\": {\"I\": 1.0}, \"15\": {\"Cs\": 1.0}, \"16\": {\"Sn\": 1.0}, \"17\": {\"I\": 1.0}, \"18\": {\"Cl\": 1.0}, \"19\": {\"I\": 1.0}, \"20\": {\"Cs\": 1.0}, \"21\": {\"Sn\": 1.0}, \"22\": {\"I\": 1.0}, \"23\": {\"I\": 1.0}, \"24\": {\"Cl\": 1.0}, \"25\": {\"Cs\": 1.0}, \"26\": {\"Sn\": 1.0}, \"27\": {\"I\": 1.0}, \"28\": {\"I\": 1.0}, \"29\": {\"I\": 1.0}, \"30\": {\"Cs\": 1.0}, \"31\": {\"Sn\": 1.0}, \"32\": {\"I\": 1.0}, \"33\": {\"Cl\": 1.0}, \"34\": {\"I\": 1.0}, \"35\": {\"Cs\": 1.0}, \"36\": {\"Sn\": 1.0}, \"37\": {\"I\": 1.0}, \"38\": {\"I\": 1.0}, \"39\": {\"Cl\": 1.0}}" candidate_id=b3bab95bc5935909 formula=CsSnCl0.25I0.753 config_index=0 rattle_stdev=0.0 method=PBE fidelity=phase2_force energy=-118.7016733466524 stress="-0.0008947859400009877 -8.48931290453274e-05 6.803656862678627e-05 -8.48931290453274e-05 0.0006831741713278722 -3.383285925894499e-05 6.803656862678627e-05 -3.383285925894499e-05 -0.001754304890856963" pbc="T T T"
Cs       0.01782721       0.02780168       0.09037437        0       0.00406560      -0.00249733      -0.01374387
Sn       3.24142138       3.40770670       3.06859859        1      -0.22125514      -0.10684596      -0.02616266
I        3.16940112       3.22610438       0.00144224        2       0.00690918      -0.01337468      -0.08053881
I        3.14730804      12.11743750       3.00349750        3      -0.00587559      -0.00301052      -0.03085067
I        0.14086021       3.27381528       3.09562691        4       0.05365662       0.03569739      -0.00089705
Cs       0.03167412       0.03147581       6.08517570        5      -0.00165636      -0.00136314       0.00354563
Sn       3.08834490       3.40173850       9.29033160        6      -0.00258980      -0.12030432       0.00156808
I        3.16079973       3.29549351       6.15831970        7       0.01237439      -0.00391185       0.08903653
I        3.21027368      12.07230998       9.44633931        8       0.03898830       0.03478822       0.04501398
I        0.00969996       3.15018043       9.29415763        9      -0.12288216      -0.01992275      -0.00369463
Cs       0.04115831       6.11673098       0.01509680       10       0.00806874       0.00853153      -0.02367423
Sn       3.10469381       8.98632367       2.81138075       11      -0.00477525       0.14674088       0.10766342
Cl       3.13928316       8.89904329       0.22860151       12       0.01427040      -0.04051547      -0.02685565
Cl       3.26102466       6.03975816       2.94772697       13       0.02097216      -0.04819574       0.00900810
I        0.02577239       8.98678821       3.03228128       14      -0.12856115      -0.02148538       0.01381729
Cs       0.00724584       6.13302512       6.17869909       15      -0.00205360       0.00892721       0.03027685
Sn       3.21015652       9.04435327       9.44344281       16      -0.13205764       0.15180980      -0.12063545
I        3.20129181       9.03322391       6.43401528       17       0.03697216      -0.04056869      -0.06846592
Cl       3.11944639       5.98002469       9.33173781       18       0.01066404       0.03634929       0.03036568
I        0.21669506       9.07047296       9.43614155       19      -0.04560534      -0.03492679       0.05003130
Cs       6.13455231       0.00647124       0.05241969       20       0.00398940      -0.00424244      -0.01673512
Sn       8.90501337       3.24437563       3.09639366       21       0.14640868      -0.16562928      -0.00284092
I        9.12442017       3.16897464       0.03715337       22       0.01883843       0.01070205      -0.18609781
I        9.06375974       0.17017890       3.10403666       23      -0.02834283       0.00676203      -0.00116806
Cl       6.27756636       3.38797717       3.09071728       24      -0.01113189       0.03714330       0.00525764
Cs       6.11406206      12.24271682       6.13351008       25      -0.00015889      -0.01942705       0.02052901
Sn       9.21258731       3.09937188       9.29886686       26      -0.04581253       0.01568268      -0.00440062
I        9.13129553       3.16892892       6.16038940       27       0.01996162       0.01191606       0.18405094
I        9.18422738      12.24457598       9.29669616       28       0.01466859       0.14759936      -0.00150987
I        6.11923830       3.16684931       9.29573834       29       0.14073597      -0.02577938      -0.00808632
Cs       6.09205761       6.13589054       0.04789783       30      -0.00483406       0.00793019      -0.00564100
Sn       9.22359677       8.84058862       3.08315265       31      -0.04049594       0.20409746      -0.02185640
I        9.16476324       9.11117336      12.39334134       32       0.00349698       0.01760815       0.01252145
Cl       9.12994572       6.25518402       3.09938969       33       0.00379990      -0.06539114       0.00973753
I        6.13449759       9.01344339       3.02888285       34       0.14704733      -0.00241887       0.01789927
Cs       6.15574412       6.12195740       6.11699404       35       0.00881062       0.00992318       0.00331778
Sn       8.91918497       9.19422405       9.29885288       36       0.15283540      -0.02453737       0.00327867
I        9.17297003       9.11473286       6.18042699       37       0.01229734       0.01325370       0.00150533
I        9.16315379       6.16733103       9.29327752       38       0.02554043      -0.13995159      -0.00957437
Cl       6.35633246       9.15965120       9.32929721       39      -0.09519564      -0.00627507       0.02306685
40
Lattice="12.31886584326367 0.0 0.0 0.018506171594160487 12.248874014040075 0.0 -0.008742929758358466 0.019466158054097037 12.401789526132841" Properties=species:S:1:pos:R:3:spacegroup_kinds:I:1:forces:R:3 spacegroup="P 1" unit_cell=conventional occupancy="_JSON {\"0\": {\"Cs\": 1.0}, \"1\": {\"Sn\": 1.0}, \"2\": {\"I\": 1.0}, \"3\": {\"I\": 1.0}, \"4\": {\"I\": 1.0}, \"5\": {\"Cs\": 1.0}, \"6\": {\"Sn\": 1.0}, \"7\": {\"I\": 1.0}, \"8\": {\"I\": 1.0}, \"9\": {\"I\": 1.0}, \"10\": {\"Cs\": 1.0}, \"11\": {\"Sn\": 1.0}, \"12\": {\"Cl\": 1.0}, \"13\": {\"Cl\": 1.0}, \"14\": {\"I\": 1.0}, \"15\": {\"Cs\": 1.0}, \"16\": {\"Sn\": 1.0}, \"17\": {\"I\": 1.0}, \"18\": {\"Cl\": 1.0}, \"19\": {\"I\": 1.0}, \"20\": {\"Cs\": 1.0}, \"21\": {\"Sn\": 1.0}, \"22\": {\"I\": 1.0}, \"23\": {\"I\": 1.0}, \"24\": {\"Cl\": 1.0}, \"25\": {\"Cs\": 1.0}, \"26\": {\"Sn\": 1.0}, \"27\": {\"I\": 1.0}, \"28\": {\"I\": 1.0}, \"29\": {\"I\": 1.0}, \"30\": {\"Cs\": 1.0}, \"31\": {\"Sn\": 1.0}, \"32\": {\"I\": 1.0}, \"33\": {\"Cl\": 1.0}, \"34\": {\"I\": 1.0}, \"35\": {\"Cs\": 1.0}, \"36\": {\"Sn\": 1.0}, \"37\": {\"I\": 1.0}, \"38\": {\"I\": 1.0}, \"39\": {\"Cl\": 1.0}}" candidate_id=b3bab95bc5935909 formula=CsSnCl0.25I0.753 config_index=1 rattle_stdev=0.08 method=PBE fidelity=phase2_force energy=-118.0919036520871 stress="-0.0010789265616665978 -0.00031288817784764746 7.5351811074693965e-06 -0.00031288817784764746 -0.0001575363627349268 -4.174521458406547e-05 7.5351811074693965e-06 -4.174521458406547e-05 -0.005031679851918886" pbc="T T T"
Cs      -0.06908850      -0.04388353       0.06587042        0      -0.01106039       0.02926706      -0.00017111
Sn       3.13422669       3.31117985       3.01726045        1      -0.11903748       0.16476107       0.26762365
I        3.27403677       3.37374122       0.06777144        2      -0.11021039      -0.16496246      -0.16855218
I        3.14544414      12.10075239       2.93016792        3      -0.04039235       0.14194376      -0.02450558
I        0.05488080       3.26692381       3.18969399        4       0.20534047       0.02237415      -0.04426399
Cs      -0.09913322       0.12973133       6.17128660        5       0.04260346       0.02996521      -0.03075410
Sn       3.11992673       3.37072243       9.33740374        6       0.05125833      -0.40231703      -0.15182814
I        3.04613583       3.26960753       6.25855847        7       0.06706282       0.01294796      -0.04160931
I        3.15181428      12.18658879       9.52191162        8       0.04062332      -0.28776189      -0.03828077
I       -0.01142026       3.13712336       9.21702905        9      -0.00323452      -0.02922893       0.02262493
Cs       0.01374653       6.12064331      -0.02487375       10      -0.01096571      -0.02184797      -0.00527298
Sn       2.92774145       9.01111062       2.68420865       11       1.05370668      -0.06788599       0.24803340
Cl       3.19763953       8.89041119       0.17658779       12      -0.10793224      -0.02265356      -0.26208475
Cl       3.12558013       6.01028023       2.82049724       13       0.00253742      -0.14160802       0.10998633
I        0.14421285       9.02474342       3.10539038       14      -1.03046302      -0.01673533       0.06478162
Cs       0.08408346       6.13978853       6.31607757       15       0.00173164      -0.01496825       0.01749160
Sn       3.27830794       8.98396245       9.26043247       16       0.01792130       0.40093483       0.48493335
I        3.21003091       8.99721126       6.40097748       17       0.00581341      -0.00492189      -0.43192725
Cl       3.14496509       5.93673605       9.40763113       18      -0.00707081       0.40268916      -0.02945589
I        0.22880986       9.07662515       9.43138952       19      -0.05511963      -0.03557473      -0.00171409
Cs       6.12894121      -0.03882069       0.07730012       20       0.01383531      -0.00619295      -0.02026918
Sn       8.96295007       3.28569163       3.17847611       21      -0.01319352      -0.27193064      -0.64925955
I        9.16603238       3.09938756       0.15719858       22       0.05741960       0.06659640      -0.59596253
I        9.15707751       0.20953205       3.04545568       23      -0.04335264      -0.05781025       0.16257114
Cl       6.33199085       3.42869692       3.02371438       24      -0.11173975       0.02702856       0.07631845
Cs       6.16587365      12.24371997       6.25827721       25      -0.04593681      -0.02365531       0.00735879
Sn       9.29535494       3.12638729       9.19465803       26      -0.22222818       0.31418898       0.30237572
I        9.04181198       3.27369013       6.11893204       27       0.03109791      -0.04790347       0.70416670
I        9.15277744      12.32801346       9.30267338       28       0.02166908      -0.01137254      -0.03796316
I        6.12639327       3.17116190       9.32921410       29       0.11188362      -0.00419463      -0.01866924
Cs       5.99383921       6.04872721       0.07326778       30       0.10013983       0.09034243       0.02896641
Sn       9.16116432       8.77209814       2.97756294       31      -0.17984568       0.58689697       0.17095714
I        9.20106577       9.19131535      12.50644011       32       0.03169113      -0.02643371      -0.26547984
Cl       9.11473109       6.25759287       2.94951636       33       0.02193938      -0.31381568      -0.02275174
I        6.12515543       9.00324416       3.10105760       34       0.31049541      -0.03612705       0.04031225
Cs       6.05059434       6.11399334       6.12823803       35       0.00878078      -0.01850562      -0.00417526
Sn       9.12948945       9.33468636       9.08800106       36      -0.32558633      -0.40310555       1.04758529
I        9.07003847       9.10099508       6.32446329       37       0.03499634       0.07007744      -0.95908425
I        9.21184944       6.16985308       9.17596455       38       0.01889184       0.04640671       0.09167896
Cl       6.38108772       9.25102863       9.28842967       39       0.19111812       0.02441600      -0.03997696
40
Lattice="12.31886584326367 0.0 0.0 0.018506171594160487 12.248874014040075 0.0 -0.008742929758358466 0.019466158054097037 12.401789526132841" Properties=species:S:1:pos:R:3:spacegroup_kinds:I:1:forces:R:3 spacegroup="P 1" unit_cell=conventional occupancy="_JSON {\"0\": {\"Cs\": 1.0}, \"1\": {\"Sn\": 1.0}, \"2\": {\"I\": 1.0}, \"3\": {\"I\": 1.0}, \"4\": {\"I\": 1.0}, \"5\": {\"Cs\": 1.0}, \"6\": {\"Sn\": 1.0}, \"7\": {\"I\": 1.0}, \"8\": {\"I\": 1.0}, \"9\": {\"I\": 1.0}, \"10\": {\"Cs\": 1.0}, \"11\": {\"Sn\": 1.0}, \"12\": {\"Cl\": 1.0}, \"13\": {\"Cl\": 1.0}, \"14\": {\"I\": 1.0}, \"15\": {\"Cs\": 1.0}, \"16\": {\"Sn\": 1.0}, \"17\": {\"I\": 1.0}, \"18\": {\"Cl\": 1.0}, \"19\": {\"I\": 1.0}, \"20\": {\"Cs\": 1.0}, \"21\": {\"Sn\": 1.0}, \"22\": {\"I\": 1.0}, \"23\": {\"I\": 1.0}, \"24\": {\"Cl\": 1.0}, \"25\": {\"Cs\": 1.0}, \"26\": {\"Sn\": 1.0}, \"27\": {\"I\": 1.0}, \"28\": {\"I\": 1.0}, \"29\": {\"I\": 1.0}, \"30\": {\"Cs\": 1.0}, \"31\": {\"Sn\": 1.0}, \"32\": {\"I\": 1.0}, \"33\": {\"Cl\": 1.0}, \"34\": {\"I\": 1.0}, \"35\": {\"Cs\": 1.0}, \"36\": {\"Sn\": 1.0}, \"37\": {\"I\": 1.0}, \"38\": {\"I\": 1.0}, \"39\": {\"Cl\": 1.0}}" candidate_id=b3bab95bc5935909 formula=CsSnCl0.25I0.753 config_index=2 rattle_stdev=0.08 method=PBE fidelity=phase2_force energy=-118.03923677197614 stress="-0.004102229036999732 -0.0001269433119930721 5.363201435021654e-05 -0.0001269433119930721 -0.002881549617292451 0.00016408761799543287 5.363201435021654e-05 0.00016408761799543287 -0.003143449353797711" pbc="T T T"
Cs       0.00881016      -0.05832344       0.23317652        0       0.00426855       0.00182841      -0.07340750
Sn       3.12486272       3.38160103       2.96780687        1       0.72950159      -0.13499234       0.27815999
I        3.19947044       3.15585259      -0.02655582        2      -0.05235484       0.03889513      -0.14650455
I        3.17104086      12.21351046       2.87797788        3      -0.07753277      -0.32481176       0.01555248
I        0.28918251       3.31333223       3.08517000        4      -0.94630347       0.01963729      -0.03657672
Cs      -0.00057554      -0.04641717       6.04777836        5      -0.01799203      -0.00494876       0.04410933
Sn       3.03091118       3.49944996       9.22815560        6       0.44756115      -0.82364663      -0.04929503
I        3.11371768       3.29088400       6.16468609        7       0.02101671      -0.07006515       0.01262363
I        3.11561760      11.94841059       9.51931981        8       0.02084795       0.89907774       0.04802832
I        0.04271362       3.09451891       9.11105588        9      -0.29256441      -0.00562187       0.03987978
Cs      -0.02182101       6.03444965       0.02256145       10       0.02629048       0.02786043      -0.05936615
Sn       3.06235828       9.04874326       2.79531557       11       0.29310053       0.05031967       0.00530095
Cl       3.10083448       8.81622232       0.18838276       12      -0.00012338      -0.01185756       0.25942519
Cl       3.32421587       5.96575835       3.12452980       13      -0.04805571       0.34245896      -0.11523644
I       -0.08624651       8.96766042       3.04966853       14       0.45242606      -0.01074785       0.02186320
Cs      -0.02094498       6.13989516       6.18723125       15      -0.01196828       0.01991805       0.04045904
Sn       3.19439402       9.15210798       9.47105673       16       0.13201324      -0.74721145       0.02719960
I        3.24590336       8.98560110       6.49264185       17       0.00285205       0.04903827      -0.35270461
Cl       3.22594661       5.92162205       9.29287735       18      -0.02816267       0.68236670       0.05529193
I        0.30284819       8.86284436       9.44949581       19      -0.35589788      -0.00854248       0.04771407
Cs       6.21766908      -0.13821467       0.11311097       20      -0.02262001       0.04518212      -0.05188166
Sn       8.86500434       3.05683218       3.08776024       21      -0.07127273       0.40258612       0.13284682
I        9.00419716       3.20807693      -0.00710091       22       0.10535199       0.03108268      -0.05971519
I        9.14836034       0.10063347       3.09802937       23      -0.03888064      -0.16785915      -0.01183456
Cl       6.26899396       3.55588294       3.06347424       24       0.28601614      -0.19789456      -0.01723925
Cs       6.07182965      12.13914747       6.15063801       25       0.02073580      -0.00739727       0.03188834
Sn       9.30268888       3.13149475       9.36011369       26      -0.41902779      -0.06744662      -0.19726654
I        9.02304533       3.21483760       6.14277843       27       0.07635861      -0.06914451       0.10572558
I        9.23584250      12.16419843       9.44867525       28       0.05148538       0.66092646       0.00670989
I        6.13658717       3.20684694       9.24561106       29       0.13974449      -0.09832075       0.00344901
Cs       6.01182687       6.07338572       0.06424004       30      -0.01149466      -0.00741491       0.03071743
Sn       9.26648413       8.75458883       2.90572427       31      -0.51028515       0.23606886       0.61850790
I        9.21651765       9.08538650      12.37953620       32       0.03467918      -0.05072165       0.03328469
Cl       8.94687198       6.24622051       3.17581480       33       0.12297366      -0.20028979      -0.09820301
I        6.17087664       9.17839758       3.03387969       34      -0.27113234       0.01549444      -0.04419692
Cs       6.15597151       6.08567309       6.14687264       35       0.00082592       0.00227833      -0.05176557
Sn       8.85413569       9.18609945       9.33450994       36       0.90000691       0.09675800      -0.44169162
I        9.07095974       9.12335940       6.24860594       37       0.06454831       0.11136381      -0.17521280
I        9.15060562       6.26243657       9.17549645       38       0.13208572      -0.77857570       0.04822202
Cl       6.42561572       9.08818004       9.28537956       39      -0.87411357       0.04970886       0.08352925
40
Lattice="12.31886584326367 0.0 0.0 0.018506171594160487 12.248874014040075 0.0 -0.008742929758358466 0.019466158054097037 12.401789526132841" Properties=species:S:1:pos:R:3:spacegroup_kinds:I:1:forces:R:3 spacegroup="P 1" unit_cell=conventional occupancy="_JSON {\"0\": {\"Cs\": 1.0}, \"1\": {\"Sn\": 1.0}, \"2\": {\"I\": 1.0}, \"3\": {\"I\": 1.0}, \"4\": {\"I\": 1.0}, \"5\": {\"Cs\": 1.0}, \"6\": {\"Sn\": 1.0}, \"7\": {\"I\": 1.0}, \"8\": {\"I\": 1.0}, \"9\": {\"I\": 1.0}, \"10\": {\"Cs\": 1.0}, \"11\": {\"Sn\": 1.0}, \"12\": {\"Cl\": 1.0}, \"13\": {\"Cl\": 1.0}, \"14\": {\"I\": 1.0}, \"15\": {\"Cs\": 1.0}, \"16\": {\"Sn\": 1.0}, \"17\": {\"I\": 1.0}, \"18\": {\"Cl\": 1.0}, \"19\": {\"I\": 1.0}, \"20\": {\"Cs\": 1.0}, \"21\": {\"Sn\": 1.0}, \"22\": {\"I\": 1.0}, \"23\": {\"I\": 1.0}, \"24\": {\"Cl\": 1.0}, \"25\": {\"Cs\": 1.0}, \"26\": {\"Sn\": 1.0}, \"27\": {\"I\": 1.0}, \"28\": {\"I\": 1.0}, \"29\": {\"I\": 1.0}, \"30\": {\"Cs\": 1.0}, \"31\": {\"Sn\": 1.0}, \"32\": {\"I\": 1.0}, \"33\": {\"Cl\": 1.0}, \"34\": {\"I\": 1.0}, \"35\": {\"Cs\": 1.0}, \"36\": {\"Sn\": 1.0}, \"37\": {\"I\": 1.0}, \"38\": {\"I\": 1.0}, \"39\": {\"Cl\": 1.0}}" candidate_id=b3bab95bc5935909 formula=CsSnCl0.25I0.753 config_index=3 rattle_stdev=0.08 method=PBE fidelity=phase2_force energy=-117.9391961081766 stress="-0.002068981028168197 0.00024198419197738865 9.250841272425563e-05 0.00024198419197738865 -0.00012884520124667166 0.00017050734658341518 9.250841272425563e-05 0.00017050734658341518 -0.002891094709615845" pbc="T T T"
Cs      -0.08785628       0.18914191       0.09417953        0       0.03807784       0.03378150       0.00904056
Sn       3.22240769       3.41443651       3.14536197        1      -0.38206762      -0.49524871      -0.75951078
I        3.11487324       3.26843001      -0.06055121        2       0.02783639      -0.02127976      -0.14898443
I        3.25970454      12.09946306       2.89902664        3      -0.02276200      -0.23633286       0.00532304
I        0.08657739       3.14414062       2.99322903        4       0.22512327       0.11766674       0.07828759
Cs       0.01373038      -0.03656907       6.02471650        5      -0.02530670       0.01474820      -0.01221538
Sn       3.10939856       3.19732305       9.15670892        6      -0.02397896       0.56813665       0.52328375
I        3.10386092       3.09975146       6.05618491        7       0.00000142      -0.02480816       0.45704918
I        3.26336349      11.97000326       9.38310654        8      -0.00667816       0.78085283       0.06210832
I       -0.11048970       3.05501723       9.47549285        9       0.28095775       0.00669698      -0.03323817
Cs       0.00301609       6.18846410      -0.12929826       10       0.03809059      -0.09288068      -0.01897932
Sn       3.06539664       8.89036394       2.74696312       11       0.18482016       0.48441173       0.03874961
Cl       3.25174865       8.88061803       0.17150579       12      -0.04917225      -0.10776134       0.27186767
Cl       3.24801765       5.98544776       3.06885639       13       0.00155962       0.30028256       0.03794145
I       -0.11403344       9.03947057       3.00475198       14       0.97762358      -0.00584703      -0.02961902
Cs      -0.05345001       6.14678722       6.12611581       15      -0.02485731      -0.01057899       0.04386052
Sn       3.25437216       9.07496193       9.41373959       16      -0.14075916      -0.64098819       0.27435595
I        3.32754333       9.05056771       6.53094261       17       0.00953456      -0.04017189      -0.66827469
Cl       3.17796484       6.03394438       9.28531332       18      -0.00435079      -0.57220204      -0.06686358
I        0.20874789       8.94368376       9.43016424       19      -0.11006127       0.05601167      -0.01467483
Cs       6.23045702      -0.01476258       0.00027572       20      -0.04349986      -0.00310860      -0.02166408
Sn       8.75329044       3.12115171       3.06496780       21       0.73465997       0.27339214       0.05524473
I        9.09126170       3.22586006       0.08855540       22      -0.03107720      -0.01169100      -0.34255686
I        9.25554664       0.15659631       3.02296596       23      -0.13532174      -0.36986843       0.01963940
Cl       6.24208186       3.45565535       3.13026600       24      -0.48011164      -0.02431214       0.03291051
Cs       6.13635312      12.28448409       6.15891942       25       0.01625570      -0.06255843       0.01713629
Sn       9.23075822       3.06814464       9.24142546       26      -0.11771008      -0.09014619      -0.00914647
I        9.25482442       3.09989331       6.13168320       27       0.01435017       0.02601455       0.30333765
I        9.19093153      12.37891374       9.20234918       28      -0.03049945      -0.84906736       0.05489524
I        6.08734013       3.13297816       9.34048529       29      -0.05529972      -0.04812588      -0.06614391
Cs       6.04587803       6.14159033       0.11727423       30      -0.02398736      -0.03586956      -0.07995571
Sn       9.25678949       8.82248984       3.14360010       31      -0.19739542      -0.20127652       0.21405601
I        9.18277363       9.07599312      12.44566768       32       0.04838056       0.02032453       0.07944540
Cl       9.05825586       6.14122813       3.23878842       33       0.10233889       0.23456413       0.00616400
I        6.36804364       8.95954537       2.96720091       34      -1.04780434       0.08496401       0.03301451
Cs       6.24018350       6.21361444       6.12664389       35       0.01542568      -0.02141418       0.02169466
Sn       8.92018445       9.13826233       9.44895681       36       0.08844168       0.00588891      -0.30575371
I        9.13691736       9.09023412       6.29344634       37       0.04084208       0.02835455      -0.11360908
I        9.11086651       5.98600571       9.34170568       38      -0.01937542       0.94789334      -0.01246420
Cl       6.31438702       9.17625039       9.41700937       39       0.13370717      -0.01574392       0.07113743
