40
Lattice="11.707496400781169 0.0 0.0 0.0 11.707496400781348 0.0 0.0 8.650322902776075e-14 11.707496400781169" Properties=species:S:1:pos:R:3:spacegroup_kinds:I:1:forces:R:3 spacegroup="P 1" unit_cell=conventional occupancy="_JSON {\"0\": {\"Cs\": 1.0}, \"1\": {\"Sn\": 1.0}, \"2\": {\"Br\": 1.0}, \"3\": {\"Br\": 1.0}, \"4\": {\"Br\": 1.0}, \"5\": {\"Cs\": 1.0}, \"6\": {\"Sn\": 1.0}, \"7\": {\"Br\": 1.0}, \"8\": {\"Br\": 1.0}, \"9\": {\"Br\": 1.0}, \"10\": {\"Cs\": 1.0}, \"11\": {\"Sn\": 1.0}, \"12\": {\"Br\": 1.0}, \"13\": {\"Br\": 1.0}, \"14\": {\"Br\": 1.0}, \"15\": {\"Cs\": 1.0}, \"16\": {\"Sn\": 1.0}, \"17\": {\"Br\": 1.0}, \"18\": {\"Br\": 1.0}, \"19\": {\"Br\": 1.0}, \"20\": {\"Cs\": 1.0}, \"21\": {\"Sn\": 1.0}, \"22\": {\"Br\": 1.0}, \"23\": {\"Br\": 1.0}, \"24\": {\"Br\": 1.0}, \"25\": {\"Cs\": 1.0}, \"26\": {\"Sn\": 1.0}, \"27\": {\"Br\": 1.0}, \"28\": {\"Br\": 1.0}, \"29\": {\"Br\": 1.0}, \"30\": {\"Cs\": 1.0}, \"31\": {\"Ge\": 1.0}, \"32\": {\"Br\": 1.0}, \"33\": {\"Br\": 1.0}, \"34\": {\"Br\": 1.0}, \"35\": {\"Cs\": 1.0}, \"36\": {\"Sn\": 1.0}, \"37\": {\"Br\": 1.0}, \"38\": {\"Br\": 1.0}, \"39\": {\"Br\": 1.0}}" candidate_id=e3eb70e75cd131e9 formula=CsGe0.11Sn0.89Br3 config_index=0 rattle_stdev=0.0 method=PBE fidelity=phase2_force energy=-126.64914635517293 stress="0.0003665516894047131 1.140737942174613e-15 -1.1407379421746387e-15 1.140737942174613e-15 0.0003665516894047021 -1.1434462842192004e-15 -1.1407379421746387e-15 -1.1434462842192004e-15 0.00036655168940471307" pbc="T T T"
Cs      11.61880468      11.61880468       0.08869172        0       0.04223985       0.04223985      -0.04223985
Sn       2.92687410       2.92687410       2.92687410        1      -0.00000000      -0.00000000      -0.00000000
Br       2.92687410       2.92687410       0.00782662        2       0.00000000       0.00000000      -0.01834339
Br       2.92687410       0.01111324       2.92687410        3      -0.00000000      -0.12240099       0.00000000
Br       0.01111324       2.92687410       2.92687410        4      -0.12240099      -0.00000000       0.00000000
Cs      11.61880468      11.61880468       5.76505648        5       0.04223985       0.04223985       0.04223985
Sn       2.92687410       2.92687410       8.78062230        6       0.00000000       0.00000000      -0.00000000
Br       2.92687410       2.92687410       5.84592158        7       0.00000000       0.00000000       0.01834339
Br       2.92687410      11.69966978       8.78062230        8       0.00000000       0.01834339      -0.00000000
Br      11.69966978       2.92687410       8.78062230        9       0.01834339       0.00000000      -0.00000000
Cs      11.61880468       5.94243992       0.08869172       10       0.04223985      -0.04223985      -0.04223985
Sn       2.92687410       8.78062230       2.92687410       11      -0.00000000      -0.00000000       0.00000000
Br       2.92687410       8.78062230      11.69638316       12      -0.00000000      -0.00000000       0.12240099
Br       2.92687410       5.84263496       2.92687410       13       0.00000000       0.12240099      -0.00000000
Br      11.64664463       8.78062230       2.92687410       14      -0.12745487       0.00000000      -0.00000000
Cs      11.61880468       5.94243992       5.76505648       15       0.04223985      -0.04223985       0.04223985
Sn       2.92687410       8.78062230       8.78062230       16      -0.00000000       0.00000000       0.00000000
Br       2.92687410       8.78062230       5.86486144       17       0.00000000       0.00000000      -0.12240099
Br       2.92687410       5.86157482       8.78062230       18       0.00000000      -0.01834339      -0.00000000
Br       0.01111324       8.78062230       8.78062230       19      -0.12240099      -0.00000000       0.00000000
Cs       5.94243992      11.61880468       0.08869172       20      -0.04223985       0.04223985      -0.04223985
Sn       8.78062230       2.92687410       2.92687410       21      -0.00000000      -0.00000000       0.00000000
Br       8.78062230       2.92687410      11.69638316       22      -0.00000000      -0.00000000       0.12240099
Br       8.78062230      11.64664463       2.92687410       23       0.00000000      -0.12745487      -0.00000000
Br       5.84263496       2.92687410       2.92687410       24       0.12240099       0.00000000      -0.00000000
Cs       5.94243992      11.61880468       5.76505648       25      -0.04223985       0.04223985       0.04223985
Sn       8.78062230       2.92687410       8.78062230       26       0.00000000      -0.00000000       0.00000000
Br       8.78062230       2.92687410       5.86486144       27       0.00000000       0.00000000      -0.12240099
Br       8.78062230       0.01111324       8.78062230       28      -0.00000000      -0.12240099       0.00000000
Br       5.86157482       2.92687410       8.78062230       29      -0.01834339       0.00000000      -0.00000000
Cs       5.94243992       5.94243992       0.08869172       30      -0.04223985      -0.04223985      -0.04223985
Ge       8.78062230       8.78062230       2.92687410       31      -0.00000000      -0.00000000       0.00000000
Br       8.78062230       8.78062230       0.06085177       32       0.00000000       0.00000000       0.12745487
Br       8.78062230       5.91459997       2.92687410       33       0.00000000       0.12745487      -0.00000000
Br       5.91459997       8.78062230       2.92687410       34       0.12745487       0.00000000      -0.00000000
Cs       5.94243992       5.94243992       5.76505648       35      -0.04223985      -0.04223985       0.04223985
Sn       8.78062230       8.78062230       8.78062230       36      -0.00000000      -0.00000000       0.00000000
Br       8.78062230       8.78062230       5.79289643       37       0.00000000       0.00000000      -0.12745487
Br       8.78062230       5.84263496       8.78062230       38       0.00000000       0.12240099      -0.00000000
Br       5.84263496       8.78062230       8.78062230       39       0.12240099       0.00000000      -0.00000000
40
Lattice="11.707496400781169 0.0 0.0 0.0 11.707496400781348 0.0 0.0 8.650322902776075e-14 11.707496400781169" Properties=species:S:1:pos:R:3:spacegroup_kinds:I:1:forces:R:3 spacegroup="P 1" unit_cell=conventional occupancy="_JSON {\"0\": {\"Cs\": 1.0}, \"1\": {\"Sn\": 1.0}, \"2\": {\"Br\": 1.0}, \"3\": {\"Br\": 1.0}, \"4\": {\"Br\": 1.0}, \"5\": {\"Cs\": 1.0}, \"6\": {\"Sn\": 1.0}, \"7\": {\"Br\": 1.0}, \"8\": {\"Br\": 1.0}, \"9\": {\"Br\": 1.0}, \"10\": {\"Cs\": 1.0}, \"11\": {\"Sn\": 1.0}, \"12\": {\"Br\": 1.0}, \"13\": {\"Br\": 1.0}, \"14\": {\"Br\": 1.0}, \"15\": {\"Cs\": 1.0}, \"16\": {\"Sn\": 1.0}, \"17\": {\"Br\": 1.0}, \"18\": {\"Br\": 1.0}, \"19\": {\"Br\": 1.0}, \"20\": {\"Cs\": 1.0}, \"21\": {\"Sn\": 1.0}, \"22\": {\"Br\": 1.0}, \"23\": {\"Br\": 1.0}, \"24\": {\"Br\": 1.0}, \"25\": {\"Cs\": 1.0}, \"26\": {\"Sn\": 1.0}, \"27\": {\"Br\": 1.0}, \"28\": {\"Br\": 1.0}, \"29\": {\"Br\": 1.0}, \"30\": {\"Cs\": 1.0}, \"31\": {\"Ge\": 1.0}, \"32\": {\"Br\": 1.0}, \"33\": {\"Br\": 1.0}, \"34\": {\"Br\": 1.0}, \"35\": {\"Cs\": 1.0}, \"36\": {\"Sn\": 1.0}, \"37\": {\"Br\": 1.0}, \"38\": {\"Br\": 1.0}, \"39\": {\"Br\": 1.0}}" candidate_id=e3eb70e75cd131e9 formula=CsGe0.11Sn0.89Br3 config_index=1 rattle_stdev=0.08 method=PBE fidelity=phase2_force energy=-126.18422589447907 stress="-0.001871417883530507 7.703646106616908e-05 -3.210401481524766e-05 7.703646106616908e-05 -0.001035856352096545 -6.470643258055184e-05 -3.210401481524766e-05 -6.470643258055184e-05 -0.0020980102091175683" pbc="T T T"
Cs      11.53188897      11.54711947       0.06418777        0       0.04058434       0.10789958      -0.01483026
Sn       2.81967941       2.83034725       2.87553596        1       0.36858795       0.37140446       0.20264584
Br       3.03150975       3.07451093       0.07415582        2      -0.09277177      -0.08068514       0.00422519
Br       2.92501020      -0.00557187       2.85354452        3      -0.02787752      -0.11883152      -0.01813620
Br      -0.07486616       2.91998262       3.02094118        4       0.36627643      -0.01265283      -0.00503679
Cs      11.48799734      11.71706020       5.85116738        5       0.11796587       0.07963906      -0.02709850
Sn       2.95845593       2.89585803       8.82769444        6       0.11588874      -0.01179674      -0.20084370
Br       2.81221019       2.90098813       5.94616035        7       0.05146126       0.01336694      -0.10719747
Br       2.86841469      11.81394858       8.85619461        8      -0.00570108      -0.42464167      -0.01009385
Br      11.67854955       2.91381704       8.70349372        9       0.07756015       0.00513126       0.01361156
Cs      11.59139290       5.94635224       0.04872116       10       0.03820981      -0.08103082      -0.02937402
Sn       2.74992174       8.80540925       2.79970200       11       0.60529412      -0.29515701      -0.09844485
Br       2.98523047       8.77199020      11.64436944       12      -0.08514803       0.02545207       0.14031223
Br       2.79142958       5.81315703       2.79964436       13      -0.02127118       0.13890975       0.07890766
Br      11.76508510       8.81857752       2.99998321       14      -0.61757444      -0.00161888      -0.00131370
Cs      11.69564230       5.94920332       5.90243496       15       0.06115572      -0.09788125      -0.01282534
Sn       2.99502552       8.72023148       8.59761196       16       0.28255326       0.08229386       0.40880068
Br       2.93561320       8.74460965       5.83182365       17      -0.01148091      -0.01158874      -0.20436532
Br       2.95239280       5.81828619       8.85651562       18      -0.01816536       0.40989435      -0.08966414
Br       0.02322805       8.78677450       8.77587027       19       0.15846438       0.02563391      -0.05817258
Cs       5.93682882      11.57351276       0.11357215       20      -0.01802318       0.07773113      -0.01768301
Sn       8.83855901       2.96819010       3.00895655       21      -0.48057511      -0.23292602      -0.62254578
Br       8.82223451       2.85728702      11.81642837       22       0.06312463       0.03649770      -0.25605234
Br       8.87394007      11.68599779       2.86829312       23      -0.04010363      -0.16532167       0.14209877
Br       5.89705945       2.96759385       2.85987120       24      -0.22833370      -0.02518836       0.08025787
Cs       5.99425151      11.61980784       5.88982361       25      -0.09674364       0.06872382      -0.02540879
Sn       8.86338993       2.95388951       8.67641347       26      -0.21291311       0.30905081       0.42874878
Br       8.69113876       3.03163531       5.82340408       27       0.00726376      -0.04889735       0.34478028
Br       8.74917236       0.09455072       8.78659952       28       0.06750254      -0.31354672      -0.09331424
Br       5.86872979       2.93118669       8.81409806       29      -0.07446916      -0.01210966      -0.03475398
Cs       5.84422151       5.85527659       0.11406167       30      -0.02163733      -0.04747493      -0.03343891
Ge       8.71818986       8.71213182       2.82128439       31      -0.34877513       0.12158684      -0.29073282
Br       8.81692483       8.86076429       0.17395055       32      -0.02916552      -0.08276577       0.27158214
Br       8.76540767       5.91700882       2.77700076       33       0.03730667       0.33973530       0.06301328
Br       5.90525782       8.77042307       2.99904884       34       0.51695697      -0.00844204      -0.05466839
Cs       5.83729014       5.93447586       5.77630047       35      -0.04127672      -0.06993747       0.01691072
Sn       8.99092678       8.92108461       8.56977048       36      -0.62957897      -0.35698550       0.68845596
Br       8.67769074       8.76688452       5.93693272       37       0.11619455       0.04753057      -0.58628361
Br       8.82931795       5.84515700       8.66330933       38       0.03941340       0.25750024       0.03160194
Br       5.86739022       8.87199973       8.73975477       39      -0.03102604      -0.02044691      -0.01765349
40
Lattice="11.707496400781169 0.0 0.0 0.0 11.707496400781348 0.0 0.0 8.650322902776075e-14 11.707496400781169" Properties=species:S:1:pos:R:3:spacegroup_kinds:I:1:forces:R:3 spacegroup="P 1" unit_cell=conventional occupancy="_JSON {\"0\": {\"Cs\": 1.0}, \"1\": {\"Sn\": 1.0}, \"2\": {\"Br\": 1.0}, \"3\": {\"Br\": 1.0}, \"4\": {\"Br\": 1.0}, \"5\": {\"Cs\": 1.0}, \"6\": {\"Sn\": 1.0}, \"7\": {\"Br\": 1.0}, \"8\": {\"Br\": 1.0}, \"9\": {\"Br\": 1.0}, \"10\": {\"Cs\": 1.0}, \"11\": {\"Sn\": 1.0}, \"12\": {\"Br\": 1.0}, \"13\": {\"Br\": 1.0}, \"14\": {\"Br\": 1.0}, \"15\": {\"Cs\": 1.0}, \"16\": {\"Sn\": 1.0}, \"17\": {\"Br\": 1.0}, \"18\": {\"Br\": 1.0}, \"19\": {\"Br\": 1.0}, \"20\": {\"Cs\": 1.0}, \"21\": {\"Sn\": 1.0}, \"22\": {\"Br\": 1.0}, \"23\": {\"Br\": 1.0}, \"24\": {\"Br\": 1.0}, \"25\": {\"Cs\": 1.0}, \"26\": {\"Sn\": 1.0}, \"27\": {\"Br\": 1.0}, \"28\": {\"Br\": 1.0}, \"29\": {\"Br\": 1.0}, \"30\": {\"Cs\": 1.0}, \"31\": {\"Ge\": 1.0}, \"32\": {\"Br\": 1.0}, \"33\": {\"Br\": 1.0}, \"34\": {\"Br\": 1.0}, \"35\": {\"Cs\": 1.0}, \"36\": {\"Sn\": 1.0}, \"37\": {\"Br\": 1.0}, \"38\": {\"Br\": 1.0}, \"39\": {\"Br\": 1.0}}" candidate_id=e3eb70e75cd131e9 formula=CsGe0.11Sn0.89Br3 config_index=2 rattle_stdev=0.08 method=PBE fidelity=phase2_force energy=-126.06792987550345 stress="-0.0012033227777217086 9.153101521457846e-05 4.384791087592328e-05 9.153101521457846e-05 -0.0014299805076986006 -1.537964884105567e-05 4.384791087592328e-05 -1.537964884105567e-05 -0.0008149757706665929" pbc="T T T"
Cs      11.60978764      11.53267956       0.23149387        0       0.08185585       0.05181955      -0.15534595
Sn       2.81031544       2.90076844       2.82608238        1       0.82627232       0.33237828       0.16120145
Br       2.95694342       2.85662231      -0.02017144        2      -0.09087889       0.07538406      -0.00845906
Br       2.95060692       0.10718620       2.80135448        3      -0.03534787      -0.73868388       0.05755800
Br       0.15943554       2.96639104       2.91641719        4      -1.03885964       0.00334978      -0.03916227
Cs      11.58655502      11.54091170       5.72765914        5       0.02852546       0.03420838       0.13290862
Sn       2.86944038       3.02458556       8.71844630        6       0.42705456      -0.01494904      -0.10020137
Br       2.87979205       2.92226459       5.85228797        7       0.00011508      -0.08517661      -0.00767502
Br       2.83221802      11.57577038       8.85360279        8      -0.00645977       0.42305556      -0.01896335
Br      11.73268344       2.87121258       8.59752055        9      -0.11080711       0.05218800       0.05820208
Cs      11.55582536       5.86015859       0.09615637       10       0.06706178      -0.01219191      -0.05526368
Sn       2.88453857       8.84304189       2.91080892       11       0.26526807      -0.24758773       0.09613961
Br       2.88842541       8.69780133      11.65616441       12       0.01014537      -0.02288977       0.53548972
Br       2.99006532       5.76863515       3.10367693       13      -0.06832230       0.59818871      -0.10978888
Br      11.53462573       8.76149451       2.94426135       14       0.21794485      -0.04363351      -0.02493777
Cs      11.59061386       5.94930996       5.77358864       15       0.03094009      -0.03238369       0.05863564
Sn       2.91111160       8.88837701       8.80823622       16      -0.05452363      -0.39618044      -0.15792065
Br       2.97148565       8.73299949       5.92348802       17      -0.04377635       0.10762658      -0.45976709
Br       3.03337431       5.80317219       8.74176184       18      -0.05589269      -0.11999316       0.03624458
Br       0.09726638       8.57299371       8.79397656       19      -0.17189358       0.04343826      -0.01255870
Cs       6.02555669      11.47411877       0.14938299       20      -0.09099356       0.12001082      -0.10038274
Sn       8.74061328       2.73933065       2.91824069       21      -0.34499299       0.38584728       0.22337698
Br       8.66039929       2.96597639      11.65212888       22       0.09452946       0.02078338       0.28766834
Br       8.86522290      11.57709920       2.92086681       23      -0.02591739       0.05315286      -0.02417221
Br       5.83406256       3.09477986       2.89963107       24       0.54071360      -0.19683446      -0.00822440
Cs       5.90020751      11.51523534       5.78218440       25      -0.01819435       0.08331617       0.07740520
Sn       8.87072387       2.95899697       8.84186913       26      -0.45621653      -0.07935891      -0.33568881
Br       8.67237210       2.97278278       5.84725047       27       0.06425479      -0.11353981      -0.22329059
Br       8.83223742      -0.06926430       8.93260139       28       0.01235239       0.34987961      -0.00791095
Br       5.87892369       2.96687173       8.73049501       29       0.07241729      -0.05102916       0.00769148
Cs       5.86220918       5.87993510       0.10503394       30      -0.06042050      -0.07324741      -0.03459632
Ge       8.82350966       8.69462250       2.74944572       31      -0.28393153      -0.25378627       0.32462214
Br       8.83237672       8.75483544       0.04704664       32      -0.00802025      -0.07140719       0.37306177
Br       8.59754856       5.90563646       3.00329921       33       0.17824817       0.18529803      -0.14754163
Br       5.95097903       8.94557650       2.93187094       34      -0.24141315      -0.05193745      -0.08178608
Cs       5.94266731       5.90615561       5.79493508       35      -0.05407196      -0.06037167       0.04203689
Sn       8.71557302       8.77249770       8.81627936       36       0.16953923       0.04659704      -0.51064818
Br       8.67861201       8.78924885       5.86107538       37       0.09092828       0.06331931      -0.03406954
Br       8.76807413       5.93774050       8.66284123       38       0.04981622      -0.41738138       0.08774273
Br       5.91191823       8.70915114       8.73670465       39       0.02142641       0.06925000       0.09008721
40
Lattice="11.707496400781169 0.0 0.0 0.0 11.707496400781348 0.0 0.0 8.650322902776075e-14 11.707496400781169" Properties=species:S:1:pos:R:3:spacegroup_kinds:I:1:forces:R:3 spacegroup="P 1" unit_cell=conventional occupancy="_JSON {\"0\": {\"Cs\": 1.0}, \"1\": {\"Sn\": 1.0}, \"2\": {\"Br\": 1.0}, \"3\": {\"Br\": 1.0}, \"4\": {\"Br\": 1.0}, \"5\": {\"Cs\": 1.0}, \"6\": {\"Sn\": 1.0}, \"7\": {\"Br\": 1.0}, \"8\": {\"Br\": 1.0}, \"9\": {\"Br\": 1.0}, \"10\": {\"Cs\": 1.0}, \"11\": {\"Sn\": 1.0}, \"12\": {\"Br\": 1.0}, \"13\": {\"Br\": 1.0}, \"14\": {\"Br\": 1.0}, \"15\": {\"Cs\": 1.0}, \"16\": {\"Sn\": 1.0}, \"17\": {\"Br\": 1.0}, \"18\": {\"Br\": 1.0}, \"19\": {\"Br\": 1.0}, \"20\": {\"Cs\": 1.0}, \"21\": {\"Sn\": 1.0}, \"22\": {\"Br\": 1.0}, \"23\": {\"Br\": 1.0}, \"24\": {\"Br\": 1.0}, \"25\": {\"Cs\": 1.0}, \"26\": {\"Sn\": 1.0}, \"27\": {\"Br\": 1.0}, \"28\": {\"Br\": 1.0}, \"29\": {\"Br\": 1.0}, \"30\": {\"Cs\": 1.0}, \"31\": {\"Ge\": 1.0}, \"32\": {\"Br\": 1.0}, \"33\": {\"Br\": 1.0}, \"34\": {\"Br\": 1.0}, \"35\": {\"Cs\": 1.0}, \"36\": {\"Sn\": 1.0}, \"37\": {\"Br\": 1.0}, \"38\": {\"Br\": 1.0}, \"39\": {\"Br\": 1.0}}" candidate_id=e3eb70e75cd131e9 formula=CsGe0.11Sn0.89Br3 config_index=3 rattle_stdev=0.08 method=PBE fidelity=phase2_force energy=-125.87328014975306 stress="-0.0010831677988099022 0.00023542639942972763 5.8550403242105865e-05 0.00023542639942972763 -0.0017466156693842151 -1.4385616835829048e-05 5.8550403242105865e-05 -1.4385616835829048e-05 -0.0008338624166022671" pbc="T T T"
Cs      11.51312120      11.78014491       0.09249688        0       0.12055148       0.07485225      -0.05036606
Sn       2.90786041       2.93360391       3.00363748        1      -0.31382748      -0.34352534      -0.73197278
Br       2.87234622       2.96919973      -0.05416683        2       0.04599306      -0.03131487      -0.13635596
Br       3.03927060      -0.00686120       2.82240324        3       0.01462694      -0.28862867       0.01749163
Br      -0.04316958       2.79719944       2.82447622        4       0.01999756       0.06998487       0.06766769
Cs      11.60086095      11.55075980       5.70459727        5       0.02230079       0.06501404       0.03696521
Sn       2.94792776       2.72245866       8.64699963        6       0.05127823       0.52180216       0.59865690
Br       2.86993529       2.73113205       5.74378679        7      -0.02317765      -0.02850270       0.36087506
Br       2.97996390      11.59736306       8.71738952        8      -0.01508287       0.55506471       0.00629461
Br      11.57948011       2.83171090       8.96195751        9       0.36828689       0.01543291      -0.05773948
Cs      11.58066246       6.01417304      -0.05570334       10       0.07478078      -0.15170988      -0.01916993
Sn       2.88757693       8.68466257       2.86245647       11       0.02818886       0.33922641      -0.01791333
Br       3.03933959       8.76219705      11.63928744       12      -0.05522981      -0.04894845       0.65724973
Br       2.91386710       5.78832457       3.04800352       13      -0.02776368       0.37239436       0.00661429
Br      11.50683880       8.83330467       2.89934480       14       0.73528537      -0.11614300       0.01851784
Cs      11.55810883       5.95620202       5.71247320       15       0.01605219      -0.05440102       0.05593575
Sn       2.97108974       8.81123096       8.75091907       16      -0.15890807      -0.70351035       0.05247862
Br       3.05312562       8.79796610       5.96178877       17      -0.01187636       0.01241657      -0.65827208
Br       2.98539255       5.91549451       8.73419781       18      -0.01531536      -0.25877221      -0.05343303
Br       0.00316607       8.65383311       8.77464499       19      -0.29585869       0.03658231       0.01368864
Cs       6.03834463      11.59757087       0.03654775       20      -0.09364393       0.06823463      -0.01794403
Sn       8.62889937       2.80365018       2.89544824       21       0.46619839       0.31582207      -0.00449299
Br       8.74746383       2.98375952      11.74778519       22      -0.07438946      -0.05037201      -0.02240116
Br       8.97240921      11.63306204       2.84580341       23      -0.21223476      -0.33576724       0.05802656
Br       5.80715046       2.99455228       2.96642282       24      -0.01273674      -0.04840772       0.02976653
Cs       5.96473098      11.66057196       5.79046582       25      -0.02148997      -0.00713142       0.02281372
Sn       8.79879321       2.89564686       8.72318089       26      -0.07849688      -0.04093681       0.06967516
Br       8.90415119       2.85783849       5.83615524       27      -0.02354577       0.00089931       0.01494950
Br       8.78732645       0.14545101       8.68627532       28      -0.02092030      -1.02467750       0.08009990
Br       5.82967665       2.89300296       8.82536925       29      -0.30387915      -0.07613660      -0.08326072
Cs       5.89626034       5.94813971       0.15806813       30      -0.04404886      -0.09943249      -0.09359090
Ge       8.81381502       8.76252352       2.98732155       31      -0.18960284      -0.14063846       0.07545235
Br       8.79863269       8.74544206       0.11317811       32       0.03078723      -0.00301976       0.09634536
Br       8.70893244       5.80064408       3.06627283       33       0.09567771       0.25931455      -0.05699297
Br       6.14814602       8.72672428       2.86519216       34      -0.57513496       0.06735720       0.04398309
Cs       6.02687930       6.03409696       5.77470633       35      -0.05304123      -0.04220899       0.07984190
Sn       8.78162177       8.72466058       8.93072623       36       0.09562219      -0.01118287      -0.28264401
Br       8.74456963       8.75612356       5.90591578       37       0.03294305       0.03086117      -0.17453693
Br       8.72833502       5.66130963       8.82905046       38       0.00921191       1.07124802      -0.00363784
Br       5.80068952       8.79722148       8.86833447       39       0.37897977       0.01384015       0.00057273
