Cs Pb I  Cs Pb I  Cs Pb I  Cs Pb I  Cs Pb I  Cs Pb I  Cs Pb I  Cs Pb I 
 1.0000000000000000
    13.4521408266491171    0.0000000000000000    0.0000000000000000
     0.0000000000000000   13.4521408266491171    0.0000000000000000
     0.0000000000000000    0.0000000000000000   13.4521408266491171
 Cs  Pb  I   Cs  Pb  I   Cs  Pb  I   Cs  Pb  I   Cs  Pb  I   Cs  Pb  I   Cs  Pb  I   Cs  Pb  I  
   1   1   3   1   1   3   1   1   3   1   1   3   1   1   3   1   1   3   1   1   3   1   1   3
Cartesian
  0.0000000000000000  0.0000000000000000  0.0000000000000000
  3.3630352066622793  3.3630352066622793  3.3630352066622793
  3.3630352066622793  3.3630352066622793  0.0000000000000000
  3.3630352066622793  0.0000000000000000  3.3630352066622793
  0.0000000000000000  3.3630352066622793  3.3630352066622793
  0.0000000000000000  0.0000000000000000  6.7260704133245577
  3.3630352066622793  3.3630352066622793 10.0891056199868387
  3.3630352066622793  3.3630352066622793  6.7260704133245577
  3.3630352066622793  0.0000000000000000 10.0891056199868387
  0.0000000000000000  3.3630352066622793 10.0891056199868387
  0.0000000000000000  6.7260704133245577  0.0000000000000000
  3.3630352066622793 10.0891056199868387  3.3630352066622793
  3.3630352066622793 10.0891056199868387  0.0000000000000000
  3.3630352066622793  6.7260704133245577  3.3630352066622793
  0.0000000000000000 10.0891056199868387  3.3630352066622793
  0.0000000000000000  6.7260704133245577  6.7260704133245577
  3.3630352066622793 10.0891056199868387 10.0891056199868387
  3.3630352066622793 10.0891056199868387  6.7260704133245577
  3.3630352066622793  6.7260704133245577 10.0891056199868387
  0.0000000000000000 10.0891056199868387 10.0891056199868387
  6.7260704133245577  0.0000000000000000  0.0000000000000000
 10.0891056199868387  3.3630352066622793  3.3630352066622793
 10.0891056199868387  3.3630352066622793  0.0000000000000000
 10.0891056199868387  0.0000000000000000  3.3630352066622793
  6.7260704133245577  3.3630352066622793  3.3630352066622793
  6.7260704133245577  0.0000000000000000  6.7260704133245577
 10.0891056199868387  3.3630352066622793 10.0891056199868387
 10.0891056199868387  3.3630352066622793  6.7260704133245577
 10.0891056199868387  0.0000000000000000 10.0891056199868387
  6.7260704133245577  3.3630352066622793 10.0891056199868387
  6.7260704133245577  6.7260704133245577  0.0000000000000000
 10.0891056199868387 10.0891056199868387  3.3630352066622793
 10.0891056199868387 10.0891056199868387  0.0000000000000000
 10.0891056199868387  6.7260704133245577  3.3630352066622793
  6.7260704133245577 10.0891056199868387  3.3630352066622793
  6.7260704133245577  6.7260704133245577  6.7260704133245577
 10.0891056199868387 10.0891056199868387 10.0891056199868387
 10.0891056199868387 10.0891056199868387  6.7260704133245577
 10.0891056199868387  6.7260704133245577 10.0891056199868387
  6.7260704133245577 10.0891056199868387 10.0891056199868387
