Cs Sn I  Cs Sn I  Br I  Cs Sn Br I  Cs Sn I  Br I  Cs Sn I  Br Cs Sn I  Br Cs Sn I  Br Cs Sn I  Br
 1.0000000000000000
    13.1083455096362176    0.0000000000000000    0.0000000000000000
     0.0000000000000000   13.1083455096362176    0.0000000000000000
     0.0000000000000000    0.0000000000000000   13.1083455096362176
 Cs  Sn  I   Cs  Sn  I   Br  I   Cs  Sn  Br  I   Cs  Sn  I   Br  I   Cs  Sn  I   Br  Cs  Sn  I   Br  Cs  Sn  I   Br  Cs  Sn  I   Br 
   1   1   3   1   1   1   1   1   1   1   2   1   1   1   1   1   1   1   1   2   1   1   1   2   1   1   1   1   2   1   1   1   2
Cartesian
  0.0000000000000000  0.0000000000000000  0.0000000000000000
  3.2770863774090535  3.2770863774090535  3.2770863774090535
  3.2770863774090535  3.2770863774090535  0.0000000000000000
  3.2770863774090535  0.0000000000000000  3.2770863774090535
  0.0000000000000000  3.2770863774090535  3.2770863774090535
  0.0000000000000000  0.0000000000000000  6.5541727548181079
  3.2770863774090535  3.2770863774090535  9.8312591322271636
  3.2770863774090535  3.2770863774090535  6.5541727548181079
  3.2770863774090535  0.0000000000000000  9.8312591322271636
  0.0000000000000000  3.2770863774090535  9.8312591322271636
  0.0000000000000000  6.5541727548181079  0.0000000000000000
  3.2770863774090535  9.8312591322271636  3.2770863774090535
  3.2770863774090535  9.8312591322271636  0.0000000000000000
  3.2770863774090535  6.5541727548181079  3.2770863774090535
  0.0000000000000000  9.8312591322271636  3.2770863774090535
  0.0000000000000000  6.5541727548181079  6.5541727548181079
  3.2770863774090535  9.8312591322271636  9.8312591322271636
  3.2770863774090535  9.8312591322271636  6.5541727548181079
  3.2770863774090535  6.5541727548181079  9.8312591322271636
  0.0000000000000000  9.8312591322271636  9.8312591322271636
  6.5541727548181079  0.0000000000000000  0.0000000000000000
  9.8312591322271636  3.2770863774090535  3.2770863774090535
  9.8312591322271636  3.2770863774090535  0.0000000000000000
  9.8312591322271636  0.0000000000000000  3.2770863774090535
  6.5541727548181079  3.2770863774090535  3.2770863774090535
  6.5541727548181079  0.0000000000000000  6.5541727548181079
  9.8312591322271636  3.2770863774090535  9.8312591322271636
  9.8312591322271636  3.2770863774090535  6.5541727548181079
  9.8312591322271636  0.0000000000000000  9.8312591322271636
  6.5541727548181079  3.2770863774090535  9.8312591322271636
  6.5541727548181079  6.5541727548181079  0.0000000000000000
  9.8312591322271636  9.8312591322271636  3.2770863774090535
  9.8312591322271636  9.8312591322271636  0.0000000000000000
  9.8312591322271636  6.5541727548181079  3.2770863774090535
  6.5541727548181079  9.8312591322271636  3.2770863774090535
  6.5541727548181079  6.5541727548181079  6.5541727548181079
  9.8312591322271636  9.8312591322271636  9.8312591322271636
  9.8312591322271636  9.8312591322271636  6.5541727548181079
  9.8312591322271636  6.5541727548181079  9.8312591322271636
  6.5541727548181079  9.8312591322271636  9.8312591322271636
