Cs Pb I  Cs Pb I  Cs Pb Br I  Cs Pb I  Br I  Cs Pb I  Br Cs Pb I  Cs Pb I  Br I  Cs Pb I  Br
 1.0000000000000000
    13.3299527748600823    0.0000000000000000    0.0000000000000000
     0.0000000000000000   13.3299527748600823    0.0000000000000000
     0.0000000000000000    0.0000000000000000   13.3299527748600823
 Cs  Pb  I   Cs  Pb  I   Cs  Pb  Br  I   Cs  Pb  I   Br  I   Cs  Pb  I   Br  Cs  Pb  I   Cs  Pb  I   Br  I   Cs  Pb  I   Br 
   1   1   3   1   1   3   1   1   2   1   1   1   1   1   1   1   1   2   1   1   1   3   1   1   1   1   1   1   1   2   1
Cartesian
  0.0000000000000000  0.0000000000000000  0.0000000000000000
  3.3324881937150206  3.3324881937150206  3.3324881937150206
  3.3324881937150206  3.3324881937150206  0.0000000000000000
  3.3324881937150206  0.0000000000000000  3.3324881937150206
  0.0000000000000000  3.3324881937150206  3.3324881937150206
  0.0000000000000000  0.0000000000000000  6.6649763874300403
  3.3324881937150206  3.3324881937150206  9.9974645811450618
  3.3324881937150206  3.3324881937150206  6.6649763874300403
  3.3324881937150206  0.0000000000000000  9.9974645811450618
  0.0000000000000000  3.3324881937150206  9.9974645811450618
  0.0000000000000000  6.6649763874300403  0.0000000000000000
  3.3324881937150206  9.9974645811450618  3.3324881937150206
  3.3324881937150206  9.9974645811450618  0.0000000000000000
  3.3324881937150206  6.6649763874300403  3.3324881937150206
  0.0000000000000000  9.9974645811450618  3.3324881937150206
  0.0000000000000000  6.6649763874300403  6.6649763874300403
  3.3324881937150206  9.9974645811450618  9.9974645811450618
  3.3324881937150206  9.9974645811450618  6.6649763874300403
  3.3324881937150206  6.6649763874300403  9.9974645811450618
  0.0000000000000000  9.9974645811450618  9.9974645811450618
  6.6649763874300403  0.0000000000000000  0.0000000000000000
  9.9974645811450618  3.3324881937150206  3.3324881937150206
  9.9974645811450618  3.3324881937150206  0.0000000000000000
  9.9974645811450618  0.0000000000000000  3.3324881937150206
  6.6649763874300403  3.3324881937150206  3.3324881937150206
  6.6649763874300403  0.0000000000000000  6.6649763874300403
  9.9974645811450618  3.3324881937150206  9.9974645811450618
  9.9974645811450618  3.3324881937150206  6.6649763874300403
  9.9974645811450618  0.0000000000000000  9.9974645811450618
  6.6649763874300403  3.3324881937150206  9.9974645811450618
  6.6649763874300403  6.6649763874300403  0.0000000000000000
  9.9974645811450618  9.9974645811450618  3.3324881937150206
  9.9974645811450618  9.9974645811450618  0.0000000000000000
  9.9974645811450618  6.6649763874300403  3.3324881937150206
  6.6649763874300403  9.9974645811450618  3.3324881937150206
  6.6649763874300403  6.6649763874300403  6.6649763874300403
  9.9974645811450618  9.9974645811450618  9.9974645811450618
  9.9974645811450618  9.9974645811450618  6.6649763874300403
  9.9974645811450618  6.6649763874300403  9.9974645811450618
  6.6649763874300403  9.9974645811450618  9.9974645811450618
