40
Lattice="12.219176227316442 0.0 0.0 0.0049722988766528935 12.12934864880376 0.0 -0.008677097098496945 -0.0038729502902413496 12.389631252674237" Properties=species:S:1:pos:R:3:spacegroup_kinds:I:1:forces:R:3 spacegroup="P 1" unit_cell=conventional occupancy="_JSON {\"0\": {\"Cs\": 1.0}, \"1\": {\"Sn\": 1.0}, \"2\": {\"I\": 1.0}, \"3\": {\"I\": 1.0}, \"4\": {\"I\": 1.0}, \"5\": {\"Cs\": 1.0}, \"6\": {\"Sn\": 1.0}, \"7\": {\"I\": 1.0}, \"8\": {\"Br\": 1.0}, \"9\": {\"I\": 1.0}, \"10\": {\"Cs\": 1.0}, \"11\": {\"Sn\": 1.0}, \"12\": {\"Br\": 1.0}, \"13\": {\"Br\": 1.0}, \"14\": {\"I\": 1.0}, \"15\": {\"Cs\": 1.0}, \"16\": {\"Sn\": 1.0}, \"17\": {\"I\": 1.0}, \"18\": {\"Br\": 1.0}, \"19\": {\"I\": 1.0}, \"20\": {\"Cs\": 1.0}, \"21\": {\"Sn\": 1.0}, \"22\": {\"I\": 1.0}, \"23\": {\"I\": 1.0}, \"24\": {\"Br\": 1.0}, \"25\": {\"Cs\": 1.0}, \"26\": {\"Sn\": 1.0}, \"27\": {\"I\": 1.0}, \"28\": {\"I\": 1.0}, \"29\": {\"Br\": 1.0}, \"30\": {\"Cs\": 1.0}, \"31\": {\"Sn\": 1.0}, \"32\": {\"I\": 1.0}, \"33\": {\"Br\": 1.0}, \"34\": {\"Br\": 1.0}, \"35\": {\"Cs\": 1.0}, \"36\": {\"Sn\": 1.0}, \"37\": {\"I\": 1.0}, \"38\": {\"Br\": 1.0}, \"39\": {\"Br\": 1.0}}" candidate_id=93f71f63373832e2 formula=FASnBr0.43I0.573 config_index=0 rattle_stdev=0.0 method=PBE fidelity=phase2_force energy=-118.26008992056052 stress="0.0007149345682294148 3.9437401518439545e-05 -5.693976336423894e-06 3.9437401518439545e-05 0.000394271887702586 2.6198717708488735e-05 -5.693976336423894e-06 2.6198717708488735e-05 -0.0019951387203761863" pbc="T T T"
Cs       0.05542877      12.10628342      12.36334813        0      -0.01168038       0.00752752       0.01033134
Sn       3.19963514       3.17461202       3.08769386        1      -0.06932741      -0.05065806      -0.00776045
I        3.17871400       3.07893836      12.37368150        2      -0.00712533       0.01030796       0.05545774
I        3.20305296      12.07999045       3.02767545        3      -0.00788900       0.05393493      -0.00795679
I       12.21160488       3.15060189       3.09283244        4       0.00730941       0.00108730       0.00317519
Cs       0.04393227      12.12549184       6.22525114        5      -0.00977888       0.00627989      -0.00725718
Sn       3.17892573       2.97127036       9.29243004        6      -0.05859765      -0.02001798       0.00199979
I        3.17479555       3.07592487       6.19777898        7      -0.00632326       0.00589698      -0.05245096
Br       3.17513100       0.17931645       9.31870260        8       0.02306696      -0.05826331       0.01157215
I        0.00929279       3.08023947       9.29117193        9      -0.01684793       0.00208635      -0.00283775
Cs       0.06526898       6.07927101      12.37129948       10      -0.00571047      -0.00710905       0.01173465
Sn       3.17321653       8.99114286       2.94923791       11      -0.05469541       0.01689061       0.04690441
Br       3.18984936       8.96985851       0.08530285       12       0.02251100       0.00638937      -0.03271736
Br       3.17835585       6.03569626       3.05487650       13       0.02191353      -0.02403646      -0.00208646
I        0.04846508       8.96673263       3.03447682       14      -0.04167583       0.00279798      -0.00572993
Cs       0.04472839       6.07272407       6.20971163       15      -0.01513435      -0.00545463      -0.01109888
Sn       3.15023544       8.98508790       9.38358688       16      -0.03090593      -0.01101091      -0.08245528
I        3.15950836       9.04413105       6.27513066       17      -0.00537500       0.02042888       0.01762194
Br       3.15051105       6.21219006       9.34898175       18       0.01932453       0.01640522       0.02984460
I        0.06437184       9.03719835       9.37603359       19      -0.03282953       0.02348054       0.01183832
Cs       6.04637808      12.06829440      12.32710798       20       0.01300059      -0.00056953       0.00095773
Sn       9.01889840       3.16271492       3.09346438       21       0.06582024      -0.04740568       0.00188714
I        9.01442573       3.16004952      12.38613952       22       0.00154364       0.00805195       0.00291844
I        9.01585409       0.00555970       3.09078076       23       0.00354148      -0.01272775       0.00432680
Br       6.09621140       3.15833054       3.09674130       24      -0.00524353       0.02906594       0.00892701
Cs       6.07183405      12.09875586       6.24083156       25       0.01309405       0.00744964      -0.00199378
Sn       9.01115178       3.15738867       9.29397643       26       0.05194084      -0.05885094      -0.00275753
I        9.03277385       3.15464502       6.19607716       27       0.00356226       0.00504430      -0.00437243
I        9.03074212      12.12180006       9.29461849       28      -0.00050204      -0.00314869      -0.00467429
Br       6.10741981       3.09398454       9.28695339       29       0.00999582       0.02153671      -0.00808748
Cs       6.01671350       6.12101890      12.35185992       30       0.01182819      -0.00160978       0.01325846
Sn       9.00622461       8.95952227       3.08760226       31       0.04427384       0.05209957      -0.00671015
I        9.03345140       8.96487252      12.38295021       32       0.00771086      -0.00109537       0.01042098
Br       9.02550559       6.07045903       3.09747029       33      -0.01792147       0.00827621       0.00830742
Br       6.13157128       8.97495256       3.05194763       34       0.02707700      -0.03224821      -0.00181607
Cs       6.06231055       6.09185505       6.23092268       35       0.02029519      -0.00747230      -0.01104721
Sn       9.00000635       8.96618001       9.29508276       36       0.04357396       0.03526840      -0.00087819
I        9.06518733       8.97206617       6.19297231       37       0.01293663      -0.00024824      -0.00474130
Br       9.03874317       6.06066233       9.28919268       38      -0.01422995       0.00177069      -0.00830598
Br       6.15538614       8.97677853       9.31562298       39      -0.01190522       0.00550655       0.01666177
40
Lattice="12.219176227316442 0.0 0.0 0.0049722988766528935 12.12934864880376 0.0 -0.008677097098496945 -0.0038729502902413496 12.389631252674237" Properties=species:S:1:pos:R:3:spacegroup_kinds:I:1:forces:R:3 spacegroup="P 1" unit_cell=conventional occupancy="_JSON {\"0\": {\"Cs\": 1.0}, \"1\": {\"Sn\": 1.0}, \"2\": {\"I\": 1.0}, \"3\": {\"I\": 1.0}, \"4\": {\"I\": 1.0}, \"5\": {\"Cs\": 1.0}, \"6\": {\"Sn\": 1.0}, \"7\": {\"I\": 1.0}, \"8\": {\"Br\": 1.0}, \"9\": {\"I\": 1.0}, \"10\": {\"Cs\": 1.0}, \"11\": {\"Sn\": 1.0}, \"12\": {\"Br\": 1.0}, \"13\": {\"Br\": 1.0}, \"14\": {\"I\": 1.0}, \"15\": {\"Cs\": 1.0}, \"16\": {\"Sn\": 1.0}, \"17\": {\"I\": 1.0}, \"18\": {\"Br\": 1.0}, \"19\": {\"I\": 1.0}, \"20\": {\"Cs\": 1.0}, \"21\": {\"Sn\": 1.0}, \"22\": {\"I\": 1.0}, \"23\": {\"I\": 1.0}, \"24\": {\"Br\": 1.0}, \"25\": {\"Cs\": 1.0}, \"26\": {\"Sn\": 1.0}, \"27\": {\"I\": 1.0}, \"28\": {\"I\": 1.0}, \"29\": {\"Br\": 1.0}, \"30\": {\"Cs\": 1.0}, \"31\": {\"Sn\": 1.0}, \"32\": {\"I\": 1.0}, \"33\": {\"Br\": 1.0}, \"34\": {\"Br\": 1.0}, \"35\": {\"Cs\": 1.0}, \"36\": {\"Sn\": 1.0}, \"37\": {\"I\": 1.0}, \"38\": {\"Br\": 1.0}, \"39\": {\"Br\": 1.0}}" candidate_id=93f71f63373832e2 formula=FASnBr0.43I0.573 config_index=1 rattle_stdev=0.08 method=PBE fidelity=phase2_force energy=-117.68749200730413 stress="-0.0008231374511241948 3.226240276970285e-05 -7.746227605568048e-05 3.226240276970285e-05 -0.0013431068110503757 -0.0002244700002644096 -7.746227605568048e-05 -0.0002244700002644096 -0.004880074836150272" pbc="T T T"
Cs      -0.03148693      12.03459821      12.33884418        0      -0.05077773       0.05168041       0.04211893
Sn       3.09244045       3.07808518       3.03635571        1       0.19456914       0.21998151       0.21051483
I        3.28334965       3.22657520      12.44001069        2      -0.13499965      -0.10198342       0.00063801
I        3.20118906      12.06330534       2.95434587        3      -0.01563330       0.14402339      -0.00083298
I       12.12562547       3.14371041       3.18689952        4       0.42232947       0.00043620       0.00192462
Cs      -0.08687507      12.22374736       6.31136204        5       0.01643625       0.03661545      -0.05602860
Sn       3.21050756       2.94025429       9.33950218        6       0.02768175       0.45540185      -0.13354111
I        3.06013165       3.05003890       6.29801776        7       0.05317458       0.00198838      -0.22136174
Br       3.11667159       0.29359525       9.39427492        8       0.02650516      -0.68208985       0.02594429
I       -0.01182744       3.06718241       9.21404334        9      -0.00386526       0.01742908       0.04841537
Cs       0.03785720       6.08318333      12.33132892       10      -0.01695812      -0.04530475       0.03072149
Sn       2.99626417       9.01592981       2.82206581       11       0.75359378      -0.26925101       0.02691989
Br       3.24820573       8.96122641       0.03328913       12      -0.07909212       0.04790790      -0.04662287
Br       3.04291133       6.00621833       2.92764676       13       0.00572816      -0.03141110       0.05925090
I        0.16690555       9.00468785       3.10758592       14      -0.81122122       0.00869361       0.00585123
Cs       0.12156601       6.07948748       6.34709010       15      -0.00203505      -0.04550260      -0.02428000
Sn       3.21838686       8.92469707       9.20057654       16       0.23555884       0.03472380       0.29294376
I        3.16824745       9.00811840       6.24209286       17      -0.02139488       0.00971149      -0.14061685
Br       3.17602975       6.16890143       9.42487507       18      -0.00333504       0.18060058      -0.08857451
I        0.07648664       9.04335055       9.37128156       19       0.03069237       0.04201810      -0.02489020
Cs       6.04076699      12.02300248      12.35198841       20       0.04844838       0.01761464       0.02350094
Sn       9.07683510       3.20403092       3.17554683       21      -0.30113660      -0.31103157      -0.55589541
I        9.05603793       3.09046244      12.50618473       22       0.04938518       0.02846429      -0.41806904
I        9.10917186       0.04491286       3.03219979       23      -0.00561435      -0.10164727       0.11904566
Br       6.15063589       3.19905029       3.02973840       24      -0.30058782       0.00745930       0.08038272
Cs       6.12364564      12.09975902       6.36559869       25      -0.02810927       0.02081699      -0.04803411
Sn       9.09391941       3.18440408       9.18976760       26      -0.06309724       0.21195941       0.38294852
I        8.94329030       3.25940623       6.15461980       27      -0.01226809      -0.03556198       0.44602768
I        8.99929217      12.20523753       9.30059570       28       0.05384977      -0.18203425      -0.05141418
Br       6.11457477       3.09829713       9.32042915       29      -0.03708547      -0.00691524      -0.03471207
Cs       5.91849510       6.03385557      12.37722987       30       0.11889226       0.05614080       0.03677064
Sn       8.94379217       8.89103178       2.98201254       31      -0.15320722       0.29193814       0.23898137
I        9.06975394       9.04501451      12.49604898       32       0.00532942      -0.01816138      -0.34868806
Br       9.01029096       6.07286788       2.94759695       33       0.01607503       0.09947038       0.02200256
Br       6.12222912       8.96475334       3.12412237       34       0.28007849      -0.03880997      -0.01518315
Cs       5.95716078       6.08389099       6.24216667       35       0.01565651      -0.03828389      -0.01996437
Sn       9.21031082       9.10664232       9.08423093       36      -0.30633524      -0.22472398       1.08354333
I        8.96225577       8.95832839       6.33700860       37       0.04741224       0.02307813      -1.00735934
Br       9.08743882       6.06318438       9.17187971       38       0.03443072       0.12040706       0.04331778
Br       6.18014140       9.06815596       9.27475545       39      -0.09002467       0.00848346       0.01962011
40
Lattice="12.219176227316442 0.0 0.0 0.0049722988766528935 12.12934864880376 0.0 -0.008677097098496945 -0.0038729502902413496 12.389631252674237" Properties=species:S:1:pos:R:3:spacegroup_kinds:I:1:forces:R:3 spacegroup="P 1" unit_cell=conventional occupancy="_JSON {\"0\": {\"Cs\": 1.0}, \"1\": {\"Sn\": 1.0}, \"2\": {\"I\": 1.0}, \"3\": {\"I\": 1.0}, \"4\": {\"I\": 1.0}, \"5\": {\"Cs\": 1.0}, \"6\": {\"Sn\": 1.0}, \"7\": {\"I\": 1.0}, \"8\": {\"Br\": 1.0}, \"9\": {\"I\": 1.0}, \"10\": {\"Cs\": 1.0}, \"11\": {\"Sn\": 1.0}, \"12\": {\"Br\": 1.0}, \"13\": {\"Br\": 1.0}, \"14\": {\"I\": 1.0}, \"15\": {\"Cs\": 1.0}, \"16\": {\"Sn\": 1.0}, \"17\": {\"I\": 1.0}, \"18\": {\"Br\": 1.0}, \"19\": {\"I\": 1.0}, \"20\": {\"Cs\": 1.0}, \"21\": {\"Sn\": 1.0}, \"22\": {\"I\": 1.0}, \"23\": {\"I\": 1.0}, \"24\": {\"Br\": 1.0}, \"25\": {\"Cs\": 1.0}, \"26\": {\"Sn\": 1.0}, \"27\": {\"I\": 1.0}, \"28\": {\"I\": 1.0}, \"29\": {\"Br\": 1.0}, \"30\": {\"Cs\": 1.0}, \"31\": {\"Sn\": 1.0}, \"32\": {\"I\": 1.0}, \"33\": {\"Br\": 1.0}, \"34\": {\"Br\": 1.0}, \"35\": {\"Cs\": 1.0}, \"36\": {\"Sn\": 1.0}, \"37\": {\"I\": 1.0}, \"38\": {\"Br\": 1.0}, \"39\": {\"Br\": 1.0}}" candidate_id=93f71f63373832e2 formula=FASnBr0.43I0.573 config_index=2 rattle_stdev=0.08 method=PBE fidelity=phase2_force energy=-117.80816662041917 stress="-0.00014500723952521057 0.0001317970410880441 4.225369793121211e-05 0.0001317970410880441 0.0005309299020560763 8.396644306083135e-05 4.225369793121211e-05 8.396644306083135e-05 -0.002703621366239603" pbc="T T T"
Cs       0.04641173      12.02015830      12.50615029        0       0.02106544       0.00683172      -0.06900514
Sn       3.08307647       3.14850636       2.98690214        1       0.41356685       0.14862710       0.17792428
I        3.20878332       3.00868657      12.34568344        2      -0.05863571       0.06553987       0.01915161
I        3.22678578      12.17606341       2.90215584        3      -0.04089636      -0.46378988       0.04678364
I       12.35992718       3.19011883       3.08237553        4      -0.61880061      -0.00600928      -0.03710398
Cs       0.01168261      12.04759885       6.18785380        5      -0.00679170      -0.00489721       0.04831771
Sn       3.12149201       3.06898182       9.23025404        6       0.26001776      -0.06039142       0.00714475
I        3.12771350       3.07131536       6.20414537        7       0.01814327      -0.08262489      -0.12860045
Br       3.08047491       0.05541705       9.39168310        8       0.03359535       0.03111887      -0.01426233
I        0.04230645       3.02457795       9.10807017        9      -0.13962372       0.03780572       0.07919989
Cs       0.00228966       5.99698967      12.37876412       10       0.03862232       0.00501386      -0.01850273
Sn       3.13088099       9.05356245       2.93317273       11       0.14148880      -0.14400575       0.05271282
Br       3.15140067       8.88703754       0.04508410       12       0.01917830       0.01589502       0.24457410
Br       3.24154707       5.96169645       3.23167932       13      -0.03950536       0.40158422      -0.08359682
I       -0.06355381       8.94760484       3.05186407       14       0.36783551       0.00516472      -0.00344088
Cs       0.01653757       6.07959411       6.21824378       15      -0.00870086       0.00313564       0.00175826
Sn       3.13447294       9.09284261       9.41120080       16      -0.05236692      -0.07946020      -0.12148732
I        3.20411991       8.99650824       6.33375723       17      -0.05520747       0.10115078      -0.23097656
Br       3.25701126       6.15378743       9.31012128       18      -0.00359097      -0.07156206       0.06181904
I        0.15052498       8.82956976       9.38938784       19      -0.12063667       0.07381205       0.01764722
Cs       6.12949485      11.92360849      12.38779925       20      -0.03920587       0.04477286      -0.03351791
Sn       8.97888937       2.97517147       3.08483096       21      -0.21852585       0.31278242       0.15851112
I        8.89420271       3.19915182      12.34188524       22       0.06971698       0.03043384       0.17800514
I        9.10045469      -0.06398573       3.08477348       23       0.01194201       0.12684042      -0.00686471
Br       6.08763900       3.32623630       3.06949827       24       0.36374013      -0.15131016      -0.01397194
Cs       6.02960165      11.99518651       6.25795948       25       0.02570616       0.02672932       0.02792811
Sn       9.10125334       3.18951153       9.35522326       26      -0.29853906      -0.13626907      -0.29669149
I        8.92452365       3.20055370       6.17846618       27       0.06576023      -0.10104025      -0.08476540
I        9.08235723      12.04142251       9.44659757       28       0.01916658       0.43364051      -0.01687307
Br       6.12476868       3.13398217       9.23682611       29       0.07398706      -0.01942505       0.00741453
Cs       5.93648276       6.05851408      12.36820214       30      -0.01147243      -0.02819311       0.01587942
Sn       9.04911197       8.87352247       2.91017388       31      -0.21992310      -0.16923678       0.64235657
I        9.08520582       8.93908566      12.36914508       32       0.01254421      -0.05666146       0.04826921
Br       8.84243185       6.06149552       3.17389540       33       0.08328239      -0.00888805      -0.07568829
Br       6.16795033       9.13990676       3.05694446       34      -0.30419683       0.00314134      -0.08290901
Cs       6.06253795       6.05557074       6.26080128       35       0.00194503      -0.02515309      -0.02168537
Sn       8.93495707       8.95805541       9.33073981       36       0.33902437       0.12330985      -0.49612777
I        8.96317704       8.98069271       6.26115126       37       0.08606631       0.08153618      -0.16862320
Br       9.02619500       6.15576787       9.17141161       38       0.05410216      -0.52919491       0.06622343
Br       6.22466941       8.90530737       9.27170534       39      -0.28390725       0.05818388       0.10367100
40
Lattice="12.219176227316442 0.0 0.0 0.0049722988766528935 12.12934864880376 0.0 -0.008677097098496945 -0.0038729502902413496 12.389631252674237" Properties=species:S:1:pos:R:3:spacegroup_kinds:I:1:forces:R:3 spacegroup="P 1" unit_cell=conventional occupancy="_JSON {\"0\": {\"Cs\": 1.0}, \"1\": {\"Sn\": 1.0}, \"2\": {\"I\": 1.0}, \"3\": {\"I\": 1.0}, \"4\": {\"I\": 1.0}, \"5\": {\"Cs\": 1.0}, \"6\": {\"Sn\": 1.0}, \"7\": {\"I\": 1.0}, \"8\": {\"Br\": 1.0}, \"9\": {\"I\": 1.0}, \"10\": {\"Cs\": 1.0}, \"11\": {\"Sn\": 1.0}, \"12\": {\"Br\": 1.0}, \"13\": {\"Br\": 1.0}, \"14\": {\"I\": 1.0}, \"15\": {\"Cs\": 1.0}, \"16\": {\"Sn\": 1.0}, \"17\": {\"I\": 1.0}, \"18\": {\"Br\": 1.0}, \"19\": {\"I\": 1.0}, \"20\": {\"Cs\": 1.0}, \"21\": {\"Sn\": 1.0}, \"22\": {\"I\": 1.0}, \"23\": {\"I\": 1.0}, \"24\": {\"Br\": 1.0}, \"25\": {\"Cs\": 1.0}, \"26\": {\"Sn\": 1.0}, \"27\": {\"I\": 1.0}, \"28\": {\"I\": 1.0}, \"29\": {\"Br\": 1.0}, \"30\": {\"Cs\": 1.0}, \"31\": {\"Sn\": 1.0}, \"32\": {\"I\": 1.0}, \"33\": {\"Br\": 1.0}, \"34\": {\"Br\": 1.0}, \"35\": {\"Cs\": 1.0}, \"36\": {\"Sn\": 1.0}, \"37\": {\"I\": 1.0}, \"38\": {\"Br\": 1.0}, \"39\": {\"Br\": 1.0}}" candidate_id=93f71f63373832e2 formula=FASnBr0.43I0.573 config_index=3 rattle_stdev=0.08 method=PBE fidelity=phase2_force energy=-117.64752004004691 stress="-0.0007447891436976914 0.0001250140849778881 -2.8810736299711264e-06 0.0001250140849778881 -0.0013513094333536975 0.00020565785826386055 -2.8810736299711264e-06 0.00020565785826386055 -0.0030122336486525145" pbc="T T T"
Cs      -0.05025471      12.26762365      12.36715329        0       0.00927189       0.03604879       0.04591284
Sn       3.18062144       3.18134184       3.16445724        1      -0.33074576      -0.36091792      -0.69180190
I        3.12418612       3.12126399      12.31168804        2       0.02814534      -0.00700493      -0.03947533
I        3.31544946      12.06201602       2.92320460        3       0.00432909      -0.17457720       0.00517065
I       12.15732206       3.02092723       2.99043456        4       0.13460689       0.07433283       0.05520780
Cs       0.02598853      12.05744695       6.16479193        5      -0.04495102       0.01892292      -0.02646950
Sn       3.19997939       2.76685492       9.15880737        6      -0.01203779       0.49806957       0.53300670
I        3.11785674       2.88018282       6.09564420        7      -0.03171677       0.00999794       0.27673030
Br       3.22822080       0.07700973       9.25546983        8       0.02725369      -0.15668543       0.01493880
I       -0.11089688       2.98507627       9.47250714        9       0.25905334       0.04441987      -0.09210440
Cs       0.02712676       6.15100413      12.22690442       10       0.01563260      -0.11228918       0.03759342
Sn       3.13391936       8.89518314       2.88482028       11      -0.10070970       0.37522614      -0.01704930
Br       3.30231485       8.95143326       0.02820713       12      -0.03786585      -0.05120055       0.34585858
Br       3.16534885       5.98138586       3.17600591       13      -0.00558724       0.23585798       0.02848880
I       -0.09134074       9.01941500       3.00694752       14       0.84916065      -0.06585515      -0.01039480
Cs      -0.01596746       6.08648617       6.15712835       15      -0.03840672      -0.02529236      -0.01732793
Sn       3.19445108       9.01569656       9.35388365       16      -0.10584438      -0.23908725       0.07299526
I        3.28575987       9.06147485       6.37205799       17      -0.04468284       0.05106148      -0.44299119
Br       3.20902949       6.26610975       9.30255726       18       0.01273452      -0.11454099       0.01407505
I        0.05642467       8.91040916       9.37005627       19      -0.16982413       0.07036813      -0.02095587
Cs       6.14228279      12.04706059      12.27496401       20      -0.02675201       0.03593665       0.00655991
Sn       8.86717547       3.03949100       3.06203852       21       0.41564887       0.25486473       0.00837872
I        8.98126726       3.21693495      12.43754155       22      -0.04664147      -0.02100040      -0.16709560
I        9.20764099      -0.00802289       3.00971007       23      -0.10320209      -0.26168806       0.01918701
Br       6.06072691       3.22600871       3.13629002       24      -0.11513734      -0.01958344       0.03859360
Cs       6.09412511      12.14052313       6.26624090       25       0.04416545      -0.02258142      -0.01462375
Sn       9.02932269       3.12616143       9.23653503       26       0.01871679      -0.16851247       0.08320044
I        9.15630274       3.08560941       6.16737095       27      -0.01086087       0.01319426       0.11922021
I        9.03744626      12.25613782       9.20027151       28      -0.02338818      -0.83178565       0.07602435
Br       6.07552164       3.06011340       9.33170034       29      -0.22753136      -0.04011124      -0.09067417
Cs       5.97053392       6.12671869      12.42123633       30       0.01727632      -0.05941221      -0.02950610
Sn       9.03941733       8.94142349       3.14804971       31       0.17237966      -0.17254157       0.17839673
I        9.05146179       8.92969228      12.43527655       32       0.03415718      -0.00594999       0.07798293
Br       8.95381573       5.95650314       3.23686902       33       0.04727748       0.22980355       0.00636033
Br       6.36511733       8.92105454       2.99026569       34      -0.94132696       0.00722501       0.00853620
Cs       6.14674993       6.18351209       6.24057253       35       0.02363736      -0.05772104       0.00338555
Sn       9.00100582       8.91021829       9.44518669       36       0.08648559       0.04531231      -0.31809545
I        9.02913466       8.94756742       6.30599165       37       0.03341794       0.03271320      -0.11710281
Br       8.98645589       5.87933701       9.33762084       38      -0.01180171       0.90186744      -0.00771098
Br       6.11344070       8.99337771       9.40333515       39       0.18289867       0.02049416       0.04288620
