40
Lattice="11.642186370606966 0.0 0.0 0.0025265037997851455 11.642186096465018 0.0 0.002526503799870483 -0.0025270521431087233 11.642185822204267" Properties=species:S:1:pos:R:3:spacegroup_kinds:I:1:forces:R:3 spacegroup="P 1" unit_cell=conventional occupancy="_JSON {\"0\": {\"Cs\": 1.0}, \"1\": {\"Pb\": 1.0}, \"2\": {\"I\": 1.0}, \"3\": {\"Cl\": 1.0}, \"4\": {\"Cl\": 1.0}, \"5\": {\"Cs\": 1.0}, \"6\": {\"Pb\": 1.0}, \"7\": {\"Cl\": 1.0}, \"8\": {\"Cl\": 1.0}, \"9\": {\"Cl\": 1.0}, \"10\": {\"Cs\": 1.0}, \"11\": {\"Pb\": 1.0}, \"12\": {\"Cl\": 1.0}, \"13\": {\"Cl\": 1.0}, \"14\": {\"I\": 1.0}, \"15\": {\"Cs\": 1.0}, \"16\": {\"Pb\": 1.0}, \"17\": {\"Cl\": 1.0}, \"18\": {\"Cl\": 1.0}, \"19\": {\"Cl\": 1.0}, \"20\": {\"Cs\": 1.0}, \"21\": {\"Pb\": 1.0}, \"22\": {\"Cl\": 1.0}, \"23\": {\"Cl\": 1.0}, \"24\": {\"Cl\": 1.0}, \"25\": {\"Cs\": 1.0}, \"26\": {\"Pb\": 1.0}, \"27\": {\"Cl\": 1.0}, \"28\": {\"I\": 1.0}, \"29\": {\"Cl\": 1.0}, \"30\": {\"Cs\": 1.0}, \"31\": {\"Pb\": 1.0}, \"32\": {\"Cl\": 1.0}, \"33\": {\"Cl\": 1.0}, \"34\": {\"Cl\": 1.0}, \"35\": {\"Cs\": 1.0}, \"36\": {\"Pb\": 1.0}, \"37\": {\"Cl\": 1.0}, \"38\": {\"Cl\": 1.0}, \"39\": {\"Cl\": 1.0}}" candidate_id=a54329ab46fd18f1 formula=MAPbCl0.88I0.123 config_index=0 rattle_stdev=0.0 method=PBE fidelity=phase2_force energy=-136.81381296370145 stress="0.0007860773205522874 -0.00012781819281652132 -0.0001278459400367254 -0.00012781819281652132 0.0007861327969288403 0.00012787368725692493 -0.0001278459400367254 0.00012787368725692493 0.0007861883094383067" pbc="T T T"
Cs      11.64723938      11.63965904      11.64218582        0      -0.00000000      -0.00000000       0.00000000
Pb       2.94082337       2.93770053       3.07258575        1       0.00112315      -0.02390237       0.02091363
I        2.91606580       2.91038004      11.64218582        2      -0.01313434      -0.01313149       0.00000000
Cl       3.07465179      11.64151941       3.07145860        3      -0.00835802       0.00000181      -0.00835621
Cl       0.01102792       2.89346938       3.08330469        4      -0.06646681      -0.02054714       0.00095965
Cs       0.13095130       0.12839638       5.82109291        5       0.03916712       0.03915862       0.00000000
Pb       2.94086516       2.93765873       8.56960007        6      -0.02390213       0.00112834      -0.02091363
Cl       2.89066404       2.88751029       5.82109291        7      -0.03000009      -0.02999359       0.00000000
Cl       2.89599821       0.00787295       8.55888113        8      -0.02056156      -0.06646235      -0.00095965
Cl       0.00252650       3.06959831       8.57072723        9       0.00000000      -0.00835802       0.00835621
Cs      11.51628808       5.81859414      11.51252592       10      -0.03916712       0.00000850      -0.03915862
Pb       3.07511265       8.70318058       2.93951878       11       0.02091906       0.02389759       0.00112380
Cl       3.08520539       8.74804534       0.00973074       12       0.00094969       0.02056136      -0.06646256
Cl       3.08696476       5.82042341       3.08503187       13       0.01290399      -0.00000280       0.01290119
I       11.64471287       8.72864673       2.91290702       14      -0.00000000       0.01313434      -0.01313149
Cs       0.00252650       5.71133316       5.92956573       15       0.00000000      -0.01278480       0.01278203
Pb       2.93725770       8.70681796       8.70870807       16       0.00258634      -0.00258690      -0.00258746
Cl       3.09196433       8.74539171       5.81987598       17       0.00861483       0.01795703       0.07164042
Cl       2.89865038       5.81801952       8.55338276       18      -0.01795890       0.07164229      -0.00859538
Cl      11.63621146       8.55698248       8.74804725       19       0.06646681      -0.00096411       0.02054693
Cs       5.82361969      11.51249805       0.12965990       20       0.00000000      -0.03916712       0.03915862
Pb       8.70998168       2.93284109       2.93347776       21      -0.00258634       0.00258690       0.00258746
Cl       8.75124117       3.08077982      11.63245508       22       0.02056156       0.00094523       0.06646256
Cl       8.56203399      11.63182715       2.89413857       23      -0.00094969       0.06646702      -0.02054693
Cl       5.82117493       2.89486067       3.08880306       24       0.07163839      -0.01797445       0.00859538
Cs       5.71386008      -0.00123998       5.71262010       25      -0.01278480       0.00000277      -0.01278203
Pb       8.70637421       3.07069682       8.70266704       26       0.02390213       0.02091387      -0.00112380
Cl       8.74858900       3.08753934       5.82230984       27       0.01795890       0.00861093      -0.07164042
I        8.73370008      11.64029132       8.72927880       28       0.01313434      -0.00000285       0.01313149
Cl       5.82361969       3.08317453       8.55715395       29      -0.00000000       0.01290399      -0.01290119
Cs       5.93085280       5.92956587       0.00000000       30       0.01278480       0.01278203       0.00000000
Pb       8.57212673       8.70202945       2.93836740       31      -0.02091906      -0.00111861      -0.02389783
Cl       8.57511409       8.56820038      11.64218582       32       0.00835802       0.00835621       0.00000000
Cl       8.55527505       5.82168148       2.89553106       33      -0.00861483      -0.07163652      -0.01797258
Cl       5.82361969       8.75278524       2.88877375       34      -0.00000000       0.03000010      -0.02999358
Cs       5.82361969       5.81982952       5.82109291       35       0.00000000       0.00000000       0.00000000
Pb       8.70641601       8.56771103       8.70381842       36      -0.00112315      -0.02091881       0.02389783
Cl       8.56027462       8.55589062       5.82109291       37      -0.01290399      -0.01290119       0.00000000
Cl       8.75657534       5.81919303       8.75341207       38       0.03000009      -0.00000651       0.02999358
Cl       5.82606445       8.55148442       8.74665476       39      -0.07163839      -0.00859928       0.01797258
40
Lattice="11.642186370606966 0.0 0.0 0.0025265037997851455 11.642186096465018 0.0 0.002526503799870483 -0.0025270521431087233 11.642185822204267" Properties=species:S:1:pos:R:3:spacegroup_kinds:I:1:forces:R:3 spacegroup="P 1" unit_cell=conventional occupancy="_JSON {\"0\": {\"Cs\": 1.0}, \"1\": {\"Pb\": 1.0}, \"2\": {\"I\": 1.0}, \"3\": {\"Cl\": 1.0}, \"4\": {\"Cl\": 1.0}, \"5\": {\"Cs\": 1.0}, \"6\": {\"Pb\": 1.0}, \"7\": {\"Cl\": 1.0}, \"8\": {\"Cl\": 1.0}, \"9\": {\"Cl\": 1.0}, \"10\": {\"Cs\": 1.0}, \"11\": {\"Pb\": 1.0}, \"12\": {\"Cl\": 1.0}, \"13\": {\"Cl\": 1.0}, \"14\": {\"I\": 1.0}, \"15\": {\"Cs\": 1.0}, \"16\": {\"Pb\": 1.0}, \"17\": {\"Cl\": 1.0}, \"18\": {\"Cl\": 1.0}, \"19\": {\"Cl\": 1.0}, \"20\": {\"Cs\": 1.0}, \"21\": {\"Pb\": 1.0}, \"22\": {\"Cl\": 1.0}, \"23\": {\"Cl\": 1.0}, \"24\": {\"Cl\": 1.0}, \"25\": {\"Cs\": 1.0}, \"26\": {\"Pb\": 1.0}, \"27\": {\"Cl\": 1.0}, \"28\": {\"I\": 1.0}, \"29\": {\"Cl\": 1.0}, \"30\": {\"Cs\": 1.0}, \"31\": {\"Pb\": 1.0}, \"32\": {\"Cl\": 1.0}, \"33\": {\"Cl\": 1.0}, \"34\": {\"Cl\": 1.0}, \"35\": {\"Cs\": 1.0}, \"36\": {\"Pb\": 1.0}, \"37\": {\"Cl\": 1.0}, \"38\": {\"Cl\": 1.0}, \"39\": {\"Cl\": 1.0}}" candidate_id=a54329ab46fd18f1 formula=MAPbCl0.88I0.123 config_index=1 rattle_stdev=0.08 method=PBE fidelity=phase2_force energy=-136.09527432482926 stress="-0.0016346451662476763 1.847842288654555e-05 -6.503200337914581e-05 1.847842288654555e-05 -0.0002970861659963057 4.977726989069114e-05 -6.503200337914581e-05 4.977726989069114e-05 -0.0021212115939008023" pbc="T T T"
Cs      11.56032367      11.56797383      11.61768187        0      -0.01931926       0.04840554       0.04217131
Pb       2.83362868       2.84117369       3.02124760        1       0.27206248       0.19782754       0.53072032
I        3.02070145       3.05801687      11.70851502        2      -0.09024222      -0.04522402      -0.18234709
Cl       3.07278788      11.62483429       2.99812902        3      -0.04165849       0.03634673      -0.01245041
Cl      -0.07495148       2.88657790       3.17737177        4       0.38361200      -0.03825791       0.01988679
Cs       0.00014396       0.22665190       5.90720381        5       0.10826490       0.07847317      -0.06112125
Pb       2.97244699       2.90664266       8.61667221        6       0.06186699      -0.04353779      -0.08291569
Cl       2.77600013       2.86162432       5.92133169        7       0.00098882       0.00179758      -0.35255669
Cl       2.83753880       0.12215176       8.63445344        8      -0.02684816      -0.43331554      -0.03259283
Cl      -0.01859372       3.05654124       8.49359864        9       0.05134346      -0.01716528       0.03899581
Cs      11.48887630       5.82250646      11.47255536       10      -0.06018149      -0.03197637       0.00604236
Pb       2.89816029       8.72796753       2.81234668       11       1.64065866      -0.22674122      -0.17034990
Cl       3.14356175       8.73941324      -0.04228298       12      -0.08723051       0.02833050      -0.04840432
Cl       2.95152024       5.79094549       2.95780214       13      -0.02399422      -0.00631872       0.07547566
I       11.76315334       8.76660194       2.98601613       14      -1.64581443       0.03937088       0.11719673
Cs       0.07936412       5.71809656       6.06694420       15       0.03366694      -0.04015020      -0.06511376
Pb       3.00540912       8.64642713       8.52569772       16       0.24804329       0.09348196       0.40129993
Cl       3.10070342       8.70937906       5.78683818       17      -0.01739113      -0.00640564      -0.00011007
Cl       2.92416908       5.77473088       8.62927608       18      -0.04512814       0.42063654      -0.08586366
Cl      11.64832626       8.56313468       8.74329522       19       0.33229831       0.01405095      -0.06970190
Cs       5.81800859      11.46720613       0.15454033       20       0.01784147      -0.01812861       0.07265426
Pb       8.76791839       2.97415709       3.01556021       21      -0.41315705      -0.24331189      -0.59837857
Cl       8.79285338       3.01119274      11.75250029       22       0.10665079       0.03102624      -0.28184883
Cl       8.65535176      11.67118031       2.83555759       23       0.01336183      -0.08316245       0.06143334
Cl       5.87559942       2.93558042       3.02180016       24      -0.28833118      -0.03808300       0.08465517
Cs       5.76567166      -0.00023682       5.83738722       25      -0.06486851       0.00229376      -0.10133829
Pb       8.78914184       3.09771223       8.59845821       26      -0.17758157       0.37688876       0.32988449
Cl       8.65910546       3.19230055       5.78085248       27       0.04081854      -0.01180377       0.39112526
I        8.70225014      11.72372880       8.73525601       28      -0.01848868      -0.22257008       0.01544131
Cl       5.83077465       3.08748712       8.59062971       29      -0.00669990      -0.01337208      -0.06322143
Cs       5.83263439       5.84240254       0.02536995       30       0.07448430       0.05164260       0.01765562
Pb       8.50969429       8.63353896       2.83277769       31       0.02271160       0.22343878       0.04705137
Cl       8.61141662       8.64834236      11.75528460       32       0.02191673       0.01948015      -0.13395039
Cl       8.54006042       5.82409032       2.74565772       33       0.02657453       0.08090273       0.01843796
Cl       5.81427753       8.74258601       2.96094849       34       0.13704726       0.01871061      -0.00424598
Cs       5.71846991       5.81186546       5.83233690       35       0.00889940      -0.01963151      -0.04051739
Pb       8.91672048       8.70817333       8.49296660       36      -0.51069005      -0.57398570       0.88382343
Cl       8.45734306       8.54215285       5.96512921       37       0.02682963       0.01552876      -0.80748502
Cl       8.80527099       5.82171508       8.63609910       38       0.07042490       0.32628965       0.05365691
Cl       5.85081971       8.64286185       8.70578723       39      -0.17696459       0.00897137      -0.02375166
40
Lattice="11.642186370606966 0.0 0.0 0.0025265037997851455 11.642186096465018 0.0 0.002526503799870483 -0.0025270521431087233 11.642185822204267" Properties=species:S:1:pos:R:3:spacegroup_kinds:I:1:forces:R:3 spacegroup="P 1" unit_cell=conventional occupancy="_JSON {\"0\": {\"Cs\": 1.0}, \"1\": {\"Pb\": 1.0}, \"2\": {\"I\": 1.0}, \"3\": {\"Cl\": 1.0}, \"4\": {\"Cl\": 1.0}, \"5\": {\"Cs\": 1.0}, \"6\": {\"Pb\": 1.0}, \"7\": {\"Cl\": 1.0}, \"8\": {\"Cl\": 1.0}, \"9\": {\"Cl\": 1.0}, \"10\": {\"Cs\": 1.0}, \"11\": {\"Pb\": 1.0}, \"12\": {\"Cl\": 1.0}, \"13\": {\"Cl\": 1.0}, \"14\": {\"I\": 1.0}, \"15\": {\"Cs\": 1.0}, \"16\": {\"Pb\": 1.0}, \"17\": {\"Cl\": 1.0}, \"18\": {\"Cl\": 1.0}, \"19\": {\"Cl\": 1.0}, \"20\": {\"Cs\": 1.0}, \"21\": {\"Pb\": 1.0}, \"22\": {\"Cl\": 1.0}, \"23\": {\"Cl\": 1.0}, \"24\": {\"Cl\": 1.0}, \"25\": {\"Cs\": 1.0}, \"26\": {\"Pb\": 1.0}, \"27\": {\"Cl\": 1.0}, \"28\": {\"I\": 1.0}, \"29\": {\"Cl\": 1.0}, \"30\": {\"Cs\": 1.0}, \"31\": {\"Pb\": 1.0}, \"32\": {\"Cl\": 1.0}, \"33\": {\"Cl\": 1.0}, \"34\": {\"Cl\": 1.0}, \"35\": {\"Cs\": 1.0}, \"36\": {\"Pb\": 1.0}, \"37\": {\"Cl\": 1.0}, \"38\": {\"Cl\": 1.0}, \"39\": {\"Cl\": 1.0}}" candidate_id=a54329ab46fd18f1 formula=MAPbCl0.88I0.123 config_index=2 rattle_stdev=0.08 method=PBE fidelity=phase2_force energy=-136.16706959401523 stress="-0.0004538807847362339 -0.0001495898305131613 -0.0001322146641083444 -0.0001495898305131613 -0.0008890535202199344 9.46045713479418e-05 -0.0001322146641083444 9.46045713479418e-05 -0.00021060887413819237" pbc="T T T"
Cs      11.63822234      11.55353393      11.78498798        0       0.05398191       0.01495240      -0.09050163
Pb       2.82426471       2.91159487       2.97179403        1       0.69145661       0.30484416       0.46956195
I        2.94613512       2.84012825      11.61418776        2      -0.04262335      -0.00604645      -0.17427054
Cl       3.09838461      11.73759236       2.94593898        3      -0.06325693      -0.56843322       0.03027125
Cl       0.15935022       2.93298632       3.07284778        4      -0.87548459      -0.05231953      -0.04000027
Cs       0.09870164       0.05050340       5.78369557        5       0.02788899       0.06473293       0.09590173
Pb       2.88343145       3.03537019       8.50742407        6       0.35173190      -0.06419118       0.03138749
Cl       2.84358199       2.88290078       5.82745930        7      -0.02246273      -0.13685347      -0.25521276
Cl       2.80134212      -0.11602645       8.63186162        8      -0.03790413       0.22770846      -0.02959946
Cl       0.03554016       3.01393679       8.38762548        9      -0.17428353       0.04238209       0.08917664
Cs      11.45330876       5.73631281      11.51999057       10       0.01150228       0.04676833      -0.07049829
Pb       3.03277711       8.76560017       2.92345360       11       0.34054678      -0.27118548       0.14016292
Cl       3.04675670       8.66522437      -0.03048801       12       0.01475816       0.03912039       0.31677752
Cl       3.15015598       5.74642360       3.26183470       13      -0.09487602       0.48433527      -0.13593286
I       11.53269398       8.70951894       2.93029428       14       0.94565870      -0.00695212       0.07485787
Cs      -0.02566432       5.71820320       5.93809788       15       0.01158893       0.01871875       0.01554616
Pb       2.92149520       8.81457267       8.73632198       16      -0.07820693      -0.41374627      -0.10855458
Cl       3.13657588       8.69776889       5.87850255       17      -0.05209936       0.14026179      -0.31133035
Cl       3.00515059       5.75961688       8.51452230       18      -0.07267432       0.07612653       0.02399043
Cl      11.72236459       8.34935389       8.76140150       19       0.05509875       0.06692400       0.02411241
Cs       5.90673646      11.36781214       0.19035118       20      -0.06552909       0.04560890      -0.02272385
Pb       8.66997266       2.74529763       2.92484434       21      -0.38486531       0.52940392       0.25317581
Cl       8.63101816       3.11988212      11.58820080       22       0.10212531       0.01594521       0.23416710
Cl       8.64663459      11.56228173       2.88813128       23       0.02189250       0.22394578      -0.05285631
Cl       5.81260253       3.06276643       3.06156002       24       0.48010142      -0.23418295      -0.06108869
Cs       5.67162767      -0.10480933       5.72974802       25       0.02956486       0.01495729       0.02772924
Pb       8.79647578       3.10281969       8.76391387       26      -0.40940561      -0.12065572      -0.34446005
Cl       8.64033880       3.13344802       5.80469887       27       0.11445002      -0.13274907      -0.17891746
I        8.78531520      11.55991378       8.88125788       28       0.05715112       0.78625707       0.01899378
Cl       5.84096855       3.12317216       8.50702666       29       0.13078355      -0.04535171       0.04529879
Cs       5.85062206       5.86706105       0.01634222       30      -0.01299767      -0.05489588       0.00556529
Pb       8.61501409       8.61602965       2.76093902       31      -0.79733209      -0.30520794       0.51777414
Cl       8.62686851       8.54241351      11.62838069       32      -0.01204349      -0.03824779       0.10110495
Cl       8.37220131       5.81271797       2.97195616       33       0.13489617      -0.10632033      -0.13458267
Cl       5.85999874       8.91773944       2.89377059       34      -0.48210716       0.08337051      -0.05294245
Cs       5.82384708       5.78354522       5.85097151       35       0.01952336      -0.01641022      -0.01741703
Pb       8.64136673       8.55958642       8.73947548       36       0.18622452       0.05409822      -0.46176149
Cl       8.45826433       8.56451717       5.88927186       37       0.07652477       0.07563511      -0.16861283
Cl       8.74402717       5.91429857       8.63563100       38       0.08672160      -0.84482989       0.06316669
Cl       5.89534772       8.48001326       8.70273711       39      -0.26382192       0.06409628       0.13064875
40
Lattice="11.642186370606966 0.0 0.0 0.0025265037997851455 11.642186096465018 0.0 0.002526503799870483 -0.0025270521431087233 11.642185822204267" Properties=species:S:1:pos:R:3:spacegroup_kinds:I:1:forces:R:3 spacegroup="P 1" unit_cell=conventional occupancy="_JSON {\"0\": {\"Cs\": 1.0}, \"1\": {\"Pb\": 1.0}, \"2\": {\"I\": 1.0}, \"3\": {\"Cl\": 1.0}, \"4\": {\"Cl\": 1.0}, \"5\": {\"Cs\": 1.0}, \"6\": {\"Pb\": 1.0}, \"7\": {\"Cl\": 1.0}, \"8\": {\"Cl\": 1.0}, \"9\": {\"Cl\": 1.0}, \"10\": {\"Cs\": 1.0}, \"11\": {\"Pb\": 1.0}, \"12\": {\"Cl\": 1.0}, \"13\": {\"Cl\": 1.0}, \"14\": {\"I\": 1.0}, \"15\": {\"Cs\": 1.0}, \"16\": {\"Pb\": 1.0}, \"17\": {\"Cl\": 1.0}, \"18\": {\"Cl\": 1.0}, \"19\": {\"Cl\": 1.0}, \"20\": {\"Cs\": 1.0}, \"21\": {\"Pb\": 1.0}, \"22\": {\"Cl\": 1.0}, \"23\": {\"Cl\": 1.0}, \"24\": {\"Cl\": 1.0}, \"25\": {\"Cs\": 1.0}, \"26\": {\"Pb\": 1.0}, \"27\": {\"Cl\": 1.0}, \"28\": {\"I\": 1.0}, \"29\": {\"Cl\": 1.0}, \"30\": {\"Cs\": 1.0}, \"31\": {\"Pb\": 1.0}, \"32\": {\"Cl\": 1.0}, \"33\": {\"Cl\": 1.0}, \"34\": {\"Cl\": 1.0}, \"35\": {\"Cs\": 1.0}, \"36\": {\"Pb\": 1.0}, \"37\": {\"Cl\": 1.0}, \"38\": {\"Cl\": 1.0}, \"39\": {\"Cl\": 1.0}}" candidate_id=a54329ab46fd18f1 formula=MAPbCl0.88I0.123 config_index=3 rattle_stdev=0.08 method=PBE fidelity=phase2_force energy=-135.88413377603052 stress="-0.0014746920493049584 -7.577284199739629e-05 -5.051918371589886e-05 -7.577284199739629e-05 -0.0011866997649440788 0.00019345894494536713 -5.051918371589886e-05 0.00019345894494536713 -0.0001374331477225435" pbc="T T T"
Cs      11.54155590      11.80099927      11.64599098        0       0.00312920       0.11295450       0.05787590
Pb       2.92180968       2.94443035       3.14934913        1      -0.22672594      -0.24793901      -1.22765799
I        2.86153792       2.95270567      11.58019236        2       0.03158091      -0.01118196      -0.07216242
Cl       3.18704829      11.62354497       2.96698774        3      -0.00469282      -0.20466600       0.03798217
Cl      -0.04325489       2.76379472       2.98090681        4       0.08435480      -0.00680146       0.06977142
Cs       0.11300756       0.06035149       5.76063370        5      -0.03877608       0.06041545      -0.03723357
Pb       2.96191883       2.73324329       8.43597740        6       0.04588647       0.51930316       0.80705970
Cl       2.83372522       2.69176824       5.71895813        7      -0.08899798      -0.13535924       0.59867014
Cl       2.94908801      -0.09443377       8.49564835        8      -0.01164480       0.37646155      -0.03848905
Cl      -0.11766316       2.97443511       8.75206244        9       0.37453474       0.00618796      -0.08723936
Cs      11.47814586       5.89032726      11.36813086       10       0.00913152      -0.12800494      -0.02408981
Pb       3.03581548       8.60722085       2.87510115       11       0.16682243       0.34480823       0.02708474
Cl       3.19767088       8.72962009      -0.04736498       12      -0.04206291      -0.02732197       0.45048352
Cl       3.07395776       5.76611302       3.20616129       13      -0.01716980       0.27241954       0.03341358
I       11.50490705       8.78132910       2.88537772       14       1.67340904      -0.01932582      -0.05578939
Cs      -0.05816935       5.72509526       5.87698245       15      -0.03878777      -0.03159082       0.04606615
Pb       2.98147334       8.73742662       8.67900484       16      -0.11884483      -0.57352934       0.09100017
Cl       3.21821584       8.76273551       5.91680331       17      -0.00647085       0.03962091      -0.51477738
Cl       2.95716882       5.87193920       8.50695828       18      -0.04954677      -0.22596158      -0.07695591
Cl      11.62826429       8.43019329       8.74206994       19      -0.14298513       0.03770390       0.01166928
Cs       5.91952440      11.49126423       0.07751593       20      -0.07090877      -0.01664389       0.03718097
Pb       8.55825875       2.80961717       2.90205190       21       0.48748084       0.37307306      -0.02740290
Cl       8.71808270       3.13766525      11.68385711       22      -0.03568871      -0.08473515      -0.02105273
Cl       8.75382090      11.61824457       2.81306788       23      -0.12709940      -0.18097310      -0.01764159
Cl       5.78569044       2.96253885       3.12835178       24      -0.09841552      -0.08626482       0.06755270
Cs       5.73615114       0.04052729       5.73802943       25      -0.00418031      -0.06439143      -0.02538031
Pb       8.72454512       3.03946958       8.64522564       26      -0.07806450       0.01981540       0.07050572
Cl       8.87211789       3.01850373       5.79360364       27      -0.01390631      -0.00686297       0.00736113
I        8.74040422      11.77462908       8.63493182       28      -0.00550011      -1.54437920       0.05408029
Cl       5.79172152       3.04930339       8.60190090       29      -0.27961389      -0.08946543      -0.13174950
Cs       5.88467322       5.93526566       0.06937641       30       0.01205247      -0.05659233      -0.04432489
Pb       8.60531945       8.68393067       2.99881485       31      -0.10985762      -0.28349582       0.23071043
Cl       8.59312448       8.53302013      11.69451217       32       0.03541306       0.00973878       0.00889779
Cl       8.48358519       5.70772558       3.03492979       33       0.04482651       0.21076619      -0.01641849
Cl       6.05716574       8.69888722       2.82709181       34      -1.66582837       0.06166581      -0.08522261
Cs       5.90805907       5.91148656       5.83074276       35      -0.00164841       0.00005796       0.04348645
Pb       8.70741548       8.51174931       8.85392235       36       0.04105236       0.11871920      -0.27248094
Cl       8.52422194       8.53139188       5.93411226       37       0.02300183       0.00700994      -0.03574419
Cl       8.70428806       5.63786771       8.80184023       38       0.01423405       1.42236116       0.04072431
Cl       5.78411901       8.56808360       8.83436693       39       0.21924003       0.02324197       0.02443530
