Cs Ge Cl Cs Sn Cl Cs Ge Cl Cs Ge Cl Cs Ge Cl Cs Ge Cl Cs Ge Cl Cs Ge Cl
 1.0000000000000000
    10.3849944525743485    0.0000000000000000    0.0000000000000000
     0.0000000000000000   10.3849944525743485    0.0000000000000000
     0.0000000000000000    0.0000000000000000   10.3849944525743485
 Cs  Ge  Cl  Cs  Sn  Cl  Cs  Ge  Cl  Cs  Ge  Cl  Cs  Ge  Cl  Cs  Ge  Cl  Cs  Ge  Cl  Cs  Ge  Cl 
   1   1   3   1   1   3   1   1   3   1   1   3   1   1   3   1   1   3   1   1   3   1   1   3
Cartesian
  0.0000000000000000  0.0000000000000000  0.0000000000000000
  2.5962486131435871  2.5962486131435871  2.5962486131435871
  2.5962486131435871  2.5962486131435871  0.0000000000000000
  2.5962486131435871  0.0000000000000000  2.5962486131435871
  0.0000000000000000  2.5962486131435871  2.5962486131435871
  0.0000000000000000  0.0000000000000000  5.1924972262871734
  2.5962486131435871  2.5962486131435871  7.7887458394307618
  2.5962486131435871  2.5962486131435871  5.1924972262871734
  2.5962486131435871  0.0000000000000000  7.7887458394307618
  0.0000000000000000  2.5962486131435871  7.7887458394307618
  0.0000000000000000  5.1924972262871734  0.0000000000000000
  2.5962486131435871  7.7887458394307618  2.5962486131435871
  2.5962486131435871  7.7887458394307618  0.0000000000000000
  2.5962486131435871  5.1924972262871734  2.5962486131435871
  0.0000000000000000  7.7887458394307618  2.5962486131435871
  0.0000000000000000  5.1924972262871734  5.1924972262871734
  2.5962486131435871  7.7887458394307618  7.7887458394307618
  2.5962486131435871  7.7887458394307618  5.1924972262871734
  2.5962486131435871  5.1924972262871734  7.7887458394307618
  0.0000000000000000  7.7887458394307618  7.7887458394307618
  5.1924972262871734  0.0000000000000000  0.0000000000000000
  7.7887458394307618  2.5962486131435871  2.5962486131435871
  7.7887458394307618  2.5962486131435871  0.0000000000000000
  7.7887458394307618  0.0000000000000000  2.5962486131435871
  5.1924972262871734  2.5962486131435871  2.5962486131435871
  5.1924972262871734  0.0000000000000000  5.1924972262871734
  7.7887458394307618  2.5962486131435871  7.7887458394307618
  7.7887458394307618  2.5962486131435871  5.1924972262871734
  7.7887458394307618  0.0000000000000000  7.7887458394307618
  5.1924972262871734  2.5962486131435871  7.7887458394307618
  5.1924972262871734  5.1924972262871734  0.0000000000000000
  7.7887458394307618  7.7887458394307618  2.5962486131435871
  7.7887458394307618  7.7887458394307618  0.0000000000000000
  7.7887458394307618  5.1924972262871734  2.5962486131435871
  5.1924972262871734  7.7887458394307618  2.5962486131435871
  5.1924972262871734  5.1924972262871734  5.1924972262871734
  7.7887458394307618  7.7887458394307618  7.7887458394307618
  7.7887458394307618  7.7887458394307618  5.1924972262871734
  7.7887458394307618  5.1924972262871734  7.7887458394307618
  5.1924972262871734  7.7887458394307618  7.7887458394307618
