Cs Sn I  Br Cs Sn Br Cs Sn Cl I  Cs Sn I  Cl I  Cs Sn Br Cl Cs Sn Br I  Br Cs Sn I  Cl Br Cs Sn Br Cl
 1.0000000000000000
    12.6499988940710981    0.0000000000000000    0.0000000000000000
     0.0000000000000000   12.6499988940710981    0.0000000000000000
     0.0000000000000000    0.0000000000000000   12.6499988940710981
 Cs  Sn  I   Br  Cs  Sn  Br  Cs  Sn  Cl  I   Cs  Sn  I   Cl  I   Cs  Sn  Br  Cl  Cs  Sn  Br  I   Br  Cs  Sn  I   Cl  Br  Cs  Sn  Br  Cl 
   1   1   1   2   1   1   3   1   1   2   1   1   1   1   1   1   1   1   2   1   1   1   1   1   1   1   1   1   1   1   1   1   2   1
Cartesian
  0.0000000000000000  0.0000000000000000  0.0000000000000000
  3.1624997235177745  3.1624997235177745  3.1624997235177745
  3.1624997235177745  3.1624997235177745  0.0000000000000000
  3.1624997235177745  0.0000000000000000  3.1624997235177745
  0.0000000000000000  3.1624997235177745  3.1624997235177745
  0.0000000000000000  0.0000000000000000  6.3249994470355482
  3.1624997235177745  3.1624997235177745  9.4874991705533258
  3.1624997235177745  3.1624997235177745  6.3249994470355482
  3.1624997235177745  0.0000000000000000  9.4874991705533258
  0.0000000000000000  3.1624997235177745  9.4874991705533258
  0.0000000000000000  6.3249994470355482  0.0000000000000000
  3.1624997235177745  9.4874991705533258  3.1624997235177745
  3.1624997235177745  9.4874991705533258  0.0000000000000000
  3.1624997235177745  6.3249994470355482  3.1624997235177745
  0.0000000000000000  9.4874991705533258  3.1624997235177745
  0.0000000000000000  6.3249994470355482  6.3249994470355482
  3.1624997235177745  9.4874991705533258  9.4874991705533258
  3.1624997235177745  9.4874991705533258  6.3249994470355482
  3.1624997235177745  6.3249994470355482  9.4874991705533258
  0.0000000000000000  9.4874991705533258  9.4874991705533258
  6.3249994470355482  0.0000000000000000  0.0000000000000000
  9.4874991705533258  3.1624997235177745  3.1624997235177745
  9.4874991705533258  3.1624997235177745  0.0000000000000000
  9.4874991705533258  0.0000000000000000  3.1624997235177745
  6.3249994470355482  3.1624997235177745  3.1624997235177745
  6.3249994470355482  0.0000000000000000  6.3249994470355482
  9.4874991705533258  3.1624997235177745  9.4874991705533258
  9.4874991705533258  3.1624997235177745  6.3249994470355482
  9.4874991705533258  0.0000000000000000  9.4874991705533258
  6.3249994470355482  3.1624997235177745  9.4874991705533258
  6.3249994470355482  6.3249994470355482  0.0000000000000000
  9.4874991705533258  9.4874991705533258  3.1624997235177745
  9.4874991705533258  9.4874991705533258  0.0000000000000000
  9.4874991705533258  6.3249994470355482  3.1624997235177745
  6.3249994470355482  9.4874991705533258  3.1624997235177745
  6.3249994470355482  6.3249994470355482  6.3249994470355482
  9.4874991705533258  9.4874991705533258  9.4874991705533258
  9.4874991705533258  9.4874991705533258  6.3249994470355482
  9.4874991705533258  6.3249994470355482  9.4874991705533258
  6.3249994470355482  9.4874991705533258  9.4874991705533258
