Cs Pb I  Br Cs Pb Br Cs Pb Cl I  Cs Pb Br Cl Br Cs Pb Br Cl Cs Pb Br I  Cl Cs Pb Br Cl Cs Pb Br Cl
 1.0000000000000000
    12.4950010876350053    0.0000000000000000    0.0000000000000000
     0.0000000000000000   12.4950010876350053    0.0000000000000000
     0.0000000000000000    0.0000000000000000   12.4950010876350053
 Cs  Pb  I   Br  Cs  Pb  Br  Cs  Pb  Cl  I   Cs  Pb  Br  Cl  Br  Cs  Pb  Br  Cl  Cs  Pb  Br  I   Cl  Cs  Pb  Br  Cl  Cs  Pb  Br  Cl 
   1   1   1   2   1   1   3   1   1   2   1   1   1   1   1   1   1   1   2   1   1   1   1   1   1   1   1   1   2   1   1   1   2
Cartesian
  0.0000000000000000  0.0000000000000000  0.0000000000000000
  3.1237502719087504  3.1237502719087504  3.1237502719087504
  3.1237502719087504  3.1237502719087504  0.0000000000000000
  3.1237502719087504  0.0000000000000000  3.1237502719087504
  0.0000000000000000  3.1237502719087504  3.1237502719087504
  0.0000000000000000  0.0000000000000000  6.2475005438175018
  3.1237502719087504  3.1237502719087504  9.3712508157262544
  3.1237502719087504  3.1237502719087504  6.2475005438175018
  3.1237502719087504  0.0000000000000000  9.3712508157262544
  0.0000000000000000  3.1237502719087504  9.3712508157262544
  0.0000000000000000  6.2475005438175018  0.0000000000000000
  3.1237502719087504  9.3712508157262544  3.1237502719087504
  3.1237502719087504  9.3712508157262544  0.0000000000000000
  3.1237502719087504  6.2475005438175018  3.1237502719087504
  0.0000000000000000  9.3712508157262544  3.1237502719087504
  0.0000000000000000  6.2475005438175018  6.2475005438175018
  3.1237502719087504  9.3712508157262544  9.3712508157262544
  3.1237502719087504  9.3712508157262544  6.2475005438175018
  3.1237502719087504  6.2475005438175018  9.3712508157262544
  0.0000000000000000  9.3712508157262544  9.3712508157262544
  6.2475005438175018  0.0000000000000000  0.0000000000000000
  9.3712508157262544  3.1237502719087504  3.1237502719087504
  9.3712508157262544  3.1237502719087504  0.0000000000000000
  9.3712508157262544  0.0000000000000000  3.1237502719087504
  6.2475005438175018  3.1237502719087504  3.1237502719087504
  6.2475005438175018  0.0000000000000000  6.2475005438175018
  9.3712508157262544  3.1237502719087504  9.3712508157262544
  9.3712508157262544  3.1237502719087504  6.2475005438175018
  9.3712508157262544  0.0000000000000000  9.3712508157262544
  6.2475005438175018  3.1237502719087504  9.3712508157262544
  6.2475005438175018  6.2475005438175018  0.0000000000000000
  9.3712508157262544  9.3712508157262544  3.1237502719087504
  9.3712508157262544  9.3712508157262544  0.0000000000000000
  9.3712508157262544  6.2475005438175018  3.1237502719087504
  6.2475005438175018  9.3712508157262544  3.1237502719087504
  6.2475005438175018  6.2475005438175018  6.2475005438175018
  9.3712508157262544  9.3712508157262544  9.3712508157262544
  9.3712508157262544  9.3712508157262544  6.2475005438175018
  9.3712508157262544  6.2475005438175018  9.3712508157262544
  6.2475005438175018  9.3712508157262544  9.3712508157262544
