Cs Pb I  Br Cs Pb Br Cs Pb Br I  Cs Pb I  Br I  Cs Pb Br Cs Pb Br I  Br Cs Pb I  Br Cs Pb Br
 1.0000000000000000
    12.8400691968540404    0.0000000000000000    0.0000000000000000
     0.0000000000000000   12.8400691968540404    0.0000000000000000
     0.0000000000000000    0.0000000000000000   12.8400691968540404
 Cs  Pb  I   Br  Cs  Pb  Br  Cs  Pb  Br  I   Cs  Pb  I   Br  I   Cs  Pb  Br  Cs  Pb  Br  I   Br  Cs  Pb  I   Br  Cs  Pb  Br 
   1   1   1   2   1   1   3   1   1   2   1   1   1   1   1   1   1   1   3   1   1   1   1   1   1   1   1   2   1   1   3
Cartesian
  0.0000000000000000  0.0000000000000000  0.0000000000000000
  3.2100172992135101  3.2100172992135101  3.2100172992135101
  3.2100172992135101  3.2100172992135101  0.0000000000000000
  3.2100172992135101  0.0000000000000000  3.2100172992135101
  0.0000000000000000  3.2100172992135101  3.2100172992135101
  0.0000000000000000  0.0000000000000000  6.4200345984270193
  3.2100172992135101  3.2100172992135101  9.6300518976405307
  3.2100172992135101  3.2100172992135101  6.4200345984270193
  3.2100172992135101  0.0000000000000000  9.6300518976405307
  0.0000000000000000  3.2100172992135101  9.6300518976405307
  0.0000000000000000  6.4200345984270193  0.0000000000000000
  3.2100172992135101  9.6300518976405307  3.2100172992135101
  3.2100172992135101  9.6300518976405307  0.0000000000000000
  3.2100172992135101  6.4200345984270193  3.2100172992135101
  0.0000000000000000  9.6300518976405307  3.2100172992135101
  0.0000000000000000  6.4200345984270193  6.4200345984270193
  3.2100172992135101  9.6300518976405307  9.6300518976405307
  3.2100172992135101  9.6300518976405307  6.4200345984270193
  3.2100172992135101  6.4200345984270193  9.6300518976405307
  0.0000000000000000  9.6300518976405307  9.6300518976405307
  6.4200345984270193  0.0000000000000000  0.0000000000000000
  9.6300518976405307  3.2100172992135101  3.2100172992135101
  9.6300518976405307  3.2100172992135101  0.0000000000000000
  9.6300518976405307  0.0000000000000000  3.2100172992135101
  6.4200345984270193  3.2100172992135101  3.2100172992135101
  6.4200345984270193  0.0000000000000000  6.4200345984270193
  9.6300518976405307  3.2100172992135101  9.6300518976405307
  9.6300518976405307  3.2100172992135101  6.4200345984270193
  9.6300518976405307  0.0000000000000000  9.6300518976405307
  6.4200345984270193  3.2100172992135101  9.6300518976405307
  6.4200345984270193  6.4200345984270193  0.0000000000000000
  9.6300518976405307  9.6300518976405307  3.2100172992135101
  9.6300518976405307  9.6300518976405307  0.0000000000000000
  9.6300518976405307  6.4200345984270193  3.2100172992135101
  6.4200345984270193  9.6300518976405307  3.2100172992135101
  6.4200345984270193  6.4200345984270193  6.4200345984270193
  9.6300518976405307  9.6300518976405307  9.6300518976405307
  9.6300518976405307  9.6300518976405307  6.4200345984270193
  9.6300518976405307  6.4200345984270193  9.6300518976405307
  6.4200345984270193  9.6300518976405307  9.6300518976405307
