40
Lattice="12.768031795372208 0.0 0.0 0.0 12.76803179537212 0.0 0.0 1.4820559039850815e-13 12.768031795371959" Properties=species:S:1:pos:R:3:spacegroup_kinds:I:1:forces:R:3 spacegroup="P 1" unit_cell=conventional occupancy="_JSON {\"0\": {\"Cs\": 1.0}, \"1\": {\"Pb\": 1.0}, \"2\": {\"I\": 1.0}, \"3\": {\"I\": 1.0}, \"4\": {\"I\": 1.0}, \"5\": {\"Cs\": 1.0}, \"6\": {\"Pb\": 1.0}, \"7\": {\"I\": 1.0}, \"8\": {\"I\": 1.0}, \"9\": {\"I\": 1.0}, \"10\": {\"Cs\": 1.0}, \"11\": {\"Pb\": 1.0}, \"12\": {\"I\": 1.0}, \"13\": {\"I\": 1.0}, \"14\": {\"I\": 1.0}, \"15\": {\"Cs\": 1.0}, \"16\": {\"Pb\": 1.0}, \"17\": {\"I\": 1.0}, \"18\": {\"I\": 1.0}, \"19\": {\"I\": 1.0}, \"20\": {\"Cs\": 1.0}, \"21\": {\"Pb\": 1.0}, \"22\": {\"I\": 1.0}, \"23\": {\"I\": 1.0}, \"24\": {\"I\": 1.0}, \"25\": {\"Cs\": 1.0}, \"26\": {\"Pb\": 1.0}, \"27\": {\"I\": 1.0}, \"28\": {\"I\": 1.0}, \"29\": {\"I\": 1.0}, \"30\": {\"Cs\": 1.0}, \"31\": {\"Pb\": 1.0}, \"32\": {\"I\": 1.0}, \"33\": {\"I\": 1.0}, \"34\": {\"I\": 1.0}, \"35\": {\"Cs\": 1.0}, \"36\": {\"Pb\": 1.0}, \"37\": {\"I\": 1.0}, \"38\": {\"I\": 1.0}, \"39\": {\"I\": 1.0}}" candidate_id=a1169b6f8ad94795 formula=MAGe0.059Pb0.94I3 config_index=0 rattle_stdev=0.0 method=PBE fidelity=phase2_force energy=-113.27316596276712 stress="-0.0002400278042214402 -2.3577431505462804e-32 0.0 -2.3577431505462804e-32 -0.0002400278042214421 2.786135169994827e-18 0.0 2.786135169994827e-18 -0.0002400278042214488" pbc="T T T"
Cs       0.00000000       0.00000000       0.00000000        0       0.00000000       0.00000000       0.00000000
Pb       3.19200795       3.19200795       3.19200795        1       0.00071588       0.00071588       0.00071588
I        3.19200795       3.19200795       0.00000000        2       0.00012475       0.00012475      -0.00000000
I        3.19200795       0.00000000       3.19200795        3       0.00012475       0.00000000       0.00012475
I        0.00000000       3.19200795       3.19200795        4      -0.00000000       0.00012475       0.00012475
Cs       0.00000000       0.00000000       6.38401590        5       0.00000000       0.00000000      -0.00000000
Pb       3.19200795       3.19200795       9.57602385        6       0.00071588       0.00071588      -0.00071588
I        3.19200795       3.19200795       6.38401590        7       0.00014339       0.00014339      -0.00000000
I        3.19200795       0.00000000       9.57602385        8       0.00012475      -0.00000000      -0.00012475
I        0.00000000       3.19200795       9.57602385        9      -0.00000000       0.00012475      -0.00012475
Cs       0.00000000       6.38401590       0.00000000       10       0.00000000       0.00000000      -0.00000000
Pb       3.19200795       9.57602385       3.19200795       11       0.00071588      -0.00071588       0.00071588
I        3.19200795       9.57602385       0.00000000       12       0.00012475      -0.00012475      -0.00000000
I        3.19200795       6.38401590       3.19200795       13       0.00014339       0.00000000       0.00014339
I        0.00000000       9.57602385       3.19200795       14      -0.00000000      -0.00012475       0.00012475
Cs       0.00000000       6.38401590       6.38401590       15      -0.00000000      -0.00000000       0.00000000
Pb       3.19200795       9.57602385       9.57602385       16       0.00071588      -0.00071588      -0.00071588
I        3.19200795       9.57602385       6.38401590       17       0.00014339      -0.00014339      -0.00000000
I        3.19200795       6.38401590       9.57602385       18       0.00014339      -0.00000000      -0.00014339
I        0.00000000       9.57602385       9.57602385       19       0.00000000      -0.00012475      -0.00012475
Cs       6.38401590       0.00000000       0.00000000       20       0.00000000      -0.00000000       0.00000000
Pb       9.57602385       3.19200795       3.19200795       21      -0.00071588       0.00071588       0.00071588
I        9.57602385       3.19200795       0.00000000       22      -0.00012475       0.00012475       0.00000000
I        9.57602385       0.00000000       3.19200795       23      -0.00012475       0.00000000       0.00012475
I        6.38401590       3.19200795       3.19200795       24      -0.00000000       0.00014339       0.00014339
Cs       6.38401590       0.00000000       6.38401590       25       0.00000000      -0.00000000      -0.00000000
Pb       9.57602385       3.19200795       9.57602385       26      -0.00071588       0.00071588      -0.00071588
I        9.57602385       3.19200795       6.38401590       27      -0.00014339       0.00014339      -0.00000000
I        9.57602385       0.00000000       9.57602385       28      -0.00012475      -0.00000000      -0.00012475
I        6.38401590       3.19200795       9.57602385       29      -0.00000000       0.00014339      -0.00014339
Cs       6.38401590       6.38401590       0.00000000       30      -0.00000000       0.00000000      -0.00000000
Pb       9.57602385       9.57602385       3.19200795       31      -0.00071588      -0.00071588       0.00071588
I        9.57602385       9.57602385       0.00000000       32      -0.00012475      -0.00012475       0.00000000
I        9.57602385       6.38401590       3.19200795       33      -0.00014339       0.00000000       0.00014339
I        6.38401590       9.57602385       3.19200795       34       0.00000000      -0.00014339       0.00014339
Cs       6.38401590       6.38401590       6.38401590       35       0.00000000      -0.00000000       0.00000000
Pb       9.57602385       9.57602385       9.57602385       36      -0.00071588      -0.00071588      -0.00071588
I        9.57602385       9.57602385       6.38401590       37      -0.00014339      -0.00014339      -0.00000000
I        9.57602385       6.38401590       9.57602385       38      -0.00014339      -0.00000000      -0.00014339
I        6.38401590       9.57602385       9.57602385       39       0.00000000      -0.00014339      -0.00014339
40
Lattice="12.768031795372208 0.0 0.0 0.0 12.76803179537212 0.0 0.0 1.4820559039850815e-13 12.768031795371959" Properties=species:S:1:pos:R:3:spacegroup_kinds:I:1:forces:R:3 spacegroup="P 1" unit_cell=conventional occupancy="_JSON {\"0\": {\"Cs\": 1.0}, \"1\": {\"Pb\": 1.0}, \"2\": {\"I\": 1.0}, \"3\": {\"I\": 1.0}, \"4\": {\"I\": 1.0}, \"5\": {\"Cs\": 1.0}, \"6\": {\"Pb\": 1.0}, \"7\": {\"I\": 1.0}, \"8\": {\"I\": 1.0}, \"9\": {\"I\": 1.0}, \"10\": {\"Cs\": 1.0}, \"11\": {\"Pb\": 1.0}, \"12\": {\"I\": 1.0}, \"13\": {\"I\": 1.0}, \"14\": {\"I\": 1.0}, \"15\": {\"Cs\": 1.0}, \"16\": {\"Pb\": 1.0}, \"17\": {\"I\": 1.0}, \"18\": {\"I\": 1.0}, \"19\": {\"I\": 1.0}, \"20\": {\"Cs\": 1.0}, \"21\": {\"Pb\": 1.0}, \"22\": {\"I\": 1.0}, \"23\": {\"I\": 1.0}, \"24\": {\"I\": 1.0}, \"25\": {\"Cs\": 1.0}, \"26\": {\"Pb\": 1.0}, \"27\": {\"I\": 1.0}, \"28\": {\"I\": 1.0}, \"29\": {\"I\": 1.0}, \"30\": {\"Cs\": 1.0}, \"31\": {\"Pb\": 1.0}, \"32\": {\"I\": 1.0}, \"33\": {\"I\": 1.0}, \"34\": {\"I\": 1.0}, \"35\": {\"Cs\": 1.0}, \"36\": {\"Pb\": 1.0}, \"37\": {\"I\": 1.0}, \"38\": {\"I\": 1.0}, \"39\": {\"I\": 1.0}}" candidate_id=a1169b6f8ad94795 formula=MAGe0.059Pb0.94I3 config_index=1 rattle_stdev=0.08 method=PBE fidelity=phase2_force energy=-112.7132059461408 stress="-0.0018911563964487152 2.7073887685603876e-05 -2.1739923242085717e-05 2.7073887685603876e-05 -0.0010801621017396661 -6.961404582750523e-05 -2.1739923242085717e-05 -6.961404582750523e-05 -0.0024508989423492407" pbc="T T T"
Cs      -0.08691571      -0.07168521      -0.02450395        0      -0.02615505       0.03070959       0.03248410
Pb       3.08481326       3.09548110       3.14066980        1       0.25805719       0.25573883       0.21641082
I        3.29664360       3.33964478       0.06632920        2      -0.05174326      -0.03272022      -0.05934278
I        3.19014404      -0.01668512       3.11867837        3       0.01799983       0.02541657      -0.00766200
I       -0.08597941       3.18511647       3.28607503        4       0.48911799      -0.00325752       0.01687324
Cs      -0.13080734       0.09825552       6.47012680        5       0.02795667       0.03877786      -0.03668246
Pb       3.22358978       3.16099188       9.62309599        6       0.08988612       0.04017017      -0.10797413
I        3.07734404       3.16612197       6.48425467        7       0.03979748       0.02323426      -0.20294783
I        3.13354854       0.11427881       9.65159616        8      -0.01286235      -0.49369567       0.01634669
I       -0.02112022       3.17895088       9.49889526        9       0.09647760       0.00856590       0.02506187
Cs      -0.02741179       6.38792822      -0.03997056       10      -0.00885699      -0.03037466       0.02412868
Pb       3.01505559       9.60081080       3.06483585       11       0.74809936      -0.25100147      -0.08779779
I        3.25036432       9.56739175      -0.05201372       12      -0.02957759       0.01790298      -0.04293873
I        3.05656343       6.35453797       3.06477821       13       0.00562256       0.01924137       0.05891635
I        0.11844047       9.61397906       3.26511705       14      -0.85570740       0.01350147       0.05321205
Cs       0.07683762       6.39077930       6.52139437       15       0.01960895      -0.03952865      -0.01815133
Pb       3.26015937       9.51563302       9.39301350       16       0.21747673       0.07039606       0.28254510
I        3.20074704       9.54001120       6.35097810       17       0.00612567      -0.01707970      -0.10502589
I        3.21752665       6.34072726       9.65191716       18      -0.01764187       0.35561204      -0.04229442
I        0.01211480       9.58217604       9.57127182       19       0.33287518       0.00866959       0.00984211
Cs       6.37840480      -0.04529192       0.02488043       20       0.01542757       0.02010416       0.02871322
Pb       9.63396055       3.23332395       3.27409040       21      -0.40618403      -0.19739701      -0.42391557
I        9.61763606       3.12242087       0.12004521       22       0.03821018       0.02133625      -0.40791053
I        9.66934162       0.03935316       3.13342697       23      -0.00308456      -0.15589658       0.09428766
I        6.43844039       3.23272770       3.12500505       24      -0.32515861      -0.00781135       0.05340778
Cs       6.43582749       0.00100316       6.50878303       25      -0.01951552       0.01295365      -0.02192403
Pb       9.65879148       3.21902336       9.47181501       26      -0.17807253       0.24275201       0.32217270
I        9.48654030       3.29676916       6.34255854       27      -0.02960844      -0.02629240       0.40117677
I        9.54457390       0.08343748       9.58200106       28       0.01793570      -0.16338880      -0.03161236
I        6.39117086       3.19632054       9.60949961       29      -0.00309253      -0.00183951      -0.01203596
Cs       6.28579749       6.29685257       0.02536995       30       0.01040878      -0.01578476       0.03318152
Pb       9.51359140       9.50753336       3.08641824       31      -0.14071055       0.21395890       0.20825802
I        9.61232638       9.65616583       0.11309877       32       0.01409824      -0.00221151      -0.32173456
I        9.56080922       6.38642474       3.04213461       33       0.02764783       0.11279727       0.00613868
I        6.37467374       9.56582462       3.26418269       34       0.19941434      -0.00426906       0.01146090
Cs       6.27886612       6.37605184       6.39525989       35      -0.00427869      -0.01910142      -0.01519051
Pb       9.78632832       9.71648615       9.36517202       36      -0.47569075      -0.23347376       0.87857571
I        9.47309229       9.56228607       6.52805219       37      -0.00440895       0.01603569      -0.93685269
I        9.62471950       6.38653794       9.45871087       38       0.01364435       0.13766700       0.04909607
I        6.40877116       9.66740127       9.53515631       39      -0.08705505       0.00030030       0.01540339
40
Lattice="12.768031795372208 0.0 0.0 0.0 12.76803179537212 0.0 0.0 1.4820559039850815e-13 12.768031795371959" Properties=species:S:1:pos:R:3:spacegroup_kinds:I:1:forces:R:3 spacegroup="P 1" unit_cell=conventional occupancy="_JSON {\"0\": {\"Cs\": 1.0}, \"1\": {\"Pb\": 1.0}, \"2\": {\"I\": 1.0}, \"3\": {\"I\": 1.0}, \"4\": {\"I\": 1.0}, \"5\": {\"Cs\": 1.0}, \"6\": {\"Pb\": 1.0}, \"7\": {\"I\": 1.0}, \"8\": {\"I\": 1.0}, \"9\": {\"I\": 1.0}, \"10\": {\"Cs\": 1.0}, \"11\": {\"Pb\": 1.0}, \"12\": {\"I\": 1.0}, \"13\": {\"I\": 1.0}, \"14\": {\"I\": 1.0}, \"15\": {\"Cs\": 1.0}, \"16\": {\"Pb\": 1.0}, \"17\": {\"I\": 1.0}, \"18\": {\"I\": 1.0}, \"19\": {\"I\": 1.0}, \"20\": {\"Cs\": 1.0}, \"21\": {\"Pb\": 1.0}, \"22\": {\"I\": 1.0}, \"23\": {\"I\": 1.0}, \"24\": {\"I\": 1.0}, \"25\": {\"Cs\": 1.0}, \"26\": {\"Pb\": 1.0}, \"27\": {\"I\": 1.0}, \"28\": {\"I\": 1.0}, \"29\": {\"I\": 1.0}, \"30\": {\"Cs\": 1.0}, \"31\": {\"Pb\": 1.0}, \"32\": {\"I\": 1.0}, \"33\": {\"I\": 1.0}, \"34\": {\"I\": 1.0}, \"35\": {\"Cs\": 1.0}, \"36\": {\"Pb\": 1.0}, \"37\": {\"I\": 1.0}, \"38\": {\"I\": 1.0}, \"39\": {\"I\": 1.0}}" candidate_id=a1169b6f8ad94795 formula=MAGe0.059Pb0.94I3 config_index=2 rattle_stdev=0.08 method=PBE fidelity=phase2_force energy=-112.78095962679733 stress="-0.0013193154411811387 1.3741223970826097e-05 1.061265080922022e-05 1.3741223970826097e-05 -0.0015162909339523209 -3.99886742961873e-05 1.061265080922022e-05 -3.99886742961873e-05 -0.0010224123352044253" pbc="T T T"
Cs      -0.00901704      -0.08612512       0.14280215        0       0.02393772      -0.00990090      -0.05635191
Pb       3.07544928       3.16590229       3.09121623        1       0.67915282       0.25579912       0.12488733
I        3.22207727       3.12175616      -0.02799806        2      -0.03303769       0.03421685      -0.04407816
I        3.21574077       0.09607295       3.06648833        3      -0.00871511      -0.57352004       0.03024653
I        0.14832230       3.23152489       3.18155103        4      -0.93188484       0.01994480      -0.01827198
Cs      -0.03224966      -0.07789298       6.34661856        5      -0.01095644      -0.01034811       0.05459877
Pb       3.13457423       3.28971941       9.51384785        6       0.35279927      -0.11049945      -0.00518366
I        3.14492590       3.18739844       6.39038229        7       0.01881270      -0.07984138      -0.08951990
I        3.09735186      -0.12389940       9.64900434        8       0.00193012       0.50844751      -0.00036967
I        0.03301366       3.13634643       9.39292210        9      -0.16486518       0.01056136       0.02600125
Cs      -0.06297932       6.30173456       0.00746465       10       0.02183416       0.02243118      -0.02606721
Pb       3.14967242       9.63844344       3.17594277       11       0.19379334      -0.18998776       0.05927346
I        3.15355926       9.49320288      -0.04021875       12       0.01140975      -0.04586171       0.37925494
I        3.25519917       6.31001609       3.36881077       13      -0.01839916       0.46129193      -0.04689840
I       -0.11201889       9.55689606       3.20939520       14       0.54165661       0.00446883       0.03303307
Cs      -0.02819082       6.39088594       6.39254806       15      -0.00096997       0.01089999       0.02153754
Pb       3.17624545       9.68377856       9.60363776       16      -0.00901064      -0.38234656      -0.10795731
I        3.23661950       9.52840103       6.44264247       17      -0.01501850       0.05142168      -0.33769240
I        3.29850816       6.32561326       9.53716338       18      -0.01383023       0.06502954       0.03028141
I        0.08615314       9.36839525       9.58937810       19      -0.14425134      -0.01450941      -0.00827420
Cs       6.46713267      -0.14468591       0.06069128       20      -0.02479951       0.03221818      -0.02701963
Pb       9.53601482       3.00446450       3.18337453       21      -0.18021795       0.35869149       0.12961659
I        9.45580083       3.23111024      -0.04425428       22       0.05909402       0.03110136       0.17411132
I        9.66062445      -0.06954543       3.18600066       23       0.01995946       0.08500218      -0.00498979
I        6.37544350       3.35991371       3.16476491       24       0.29689455      -0.10924165      -0.01065451
Cs       6.34178349      -0.10356935       6.40114382       25       0.01657954       0.00224408       0.02451766
Pb       9.66612541       3.22413082       9.63727067       26      -0.31851877      -0.05822637      -0.23655508
I        9.46777365       3.23791663       6.36640493       27       0.04329571      -0.06175397      -0.06651172
I        9.62763896      -0.08037754       9.72800293       28       0.03000569       0.43301765       0.01169943
I        6.40136476       3.23200558       9.52589656       29       0.06051704      -0.05215836       0.00326026
Cs       6.30378516       6.32151108       0.01634222       30      -0.01824400      -0.04392540       0.00171527
Pb       9.61891121       9.49002405       3.01457957       31      -0.37792216      -0.20505875       0.49443792
I        9.62777826       9.55023698      -0.01380513       32       0.01521045      -0.02130107       0.02605633
I        9.39295010       6.37505239       3.26843305       33       0.07666960      -0.08204594      -0.04399007
I        6.42039495       9.74097804       3.19700479       34      -0.33153577       0.03736684      -0.03218965
Cs       6.38424329       6.34773159       6.41389450       35       0.00763849      -0.01917967      -0.00370831
Pb       9.51097457       9.56789925       9.61168090       36       0.23788066       0.08701056      -0.38948884
I        9.47401356       9.58465039       6.45219485       37       0.05347406       0.06417373      -0.17776623
I        9.56347568       6.47912144       9.45824278       38       0.04881438      -0.53282423       0.04189834
I        6.45329916       9.50455268       9.53210620       39      -0.21273657       0.02922965       0.06444921
40
Lattice="12.768031795372208 0.0 0.0 0.0 12.76803179537212 0.0 0.0 1.4820559039850815e-13 12.768031795371959" Properties=species:S:1:pos:R:3:spacegroup_kinds:I:1:forces:R:3 spacegroup="P 1" unit_cell=conventional occupancy="_JSON {\"0\": {\"Cs\": 1.0}, \"1\": {\"Pb\": 1.0}, \"2\": {\"I\": 1.0}, \"3\": {\"I\": 1.0}, \"4\": {\"I\": 1.0}, \"5\": {\"Cs\": 1.0}, \"6\": {\"Pb\": 1.0}, \"7\": {\"I\": 1.0}, \"8\": {\"I\": 1.0}, \"9\": {\"I\": 1.0}, \"10\": {\"Cs\": 1.0}, \"11\": {\"Pb\": 1.0}, \"12\": {\"I\": 1.0}, \"13\": {\"I\": 1.0}, \"14\": {\"I\": 1.0}, \"15\": {\"Cs\": 1.0}, \"16\": {\"Pb\": 1.0}, \"17\": {\"I\": 1.0}, \"18\": {\"I\": 1.0}, \"19\": {\"I\": 1.0}, \"20\": {\"Cs\": 1.0}, \"21\": {\"Pb\": 1.0}, \"22\": {\"I\": 1.0}, \"23\": {\"I\": 1.0}, \"24\": {\"I\": 1.0}, \"25\": {\"Cs\": 1.0}, \"26\": {\"Pb\": 1.0}, \"27\": {\"I\": 1.0}, \"28\": {\"I\": 1.0}, \"29\": {\"I\": 1.0}, \"30\": {\"Cs\": 1.0}, \"31\": {\"Pb\": 1.0}, \"32\": {\"I\": 1.0}, \"33\": {\"I\": 1.0}, \"34\": {\"I\": 1.0}, \"35\": {\"Cs\": 1.0}, \"36\": {\"Pb\": 1.0}, \"37\": {\"I\": 1.0}, \"38\": {\"I\": 1.0}, \"39\": {\"I\": 1.0}}" candidate_id=a1169b6f8ad94795 formula=MAGe0.059Pb0.94I3 config_index=3 rattle_stdev=0.08 method=PBE fidelity=phase2_force energy=-112.61610546268354 stress="-0.0014880209110914877 8.281735105673701e-05 1.2268813670565644e-05 8.281735105673701e-05 -0.00154669397288543 3.99332790753529e-05 1.2268813670565644e-05 3.99332790753529e-05 -0.0009809834961319274" pbc="T T T"
Cs      -0.10568348       0.16134023       0.00380516        0       0.01675006       0.05522115       0.02406308
Pb       3.17299426       3.19873776       3.26877133        1      -0.26147289      -0.25690234      -0.61163325
I        3.13748007       3.23433358      -0.06199346        2       0.02477361      -0.00465950      -0.07583563
I        3.30440445      -0.01797444       3.08753709        3       0.02053116      -0.18014462       0.00123708
I       -0.05428282       3.06233329       3.08961007        4       0.13015904       0.04596964       0.02935291
Cs      -0.01794374      -0.06804488       6.32355669        5      -0.03070364       0.02144757      -0.01736649
Pb       3.21306161       2.98759251       9.44240117        6      -0.01954016       0.43441865       0.41976820
I        3.13506913       2.99626590       6.28188111        7      -0.03490666      -0.02448816       0.36164475
I        3.24509775      -0.10230672       9.51279107        8      -0.02387825       0.43360408       0.01363378
I       -0.12018966       3.09684475       9.75735906        9       0.43744243       0.02250982      -0.01660153
Cs      -0.03814223       6.45574902      -0.14439506       10       0.01386278      -0.06482095      -0.01863881
Pb       3.15271078       9.48006412       3.12759032       11       0.01283526       0.26444206       0.01414216
I        3.30447344       9.55759859      -0.05709572       12      -0.03152221      -0.04394425       0.46312510
I        3.17900095       6.32970551       3.31313736       13      -0.01978719       0.22182662       0.01785964
I       -0.13980583       9.62870621       3.16447865       14       1.04349179      -0.05421213       0.00679518
Cs      -0.06069585       6.39777800       6.33143262       15      -0.03187059      -0.00893710       0.00806816
Pb       3.23622359       9.60663251       9.54632062       16      -0.16567021      -0.53811074       0.06040677
I        3.31825947       9.59336765       6.48094323       17      -0.00538197       0.01226678      -0.56222917
I        3.25052639       6.43793558       9.52959936       18      -0.01988241      -0.29765058      -0.03506889
I       -0.00794717       9.44923465       9.57004653       19      -0.11529487       0.00609665       0.01243763
Cs       6.47992061      -0.02123382      -0.05214397       20      -0.02300494       0.02142110       0.00565939
Pb       9.42430092       3.06878403       3.16058209       21       0.32472852       0.26209445       0.01932907
I        9.54286538       3.24889337       0.05140203       22      -0.05101094      -0.02386849      -0.15600765
I        9.76781075      -0.01358259       3.11093725       23      -0.06559747      -0.24457885       0.00340653
I        6.34853140       3.25968612       3.23155667       24      -0.13401387      -0.02302143       0.02205239
Cs       6.40630696       0.04176727       6.40942523       25       0.01431403      -0.01802679       0.00336515
Pb       9.59419476       3.16078071       9.51858244       26      -0.13117846      -0.02155749       0.03023559
I        9.69955274       3.12297234       6.35530969       27       0.00166046      -0.00100588       0.08669437
I        9.58272799       0.13433776       9.48167687       28      -0.02996206      -0.88004303       0.06011580
I        6.35211773       3.15813680       9.62077079       29      -0.19218813      -0.03535989      -0.04603024
Cs       6.33783632       6.38971569       0.06937641       30      -0.00455150      -0.03190347      -0.03097908
Pb       9.60921657       9.55792507       3.25245540       31      -0.11982047      -0.20176343       0.18911828
I        9.59403424       9.54084360       0.05232634       32       0.02224557      -0.00603319       0.02461884
I        9.50433399       6.27006000       3.33140668       33       0.06185358       0.22600547       0.00806024
I        6.61756195       9.52212583       3.13032601       34      -0.97933830       0.01640416      -0.00780861
Cs       6.46845528       6.47567294       6.39366574       35       0.01852202       0.01487438       0.01821163
Pb       9.57702332       9.52006213       9.72612778       36       0.04644881      -0.00005457      -0.25226219
I        9.53997117       9.55152510       6.49703525       37       0.00440112       0.00470073      -0.09672482
I        9.52373657       6.20269057       9.62445200       38      -0.00950828       0.86847953       0.00529917
I        6.34207046       9.59262303       9.66373601       39       0.28500747       0.01269638       0.01500638
