40
Lattice="12.510022831424427 0.0 0.0 0.006243973038725147 12.510021273185739 0.0 -0.00036783141894433603 0.0003680150559399368 12.655612942239182" Properties=species:S:1:pos:R:3:spacegroup_kinds:I:1:forces:R:3 spacegroup="P 1" unit_cell=conventional occupancy="_JSON {\"0\": {\"Cs\": 1.0}, \"1\": {\"Pb\": 1.0}, \"2\": {\"I\": 1.0}, \"3\": {\"I\": 1.0}, \"4\": {\"I\": 1.0}, \"5\": {\"Cs\": 1.0}, \"6\": {\"Pb\": 1.0}, \"7\": {\"I\": 1.0}, \"8\": {\"I\": 1.0}, \"9\": {\"I\": 1.0}, \"10\": {\"Cs\": 1.0}, \"11\": {\"Pb\": 1.0}, \"12\": {\"Br\": 1.0}, \"13\": {\"Br\": 1.0}, \"14\": {\"I\": 1.0}, \"15\": {\"Cs\": 1.0}, \"16\": {\"Pb\": 1.0}, \"17\": {\"I\": 1.0}, \"18\": {\"Br\": 1.0}, \"19\": {\"I\": 1.0}, \"20\": {\"Cs\": 1.0}, \"21\": {\"Pb\": 1.0}, \"22\": {\"I\": 1.0}, \"23\": {\"I\": 1.0}, \"24\": {\"Br\": 1.0}, \"25\": {\"Cs\": 1.0}, \"26\": {\"Pb\": 1.0}, \"27\": {\"I\": 1.0}, \"28\": {\"I\": 1.0}, \"29\": {\"I\": 1.0}, \"30\": {\"Cs\": 1.0}, \"31\": {\"Pb\": 1.0}, \"32\": {\"I\": 1.0}, \"33\": {\"Br\": 1.0}, \"34\": {\"Br\": 1.0}, \"35\": {\"Cs\": 1.0}, \"36\": {\"Pb\": 1.0}, \"37\": {\"I\": 1.0}, \"38\": {\"I\": 1.0}, \"39\": {\"Br\": 1.0}}" candidate_id=fb7f4d67da41193c formula=CsPbBr0.28I0.723 config_index=0 rattle_stdev=0.0 method=PBE fidelity=phase2_force energy=-117.31073177143428 stress="0.00033009777976417484 -1.0285065689335497e-05 1.3408466405412578e-05 -1.0285065689335497e-05 0.0003301080466808294 -1.3415160478467347e-05 1.3408466405412578e-05 -1.3415160478467347e-05 -0.0007307926215879872" pbc="T T T"
Cs       0.05301114      12.46323076       0.01992146        0       0.00769042      -0.00769426      -0.00549113
Pb       3.24747738       3.24716185       3.15751207        1       0.01061525       0.01537593      -0.00533170
I        3.20879688       3.30548110       0.00819129        2      -0.01351805       0.00502836      -0.01552400
I        3.26864181      12.50046003       3.08898157        3      -0.00903779       0.00003370       0.00239200
I        0.00503870       3.25455759       3.17503494        4       0.00030666      -0.00509230       0.00078060
Cs       0.01515806      12.50110274       6.30662204        5      -0.00947772       0.00948245       0.00381428
Pb       3.14177742       3.25105825       9.49738043        6       0.01370669       0.00582796       0.00800783
I        3.19895863       3.26711529       6.31937594        7      -0.00895591      -0.00092191       0.01478601
I        3.20428266      12.49696756       9.57278020        8      -0.00859513      -0.01572444       0.00189704
I        0.00726314       3.16733810       9.47860165        9      -0.00685846      -0.00657558      -0.00415704
Cs       0.04444323       6.28656710       0.03812023       10       0.01508596       0.00180402       0.00015137
Pb       3.25673614       9.25790632       3.05491282       11       0.02322257      -0.02323416      -0.01077806
Br       3.22616150       9.28849623       0.00685211       12       0.02847003      -0.02848424      -0.00286401
Br       3.23223351       6.25676947       3.11476142       13       0.02995290       0.01284505      -0.01631723
I        0.01417689       9.24761907       3.08898157       14      -0.00002919       0.00903781       0.00239200
Cs       0.03809346       6.27090990       6.28805342       15       0.00238502      -0.00506433      -0.00332531
Pb       3.24405060       9.27059819       9.59983036       16       0.01740866      -0.01741735       0.01188641
I        3.29458065       9.22004292       6.32650544       17      -0.01988064       0.01989056       0.00238726
Br       3.17099062       6.24993165       9.53869148       18       0.00284993       0.04356570       0.01789558
I        0.01770149       9.31197647       9.57278020       19       0.01572873       0.00858728       0.00189704
Cs       6.22967831      12.46871579       0.03812023       20      -0.00181155      -0.01508506       0.00015137
Pb       9.26693133       3.24471059       3.16292358       21      -0.01009525       0.01010029       0.00427725
I        9.30058554       3.21103958       0.01086618       22       0.00851574      -0.00851999      -0.01460678
I        9.26170710      12.50660698       3.17503494       23       0.00509215      -0.00030921       0.00078060
Br       6.25240287       3.21593518       3.16618639       24       0.00255992       0.03164720       0.00624924
Cs       6.24533868      12.47505774       6.28805342       25       0.00506314      -0.00238755      -0.00332531
Pb       9.37644140       3.13514585       9.49427517       26      -0.00832591       0.00833007      -0.00225436
I        9.31212211       3.19949725       6.31803421       27       0.00680743      -0.00681082       0.01487557
I        9.34892548      12.50433900       9.47860165       28       0.00657901       0.00685517      -0.00415704
I        6.25115925       3.20560655       9.48691276       29       0.00603666      -0.01041954      -0.00765530
Cs       6.21887991       6.29428372       0.03407508       30      -0.01551481       0.01552256       0.01504227
Pb       9.26748448       9.26416502       3.15751207       31      -0.01538123      -0.01060758      -0.00533170
I        9.20918455       9.30287461       0.00819129       32      -0.00502161       0.01352055      -0.01552400
Br       9.29721134       6.25922431       3.16618639       33      -0.03164847      -0.00254412       0.00624924
Br       6.25788485       9.28091103       3.11476142       34      -0.01286000      -0.02994649      -0.01631723
Cs       6.23533432       6.27782110       6.29382103       35       0.00582426      -0.00582717      -0.01697150
Pb       9.26364084       9.36986690       9.49738043       36      -0.00583480      -0.01370378       0.00800783
I        9.24755526       9.31269372       6.31937594       37       0.00092638       0.00895544       0.01478601
I        9.30754059       6.26046278       9.48691276       38       0.01041653      -0.00604186      -0.00765530
Br       6.26475324       9.34215050       9.53869148       39      -0.04356712      -0.00282819       0.01789558
40
Lattice="12.510022831424427 0.0 0.0 0.006243973038725147 12.510021273185739 0.0 -0.00036783141894433603 0.0003680150559399368 12.655612942239182" Properties=species:S:1:pos:R:3:spacegroup_kinds:I:1:forces:R:3 spacegroup="P 1" unit_cell=conventional occupancy="_JSON {\"0\": {\"Cs\": 1.0}, \"1\": {\"Pb\": 1.0}, \"2\": {\"I\": 1.0}, \"3\": {\"I\": 1.0}, \"4\": {\"I\": 1.0}, \"5\": {\"Cs\": 1.0}, \"6\": {\"Pb\": 1.0}, \"7\": {\"I\": 1.0}, \"8\": {\"I\": 1.0}, \"9\": {\"I\": 1.0}, \"10\": {\"Cs\": 1.0}, \"11\": {\"Pb\": 1.0}, \"12\": {\"Br\": 1.0}, \"13\": {\"Br\": 1.0}, \"14\": {\"I\": 1.0}, \"15\": {\"Cs\": 1.0}, \"16\": {\"Pb\": 1.0}, \"17\": {\"I\": 1.0}, \"18\": {\"Br\": 1.0}, \"19\": {\"I\": 1.0}, \"20\": {\"Cs\": 1.0}, \"21\": {\"Pb\": 1.0}, \"22\": {\"I\": 1.0}, \"23\": {\"I\": 1.0}, \"24\": {\"Br\": 1.0}, \"25\": {\"Cs\": 1.0}, \"26\": {\"Pb\": 1.0}, \"27\": {\"I\": 1.0}, \"28\": {\"I\": 1.0}, \"29\": {\"I\": 1.0}, \"30\": {\"Cs\": 1.0}, \"31\": {\"Pb\": 1.0}, \"32\": {\"I\": 1.0}, \"33\": {\"Br\": 1.0}, \"34\": {\"Br\": 1.0}, \"35\": {\"Cs\": 1.0}, \"36\": {\"Pb\": 1.0}, \"37\": {\"I\": 1.0}, \"38\": {\"I\": 1.0}, \"39\": {\"Br\": 1.0}}" candidate_id=fb7f4d67da41193c formula=CsPbBr0.28I0.723 config_index=1 rattle_stdev=0.08 method=PBE fidelity=phase2_force energy=-116.72164902047405 stress="-0.0010440505614373345 1.397942893099398e-05 -4.214387885450139e-05 1.397942893099398e-05 -0.000573273885938639 -0.0001347691507026811 -4.214387885450139e-05 -0.0001347691507026811 -0.0029912052066213436" pbc="T T T"
Cs      -0.03390457      12.39154555      -0.00458249        0      -0.02765431       0.01950786       0.02668188
Pb       3.14028268       3.15063501       3.10617393        1       0.24475782       0.23778500       0.26284474
I        3.31343253       3.45311793       0.07452048        2      -0.09530425      -0.06445645      -0.11212503
I        3.26677790      12.48377492       3.01565199        3      -0.01350731       0.03111977       0.00181937
I       -0.08094070       3.24766611       3.26910202        4       0.43620360      -0.00874933       0.01146765
Cs      -0.11564928      12.59935826       6.39273294        5       0.02442921       0.04753246      -0.04093219
Pb       3.17335925       3.22004218       9.54445257        6       0.05174574      -0.03799734      -0.07170627
I        3.08429472       3.24122932       6.41961472        7       0.02605640       0.01079304      -0.21341773
I        3.14582325      12.61124636       9.64835251        8      -0.02100165      -0.40639888       0.00395189
I       -0.01385708       3.15428103       9.40147307        9       0.17870328      -0.00439157       0.01454632
Cs       0.01703144       6.29047942      -0.00185033       10       0.00286153      -0.02850160       0.02929723
Pb       3.07978378       9.28269327       2.92774072       11       0.67028698      -0.25586993      -0.11312287
Br       3.28451786       9.27986413      -0.04516161       12      -0.03492255      -0.00754964       0.01443931
Br       3.09678899       6.22729155       2.98753169       13       0.01445643       0.04626482       0.05011040
I        0.13261736       9.28557429       3.16209067       14      -0.66244796       0.01650325       0.02993576
Cs       0.11493108       6.27767330       6.42543190       15       0.02004034      -0.03855263      -0.01686179
Pb       3.31220202       9.21020737       9.41682002       16       0.23464942       0.07160001       0.22678240
I        3.30331975       9.18403027       6.29346764       17      -0.03430649       0.01872068      -0.00797695
Br       3.19650932       6.20664301       9.61458480       18      -0.01522631       0.39036378      -0.03229487
I        0.02981630       9.31812867       9.56802817       19       0.22385118       0.02472807      -0.00793405
Cs       6.22406721      12.42342386       0.06300066       20       0.01994312       0.00302269       0.01584500
Pb       9.32486803       3.28602660       3.24500604       21      -0.37027861      -0.19179242      -0.50558880
I        9.34219775       3.14145250       0.13091139       22       0.05044617       0.00357098      -0.49007164
I        9.35502488      12.54596014       3.11645396       23       0.01061384      -0.13154384       0.10426660
Br       6.30682736       3.25665492       3.09918349       24      -0.30035821       0.01932170       0.05936092
Cs       6.29715027      12.47606090       6.41282055       25      -0.02714969       0.00154000      -0.02736010
Pb       9.45920903       3.16216126       9.39006633       26      -0.26436361       0.29699735       0.35985835
I        9.22263857       3.30425846       6.27657685       27      -0.02203962      -0.04359537       0.47150658
I        9.31747553      12.58777648       9.48457887       28       0.00269077      -0.17779145      -0.01527622
I        6.25831421       3.20991914       9.52038851       29       0.03927818      -0.00943559      -0.00859532
Cs       6.12066151       6.20712040       0.05944503       30       0.05222364       0.04012125       0.04867682
Pb       9.20505204       9.19567453       3.05192236       31      -0.18259287       0.19080604       0.36248466
I        9.24548709       9.38301660       0.12129006       32       0.02090873       0.00684048      -0.50912137
Br       9.28199671       6.26163315       3.01631306       33       0.00917186       0.10525555       0.01396488
Br       6.24854269       9.27071181       3.18693617       34       0.19785242      -0.03106980      -0.00460483
Cs       6.13018454       6.26985704       6.30506502       35       0.01259679      -0.03588774      -0.03098159
Pb       9.47394532       9.51032921       9.28652860       36      -0.33781437      -0.35233161       1.00216563
I        9.14462370       9.29895594       6.46341224       37      -0.01786933       0.02532786      -0.99033956
I        9.35623624       6.26298482       9.36959978       38       0.01324143       0.21730005       0.07402733
Br       6.28950850       9.43352793       9.49782395       39      -0.13127244       0.00221259       0.01488820
40
Lattice="12.510022831424427 0.0 0.0 0.006243973038725147 12.510021273185739 0.0 -0.00036783141894433603 0.0003680150559399368 12.655612942239182" Properties=species:S:1:pos:R:3:spacegroup_kinds:I:1:forces:R:3 spacegroup="P 1" unit_cell=conventional occupancy="_JSON {\"0\": {\"Cs\": 1.0}, \"1\": {\"Pb\": 1.0}, \"2\": {\"I\": 1.0}, \"3\": {\"I\": 1.0}, \"4\": {\"I\": 1.0}, \"5\": {\"Cs\": 1.0}, \"6\": {\"Pb\": 1.0}, \"7\": {\"I\": 1.0}, \"8\": {\"I\": 1.0}, \"9\": {\"I\": 1.0}, \"10\": {\"Cs\": 1.0}, \"11\": {\"Pb\": 1.0}, \"12\": {\"Br\": 1.0}, \"13\": {\"Br\": 1.0}, \"14\": {\"I\": 1.0}, \"15\": {\"Cs\": 1.0}, \"16\": {\"Pb\": 1.0}, \"17\": {\"I\": 1.0}, \"18\": {\"Br\": 1.0}, \"19\": {\"I\": 1.0}, \"20\": {\"Cs\": 1.0}, \"21\": {\"Pb\": 1.0}, \"22\": {\"I\": 1.0}, \"23\": {\"I\": 1.0}, \"24\": {\"Br\": 1.0}, \"25\": {\"Cs\": 1.0}, \"26\": {\"Pb\": 1.0}, \"27\": {\"I\": 1.0}, \"28\": {\"I\": 1.0}, \"29\": {\"I\": 1.0}, \"30\": {\"Cs\": 1.0}, \"31\": {\"Pb\": 1.0}, \"32\": {\"I\": 1.0}, \"33\": {\"Br\": 1.0}, \"34\": {\"Br\": 1.0}, \"35\": {\"Cs\": 1.0}, \"36\": {\"Pb\": 1.0}, \"37\": {\"I\": 1.0}, \"38\": {\"I\": 1.0}, \"39\": {\"Br\": 1.0}}" candidate_id=fb7f4d67da41193c formula=CsPbBr0.28I0.723 config_index=2 rattle_stdev=0.08 method=PBE fidelity=phase2_force energy=-116.79797137799096 stress="-0.0007669094284574972 1.2259665514737853e-05 5.114408573232898e-05 1.2259665514737853e-05 -0.0009745400971800553 -3.361179670499195e-05 5.114408573232898e-05 -3.361179670499195e-05 -0.0015913687673405714" pbc="T T T"
Cs       0.04399410      12.37710564       0.16272362        0       0.02234497      -0.01600811      -0.06200727
Pb       3.13091871       3.22105619       3.05672036        1       0.58316750       0.25079176       0.22182276
I        3.23886620       3.23522931      -0.01980677        2      -0.04664105       0.02995290      -0.08638504
I        3.29237462      12.59653299       2.96346195        3      -0.03438018      -0.52578521       0.03437835
I        0.15336100       3.29407454       3.16457802        4      -0.78156663      -0.00260337      -0.02334195
Cs      -0.01709160      12.42320976       6.26922470        5      -0.02356486      -0.00172457       0.05236854
Pb       3.08434370       3.34876971       9.43520443        6       0.47002896      -0.05389657       0.01379117
I        3.15187657       3.26250579       6.32574233        7       0.00596925      -0.08063129      -0.10330412
I        3.10962657      12.37306816       9.64576069        8       0.00500369       0.39803754       0.00356503
I        0.04027680       3.11167658       9.29549990        9      -0.19149923      -0.01561456      -0.00071199
Cs      -0.01853609       6.20428576       0.04558488       10       0.03421869       0.02278987      -0.03173934
Pb       3.21440061       9.32032591       3.03884764       11       0.24373180      -0.21900187       0.07204309
Br       3.18771281       9.20567526      -0.03336664       12       0.03344171      -0.02915782       0.33588382
Br       3.29542472       6.18276966       3.29156425       13      -0.01295581       0.44614917      -0.09046255
I       -0.09784200       9.22849128       3.10636882       14       0.48072113       0.01409393       0.01182566
Cs       0.00990263       6.27777994       6.29658558       15       0.00373016       0.00530408       0.01858277
Pb       3.22828811       9.37835290       9.62744428       16      -0.02020670      -0.36947666      -0.09377645
I        3.33919220       9.17242011       6.38513201       17      -0.06231190       0.09976992      -0.28453246
Br       3.27749083       6.19152901       9.49983102       18      -0.03169350       0.07209150       0.03549741
I        0.10385463       9.10434788       9.58613445       19      -0.07822490       0.01390108       0.00095214
Cs       6.31279508      12.32402988       0.09881151       20      -0.02711466       0.02026494      -0.03014091
Pb       9.22692230       3.05716714       3.15429017       21      -0.22837859       0.33614637       0.12951195
I        9.18036253       3.25014187      -0.03338810       22       0.06471122       0.02634248       0.17707124
I        9.34630771      12.43706155       3.16902765       23       0.02628190       0.11119133      -0.00981616
Br       6.24383047       3.38384094       3.13894336       24       0.32719210      -0.09936969      -0.01652704
Cs       6.20310627      12.37148840       6.30518135       25       0.02360155      -0.01037208       0.01960223
Pb       9.46654296       3.16726872       9.55552199       26      -0.39389173      -0.05754333      -0.23605544
I        9.20387191       3.24540593       6.30042324       27       0.05711755      -0.07094449      -0.03990210
I        9.40054060      12.42396146       9.63058073       28       0.05180946       0.55482486       0.01829049
I        6.26850812       3.24560418       9.43678547       29       0.05482794      -0.08094524      -0.00461901
Cs       6.13864918       6.23177891       0.05041730       30      -0.02217158      -0.03040372       0.01873143
Pb       9.31037184       9.17816522       2.98008369       31      -0.35315317      -0.20947149       0.68680395
I        9.26093897       9.27708775      -0.00561385       32       0.00329792      -0.02179360      -0.04554602
Br       9.11413760       6.25026080       3.24261150       33       0.06266106      -0.05936142      -0.06224602
Br       6.29426390       9.44586523       3.11975826       34      -0.35279607       0.02051444      -0.07559497
Cs       6.23556171       6.24153679       6.32369963       35       0.00565916      -0.02567837      -0.03395564
Pb       9.19859156       9.36174230       9.53303748       36       0.19148679       0.10231772      -0.40801566
I        9.14554497       9.32132027       6.38755489       37       0.06257285       0.08936752      -0.22116721
I        9.29499243       6.35556832       9.36913168       38       0.07314434      -0.68470295       0.02309035
Br       6.33403651       9.27067934       9.49477383       39      -0.22600007       0.05067425       0.08456745
40
Lattice="12.510022831424427 0.0 0.0 0.006243973038725147 12.510021273185739 0.0 -0.00036783141894433603 0.0003680150559399368 12.655612942239182" Properties=species:S:1:pos:R:3:spacegroup_kinds:I:1:forces:R:3 spacegroup="P 1" unit_cell=conventional occupancy="_JSON {\"0\": {\"Cs\": 1.0}, \"1\": {\"Pb\": 1.0}, \"2\": {\"I\": 1.0}, \"3\": {\"I\": 1.0}, \"4\": {\"I\": 1.0}, \"5\": {\"Cs\": 1.0}, \"6\": {\"Pb\": 1.0}, \"7\": {\"I\": 1.0}, \"8\": {\"I\": 1.0}, \"9\": {\"I\": 1.0}, \"10\": {\"Cs\": 1.0}, \"11\": {\"Pb\": 1.0}, \"12\": {\"Br\": 1.0}, \"13\": {\"Br\": 1.0}, \"14\": {\"I\": 1.0}, \"15\": {\"Cs\": 1.0}, \"16\": {\"Pb\": 1.0}, \"17\": {\"I\": 1.0}, \"18\": {\"Br\": 1.0}, \"19\": {\"I\": 1.0}, \"20\": {\"Cs\": 1.0}, \"21\": {\"Pb\": 1.0}, \"22\": {\"I\": 1.0}, \"23\": {\"I\": 1.0}, \"24\": {\"Br\": 1.0}, \"25\": {\"Cs\": 1.0}, \"26\": {\"Pb\": 1.0}, \"27\": {\"I\": 1.0}, \"28\": {\"I\": 1.0}, \"29\": {\"I\": 1.0}, \"30\": {\"Cs\": 1.0}, \"31\": {\"Pb\": 1.0}, \"32\": {\"I\": 1.0}, \"33\": {\"Br\": 1.0}, \"34\": {\"Br\": 1.0}, \"35\": {\"Cs\": 1.0}, \"36\": {\"Pb\": 1.0}, \"37\": {\"I\": 1.0}, \"38\": {\"I\": 1.0}, \"39\": {\"Br\": 1.0}}" candidate_id=fb7f4d67da41193c formula=CsPbBr0.28I0.723 config_index=3 rattle_stdev=0.08 method=PBE fidelity=phase2_force energy=-116.64132862457652 stress="-0.0009587065533728675 0.00011329429882300722 6.67380277294841e-05 0.00011329429882300722 -0.0008686505121715567 8.262690968601527e-05 6.67380277294841e-05 8.262690968601527e-05 -0.001436174624209443" pbc="T T T"
Cs      -0.05267234      12.62457099       0.02372662        0       0.01694694       0.05553476       0.02595449
Pb       3.22846368       3.25389167       3.23427545        1      -0.23689258      -0.24171440      -0.73152818
I        3.15426900       3.34780673      -0.05380217        2      -0.00102247      -0.00715898      -0.07688073
I        3.38103830      12.48248559       2.98451071        3       0.00076657      -0.18123465       0.01827711
I       -0.04924412       3.12488293       3.07263706        4       0.13267908       0.03419859       0.03530584
Cs      -0.00278568      12.43305786       6.24616283        5      -0.04060629       0.02968831      -0.01540095
Pb       3.16283109       3.04664281       9.36375776        6      -0.05979933       0.35768813       0.44660316
I        3.14201981       3.07137325       6.21724115        7      -0.03773452      -0.03020081       0.43668137
I        3.25737246      12.39466084       9.50954742        8      -0.03956862       0.43137518      -0.00124495
I       -0.11292652       3.07217490       9.65993686        9       0.57164988       0.01313491       0.01228191
Cs       0.00630100       6.35830022      -0.10627483       10       0.02741601      -0.08137416      -0.01539713
Pb       3.21743897       9.16194659       2.99049519       11       0.04268746       0.27016077      -0.00432534
Br       3.33862699       9.27007098      -0.05024361       12      -0.00895969      -0.07254141       0.42512656
Br       3.21922650       6.20245908       3.23589084       13       0.00737050       0.24590716       0.00282594
I       -0.12562893       9.30030144       3.06145227       14       0.92688460      -0.04736271      -0.00031738
Cs      -0.02260240       6.28467200       6.23547014       15      -0.03214842      -0.01979683      -0.00082766
Pb       3.28826624       9.30120685       9.57012713       16      -0.10556146      -0.55238645       0.02043326
I        3.42083217       9.23738672       6.42343277       17      -0.04688751       0.03931322      -0.44008978
Br       3.22950907       6.30385133       9.49226699       18      -0.01067920      -0.20999476      -0.02490800
I        0.00975432       9.18518728       9.56680288       19      -0.12162435       0.03993342      -0.00528984
Cs       6.32558302      12.44748197      -0.01402374       20      -0.03246318       0.00222660      -0.00324975
Pb       9.11520840       3.12148667       3.13149772       21       0.31178754       0.26022540       0.05998265
I        9.26742707       3.26792500       0.06226821       22      -0.03470369      -0.02965716      -0.21311627
I        9.45349401      12.49302439       3.09396424       23      -0.06331872      -0.21911541       0.01288278
Br       6.21691838       3.28361335       3.20573511       24      -0.12888335      -0.00112168       0.03443196
Cs       6.26762974      12.51682502       6.31346276       25       0.01863331      -0.02310323       0.00015617
Pb       9.39461231       3.10391861       9.43683376       26      -0.20512942      -0.01592981       0.01708591
I        9.43565100       3.13046164       6.28932801       27       0.01488316      -0.00512521       0.10460782
I        9.35562962      12.63867677       9.38425467       28      -0.03283822      -1.09347966       0.04417928
I        6.21926108       3.17173540       9.53165970       29      -0.17350376      -0.02966575      -0.04353260
Cs       6.17270034       6.29998351       0.10345149       30      -0.01498944      -0.02296978      -0.03121872
Pb       9.30067720       9.24606624       3.21795952       31      -0.07213103      -0.20157453       0.20017853
I        9.22719494       9.26769437       0.06051763       32       0.02054692       0.00432100       0.03437676
Br       9.22552148       6.14526842       3.30558512       33       0.01752185       0.20828741       0.01720898
Br       6.49143090       9.22701301       3.05307948       34      -0.91846090      -0.01920712      -0.01220523
Cs       6.31977370       6.36947814       6.30347088       35       0.02240488      -0.02764442       0.00149149
Pb       9.26464032       9.31390519       9.64748436       36       0.06338154      -0.00765400      -0.28090616
I        9.21150259       9.28819498       6.43239529       37       0.01900072       0.02860879      -0.09003428
I        9.25525331       6.07913745       9.53534091       38      -0.02154316       1.09797879       0.00083955
Br       6.22280780       9.35874968       9.62640365       39       0.21626401       0.01045074       0.03817470
