Cs Sn I  Cs Sn I  Cs Sn Cl I  Cs Sn I  Cl I  Cs Sn I  Cl Cs Sn I  Cs Sn I  Cl Cs Sn I  Cl
 1.0000000000000000
    13.0772328112640093    0.0000000000000000    0.0000000000000000
     0.0000000000000000   13.0772328112640093    0.0000000000000000
     0.0000000000000000    0.0000000000000000   13.0772328112640093
 Cs  Sn  I   Cs  Sn  I   Cs  Sn  Cl  I   Cs  Sn  I   Cl  I   Cs  Sn  I   Cl  Cs  Sn  I   Cs  Sn  I   Cl  Cs  Sn  I   Cl 
   1   1   3   1   1   3   1   1   2   1   1   1   1   1   1   1   1   2   1   1   1   3   1   1   1   2   1   1   2   1
Cartesian
  0.0000000000000000  0.0000000000000000  0.0000000000000000
  3.2693082028160023  3.2693082028160023  3.2693082028160023
  3.2693082028160023  3.2693082028160023  0.0000000000000000
  3.2693082028160023  0.0000000000000000  3.2693082028160023
  0.0000000000000000  3.2693082028160023  3.2693082028160023
  0.0000000000000000  0.0000000000000000  6.5386164056320037
  3.2693082028160023  3.2693082028160023  9.8079246084480047
  3.2693082028160023  3.2693082028160023  6.5386164056320037
  3.2693082028160023  0.0000000000000000  9.8079246084480047
  0.0000000000000000  3.2693082028160023  9.8079246084480047
  0.0000000000000000  6.5386164056320037  0.0000000000000000
  3.2693082028160023  9.8079246084480047  3.2693082028160023
  3.2693082028160023  9.8079246084480047  0.0000000000000000
  3.2693082028160023  6.5386164056320037  3.2693082028160023
  0.0000000000000000  9.8079246084480047  3.2693082028160023
  0.0000000000000000  6.5386164056320037  6.5386164056320037
  3.2693082028160023  9.8079246084480047  9.8079246084480047
  3.2693082028160023  9.8079246084480047  6.5386164056320037
  3.2693082028160023  6.5386164056320037  9.8079246084480047
  0.0000000000000000  9.8079246084480047  9.8079246084480047
  6.5386164056320037  0.0000000000000000  0.0000000000000000
  9.8079246084480047  3.2693082028160023  3.2693082028160023
  9.8079246084480047  3.2693082028160023  0.0000000000000000
  9.8079246084480047  0.0000000000000000  3.2693082028160023
  6.5386164056320037  3.2693082028160023  3.2693082028160023
  6.5386164056320037  0.0000000000000000  6.5386164056320037
  9.8079246084480047  3.2693082028160023  9.8079246084480047
  9.8079246084480047  3.2693082028160023  6.5386164056320037
  9.8079246084480047  0.0000000000000000  9.8079246084480047
  6.5386164056320037  3.2693082028160023  9.8079246084480047
  6.5386164056320037  6.5386164056320037  0.0000000000000000
  9.8079246084480047  9.8079246084480047  3.2693082028160023
  9.8079246084480047  9.8079246084480047  0.0000000000000000
  9.8079246084480047  6.5386164056320037  3.2693082028160023
  6.5386164056320037  9.8079246084480047  3.2693082028160023
  6.5386164056320037  6.5386164056320037  6.5386164056320037
  9.8079246084480047  9.8079246084480047  9.8079246084480047
  9.8079246084480047  9.8079246084480047  6.5386164056320037
  9.8079246084480047  6.5386164056320037  9.8079246084480047
  6.5386164056320037  9.8079246084480047  9.8079246084480047
