40
Lattice="12.1856813618761 0.0 0.0 0.0 12.187507456219752 0.0 0.0 -4.666070956482162e-15 12.187507456219718" Properties=species:S:1:pos:R:3:spacegroup_kinds:I:1:forces:R:3 spacegroup="P 1" unit_cell=conventional candidate_id=c4514d272b17f1b2 formula=FAGe0.55Sn0.45I3 config_index=0 rattle_stdev=0.0 method=PBE fidelity=phase2_force energy=-111.73796718458318 stress="-0.002753362426181969 -3.2822592947519154e-15 -3.282259294751926e-15 -3.2822592947519154e-15 -0.0028639686706479644 3.405845815878453e-16 -3.282259294751926e-15 3.405845815878453e-16 -0.002863968670647979" pbc="T T T"
Cs       0.00000000      12.07682273       0.11068473        0       0.00000000       0.03249606      -0.03249606
Sn       3.04642034       3.04687686       3.04687686        1       0.00000000      -0.00000000      -0.00000000
I        3.04642034       3.04687686      12.18715674        2       0.00000000      -0.00000000       0.03015430
I        3.04642034      12.09947972       3.04687686        3      -0.00000000       0.04755356       0.00000000
I       12.09909269       3.04687686       3.04687686        4       0.08425537      -0.00000000      -0.00000000
Cs       0.00000000      12.07682273       5.98306900        5       0.00000000       0.03249606       0.03249606
Sn       3.04642034       3.04687686       9.14063059        6       0.00000000       0.00000000      -0.00000000
I        3.04642034       3.04687686       6.09410445        7       0.00000000      -0.00000000      -0.03015430
I        3.04642034      12.09905240       9.14063059        8       0.00000000       0.06127965       0.00000000
I        0.00000000       3.04687686       9.14063059        9       0.00000000      -0.00000000       0.00000000
Cs       0.00000000       6.20443846       0.11068473       10      -0.00000000      -0.03249606      -0.03249606
Ge       3.04642034       9.14063059       3.04687686       11      -0.00000000      -0.00000000      -0.00000000
I        3.04642034       9.14063059       0.00548971       12       0.00000000       0.00000000       0.02666207
I        3.04642034       6.18178147       3.04687686       13       0.00000000      -0.04755356       0.00000000
I       12.18568136       9.14063059       3.04687686       14       0.00000000      -0.00000000       0.00000000
Cs       0.00000000       6.20443846       5.98306900       15       0.00000000      -0.03249606       0.03249606
Ge       3.04642034       9.14063059       9.14063059       16       0.00000000       0.00000000      -0.00000000
I        3.04642034       9.14063059       6.08826402       17      -0.00000000       0.00000000      -0.02666207
I        3.04642034       6.18220878       9.14063059       18       0.00000000      -0.06127965       0.00000000
I        0.08658867       9.14063059       9.14063059       19      -0.08425537       0.00000000       0.00000000
Cs       6.09284068      12.07682273       0.11068473       20       0.00000000       0.03249606      -0.03249606
Ge       9.13926102       3.04687686       3.04687686       21      -0.00000000       0.00000000      -0.00000000
I        9.13926102       3.04687686       0.08845505       22      -0.00000000      -0.00000000      -0.06127965
I        9.13926102      12.18201774       3.04687686       23      -0.00000000      -0.02666207      -0.00000000
I        6.17942935       3.04687686       3.04687686       24      -0.08425537       0.00000000      -0.00000000
Cs       6.09284068      12.07682273       5.98306900       25       0.00000000       0.03249606       0.03249606
Sn       9.13926102       3.04687686       9.14063059       26      -0.00000000       0.00000000      -0.00000000
I        9.13926102       3.04687686       6.00529868       27      -0.00000000      -0.00000000       0.06127965
I        9.13926102       0.00035072       9.14063059       28      -0.00000000      -0.03015430       0.00000000
I        6.09284068       3.04687686       9.14063059       29       0.00000000      -0.00000000       0.00000000
Cs       6.09284068       6.20443846       0.11068473       30      -0.00000000      -0.03249606      -0.03249606
Ge       9.13926102       9.14063059       3.04687686       31       0.00000000       0.00000000       0.00000000
I        9.13926102       9.14063059       0.08802774       32       0.00000000      -0.00000000      -0.04755356
I        9.13926102       6.09924344       3.04687686       33       0.00000000       0.02666207      -0.00000000
I        6.09284068       9.14063059       3.04687686       34       0.00000000       0.00000000      -0.00000000
Cs       6.09284068       6.20443846       5.98306900       35       0.00000000      -0.03249606       0.03249606
Sn       9.13926102       9.14063059       9.14063059       36      -0.00000000       0.00000000       0.00000000
I        9.13926102       9.14063059       6.00572599       37      -0.00000000      -0.00000000       0.04755356
I        9.13926102       6.09340301       9.14063059       38      -0.00000000       0.03015430       0.00000000
I        6.00625201       9.14063059       9.14063059       39       0.08425537       0.00000000      -0.00000000
40
Lattice="12.1856813618761 0.0 0.0 0.0 12.187507456219752 0.0 0.0 -4.666070956482162e-15 12.187507456219718" Properties=species:S:1:pos:R:3:spacegroup_kinds:I:1:forces:R:3 spacegroup="P 1" unit_cell=conventional candidate_id=c4514d272b17f1b2 formula=FAGe0.55Sn0.45I3 config_index=1 rattle_stdev=0.08 method=PBE fidelity=phase2_force energy=-111.31428244698543 stress="-0.004659632940715899 1.8849902952752423e-05 -5.270389338521686e-05 1.8849902952752423e-05 -0.0040852235382555415 -2.53858708110237e-05 -5.270389338521686e-05 -2.53858708110237e-05 -0.005257331619680334" pbc="T T T"
Cs      -0.08691571      12.00513752       0.08618078        0       0.03092827       0.09146625      -0.00649055
Sn       2.93922565       2.95035002       2.99553872        1       0.23329688       0.22457982       0.30453111
I        3.15105599       3.19451370      12.25348593        2      -0.07539312      -0.05035504      -0.05280133
I        3.04455644      12.08279460       2.97354728        3       0.01356709       0.06597412       0.02391262
I       12.01311329       3.03998538       3.14094395        4       0.56888245       0.01861264       0.00767029
Cs      -0.13080734      12.17507825       6.06917990        5       0.05575696       0.04348347      -0.02223953
Sn       3.07800217       3.01586080       9.18770273        6       0.09027487      -0.06369717      -0.15377463
I        2.93175644       3.02099089       6.19434322        7       0.06930817       0.02667486      -0.28331591
I        2.98796093      12.21333121       9.21620290        8      -0.00575809      -0.32554664       0.01078510
I       -0.02112022       3.03381980       9.06350201        9       0.14245757       0.01351723       0.06125783
Cs      -0.02741179       6.20835078       0.07071417       10      -0.00960866      -0.05696812      -0.01749056
Ge       2.86946798       9.16541754       2.91970476       11       0.28864344      -0.24801732      -0.22724031
I        3.10477671       9.13199849      -0.04652401       12      -0.08247979       0.03218946       0.22692567
I        2.91097582       6.15230354       2.91964713       13       0.03180733      -0.00604490       0.10903051
I       12.30412183       9.17858581       3.11998597       14      -0.39268955       0.00444201       0.00298761
Cs       0.07683762       6.21120186       6.12044747       15       0.00317348      -0.06596992      -0.02242864
Ge       3.11457176       9.08023977       8.95762025       16       0.30032098      -0.01244645       0.00444560
I        3.05515944       9.10461794       6.05522622       17       0.00544186       0.01911325       0.15051478
I        3.07193904       6.13892014       9.21652391       18      -0.01577614       0.37818838      -0.06989672
I        0.09870347       9.14678279       9.13587856       19       0.13727099       0.02508311       0.00061216
Cs       6.08722958      12.03153080       0.13556516       20       0.01348695       0.06454239      -0.00948780
Ge       9.19719773       3.08819287       3.12895932       21      -0.37825768      -0.20931079      -0.50083260
I        9.18087323       2.97728978       0.20850026       22       0.04824979       0.04059562      -0.46649622
I        9.23257879      12.22137090       2.98829589       23      -0.04992226      -0.09634498       0.17390440
I        6.23385384       3.08759661       2.97987397       24      -0.42408575      -0.02963173       0.08495142
Cs       6.14465227      12.07782588       6.10783613       25      -0.04895379       0.06400082      -0.03521589
Sn       9.22202865       3.07389228       9.03642176       26      -0.21635040       0.31308527       0.24054164
I        9.04977748       3.15163807       5.96384132       27      -0.02233605      -0.03576462       0.48334187
I        9.10781108       0.08378820       9.14660781       28       0.00341274      -0.25504297      -0.00821747
I        6.09999564       3.05118945       9.17410635       29      -0.02001668       0.00210379      -0.00369086
Cs       5.99462228       6.11727513       0.13605468       30       0.04759000      -0.00490178      -0.02030188
Ge       9.07682858       9.07214011       2.94128715       31      -0.32765616       0.08342344       0.00122859
I        9.17556355       9.22077258       0.20112651       32      -0.02831647      -0.06226084      -0.21512143
I        9.12404639       6.10165228       2.89700353       33       0.04631531       0.20034226       0.09022531
I        6.08349853       9.13043137       3.11905161       34       0.41386778      -0.00584476      -0.03055834
Cs       5.98769091       6.19647440       5.99431299       35       0.00100103      -0.06326030       0.00924691
Sn       9.34956550       9.28109290       8.92977877       36      -0.37819426      -0.35767813       0.72771987
I        9.03632946       9.12689282       6.14976228       37       0.06526456       0.03152572      -0.70916806
I        9.18795667       6.09592505       9.02331762       38      -0.01415012       0.23861152       0.08727196
I        6.03100727       9.23200802       9.09976306       39      -0.11454755      -0.03742637       0.03265690
40
Lattice="12.1856813618761 0.0 0.0 0.0 12.187507456219752 0.0 0.0 -4.666070956482162e-15 12.187507456219718" Properties=species:S:1:pos:R:3:spacegroup_kinds:I:1:forces:R:3 spacegroup="P 1" unit_cell=conventional candidate_id=c4514d272b17f1b2 formula=FAGe0.55Sn0.45I3 config_index=2 rattle_stdev=0.08 method=PBE fidelity=phase2_force energy=-111.29190535246413 stress="-0.004056624948062703 4.15784998897593e-05 -5.161181613315293e-06 4.15784998897593e-05 -0.004396847388679708 -1.1334259547931252e-05 -5.161181613315293e-06 -1.1334259547931252e-05 -0.003998882688255449" pbc="T T T"
Cs      -0.00901704      11.99069761       0.25348688        0       0.02418258       0.04962678      -0.12800250
Sn       2.92986168       3.02077120       2.94608515        1       0.53333852       0.24909826       0.18346569
I        3.07648966       2.97662507      12.15915868        2      -0.03510776       0.03808103      -0.01919069
I        3.07015316      12.19555267       2.92135724        3      -0.01872928      -0.52584319       0.08892781
I       12.24741499       3.08639381       3.03641995        4      -0.72800547       0.01713250      -0.02385458
Cs      -0.03224966      11.99892975       5.94567166        5       0.00062408       0.02373017       0.09191922
Sn       2.98898662       3.14458833       9.07845459        6       0.46250759       0.09638118       0.00012846
I        2.99933829       3.04226736       6.10047084        7       0.05015584      -0.10176663      -0.17039848
I        2.95176426      11.97515301       9.21361109        8       0.03283251       0.39396992      -0.01655045
I        0.03301366       2.99121534       8.95752884        9      -0.17809778       0.00740000       0.03649558
Cs      -0.06297932       6.12215712       0.11814938       10       0.02961267      -0.01328715      -0.02775985
Ge       3.00408481       9.20305018       3.03081169       11       0.21228638      -0.17325993       0.00855432
I        3.00797165       9.05780962      -0.03472904       12       0.02938027      -0.03402099       0.35214718
I        3.10961156       6.10778166       3.22367969       13      -0.04279126       0.39189339      -0.11119762
I       12.07366247       9.12150280       3.06426412       14       0.37614771      -0.05195090       0.01310401
Cs      -0.02819082       6.21130850       5.99160116       15      -0.00897767      -0.02445799       0.03742595
Ge       3.03065784       9.24838530       9.16824451       16      -0.15970227      -0.19793193      -0.07490254
I        3.09103189       9.09300778       6.14689059       17      -0.04487370       0.09521754      -0.29182314
I        3.15292055       6.12380615       9.10177013       18      -0.03067995      -0.22824484       0.03669039
I        0.17274180       8.93300200       9.15398485       19      -0.15411442       0.03423787      -0.01549911
Cs       6.17595745      11.93213682       0.17137600       20      -0.03693799       0.11428159      -0.09916131
Ge       9.09925200       2.85933341       3.03824345       21      -0.31207133       0.10359962       0.17899254
I        9.01903801       3.08597916       0.04420077       22       0.10945464       0.02667517       0.06863375
I        9.22386162      12.11247232       3.04086958       23      -0.03741133       0.29749242       0.00246738
I        6.17085695       3.21478263       3.01963383       24       0.30164919      -0.20963633       0.00525086
Cs       6.05060827      11.97325338       6.00019692       25       0.01752934       0.08598340       0.06429626
Sn       9.22936259       3.07899973       9.20187742       26      -0.42636653      -0.08619974      -0.14376480
I        9.03101083       3.09278554       5.98768771       27       0.07693963      -0.10077389      -0.08358180
I        9.19087614      -0.08002683       9.29260968       28       0.03318325       0.51297772      -0.00845892
I        6.11018955       3.08687449       9.09050331       29       0.05434566      -0.07746544      -0.00640338
Cs       6.01260994       6.14193364       0.12702695       30      -0.00592395      -0.03180461      -0.02570217
Ge       9.18214838       9.05463080       2.86944848       31      -0.23319826      -0.29563706       0.42632530
I        9.19101544       9.11484373       0.07422261       32      -0.00326433      -0.06851346       0.06847525
I        8.95618728       6.09027993       3.12330197       33       0.17122639       0.21511590      -0.11144693
I        6.12921974       9.30558479       3.05187370       34      -0.32051161      -0.09800460      -0.04206542
Cs       6.09306808       6.16815415       6.01294760       35       0.00249391      -0.03507502       0.03732339
Sn       9.07421174       9.13250599       9.17628765       36       0.11634548       0.12147467      -0.46650109
I        9.03725073       9.14925714       6.07390494       37       0.07989002       0.06292251       0.01842894
I        9.12671285       6.18850855       9.02284952       38       0.05930538      -0.62999570       0.04827203
I        6.07553528       9.06915943       9.09671294       39      -0.01043820       0.05568506       0.09124101
40
Lattice="12.1856813618761 0.0 0.0 0.0 12.187507456219752 0.0 0.0 -4.666070956482162e-15 12.187507456219718" Properties=species:S:1:pos:R:3:spacegroup_kinds:I:1:forces:R:3 spacegroup="P 1" unit_cell=conventional candidate_id=c4514d272b17f1b2 formula=FAGe0.55Sn0.45I3 config_index=3 rattle_stdev=0.08 method=PBE fidelity=phase2_force energy=-110.98475360212956 stress="-0.004214748156814589 8.539436167468169e-05 4.762985257723039e-05 8.539436167468169e-05 -0.004689546035420746 -5.10836335825504e-05 4.762985257723039e-05 -5.10836335825504e-05 -0.003936461626783625" pbc="T T T"
Cs      -0.10568348      12.23816296       0.11448989        0       0.08108657       0.02281859      -0.04917864
Sn       3.02740665       3.05360668       3.12364024        1      -0.28525103      -0.26672870      -0.82284917
I        2.99189246       3.08920250      12.12516328        2       0.02961113      -0.00119693      -0.04729716
I        3.15881684      12.08150528       2.94240601        3       0.00149025      -0.10885202       0.01560897
I       12.04480988       2.91720220       2.94447898        4       0.31226633       0.10352074       0.05601546
Cs      -0.01794374      12.00877784       5.92260979        5       0.00104854       0.04017916       0.03421173
Sn       3.06747400       2.84246142       9.00700792        6      -0.03169139       0.35407381       0.55752481
I        2.98948153       2.85113481       5.99196966        7      -0.04888575      -0.01213598       0.41879752
I        3.09951015      11.99674569       9.07739782        8      -0.06770352       0.56713375       0.04336181
I       -0.12018966       2.95171367       9.32196580        9       0.50990110       0.05193415      -0.02141058
Cs      -0.03814223       6.27617158      -0.03371033       10       0.04647299      -0.11057881       0.00535179
Ge       3.00712317       9.04467087       2.98245924       11      -0.05837505       0.27515082      -0.11460310
I        3.15888583       9.12220534      -0.05160601       12      -0.10344349      -0.04100761       0.52564321
I        3.03341334       6.12747108       3.16800628       13      -0.01867460       0.20075325      -0.01589184
I       12.04587553       9.19331296       3.01934756       14       0.88535485      -0.10937356       0.01864333
Cs      -0.06069585       6.21820056       5.93048572       15      -0.00917858      -0.03368611       0.05130972
Ge       3.09063598       9.17123925       9.11092736       16      -0.06713604      -0.60763453      -0.08554663
I        3.17267186       9.15797439       6.18519135       17      -0.05262826       0.01155986      -0.36309981
I        3.10493879       6.23612847       9.09420610       18      -0.02612561      -0.33743513      -0.02871270
I        0.07864150       9.01384140       9.13465328       19      -0.24141021       0.05781781       0.00503076
Cs       6.18874539      12.05558891       0.05854076       20      -0.03965306       0.05924231      -0.00460208
Ge       8.98753809       2.92365295       3.01545101       21       0.32369070       0.19403951      -0.03009555
I        9.10610255       3.10376229       0.13985708       22      -0.08552316      -0.03343706      -0.17306146
I        9.33104793      12.16843516       2.96580617       23      -0.22422880      -0.17530863       0.06209444
I        6.14394485       3.11455504       3.08642559       24      -0.14413464      -0.07553961       0.02418523
Cs       6.11513174      12.11859000       6.00847833       25       0.02331404      -0.01747255       0.00147885
Sn       9.15743193       3.01564962       9.08318918       26      -0.16779061      -0.04778540      -0.06403938
I        9.26278991       2.97784125       5.97659247       27      -0.02987854      -0.00538782       0.24636834
I        9.14596517       0.13468848       9.04628361       28      -0.04035716      -1.13795026       0.06750794
I        6.06094251       3.01300572       9.18537754       29      -0.18041961      -0.02056596      -0.05070293
Cs       6.04666110       6.21013825       0.18006114       30      -0.00278159      -0.07802843      -0.07813656
Ge       9.17245374       9.12253181       3.10732431       31      -0.19299481      -0.14623494       0.14622429
I        9.15727141       9.10545035       0.14035408       32       0.02720109      -0.01186305      -0.06297350
I        9.06757116       5.98528755       3.18627559       33       0.10600862       0.23180477      -0.05901610
I        6.32638673       9.08673257       2.98519492       34      -0.66445779       0.07026626       0.06276368
Cs       6.17728006       6.29609550       5.99271884       35      -0.02000996      -0.03540969       0.06935682
Sn       9.14026049       9.08466888       9.29073452       36       0.09043543       0.01980783      -0.24562382
I        9.10320835       9.11613185       6.11874534       37       0.02392985       0.03292550      -0.08639253
I        9.08697374       5.91207768       9.18905875       38      -0.01739545       1.11409905       0.00274124
I        5.96430657       9.15722977       9.22834276       39       0.35763471       0.00343050      -0.00940830
