40
Lattice="11.723576385832535 0.0 0.0 0.0 11.723576385832555 0.0 0.0 -7.998000147914559e-14 11.72357638583255" Properties=species:S:1:pos:R:3:spacegroup_kinds:I:1:forces:R:3 spacegroup="P 1" unit_cell=conventional occupancy="_JSON {\"0\": {\"Rb\": 1.0}, \"1\": {\"Sn\": 1.0}, \"2\": {\"Br\": 1.0}, \"3\": {\"Br\": 1.0}, \"4\": {\"Br\": 1.0}, \"5\": {\"Cs\": 1.0}, \"6\": {\"Sn\": 1.0}, \"7\": {\"Br\": 1.0}, \"8\": {\"Br\": 1.0}, \"9\": {\"Br\": 1.0}, \"10\": {\"Rb\": 1.0}, \"11\": {\"Sn\": 1.0}, \"12\": {\"Br\": 1.0}, \"13\": {\"Br\": 1.0}, \"14\": {\"Br\": 1.0}, \"15\": {\"Rb\": 1.0}, \"16\": {\"Sn\": 1.0}, \"17\": {\"Br\": 1.0}, \"18\": {\"Br\": 1.0}, \"19\": {\"Br\": 1.0}, \"20\": {\"Rb\": 1.0}, \"21\": {\"Sn\": 1.0}, \"22\": {\"Br\": 1.0}, \"23\": {\"Br\": 1.0}, \"24\": {\"Br\": 1.0}, \"25\": {\"Rb\": 1.0}, \"26\": {\"Sn\": 1.0}, \"27\": {\"Br\": 1.0}, \"28\": {\"Br\": 1.0}, \"29\": {\"Br\": 1.0}, \"30\": {\"Rb\": 1.0}, \"31\": {\"Sn\": 1.0}, \"32\": {\"Br\": 1.0}, \"33\": {\"Br\": 1.0}, \"34\": {\"Br\": 1.0}, \"35\": {\"Rb\": 1.0}, \"36\": {\"Sn\": 1.0}, \"37\": {\"Br\": 1.0}, \"38\": {\"Br\": 1.0}, \"39\": {\"Br\": 1.0}}" candidate_id=33b8dc852ac74e9f formula=FA0.18Rb0.82SnBr3 config_index=0 rattle_stdev=0.0 method=PBE fidelity=phase2_force energy=-125.38448359491626 stress="0.0004360155555231363 0.0 0.0 0.0 0.000436015555523135 2.9745637020638756e-18 0.0 2.9745637020638756e-18 0.00043601555552704623" pbc="T T T"
Rb      11.72357639       0.00000000       0.00000000        0       0.00000000       0.00000000       0.00000000
Sn       2.93658410       2.93658410       2.92520409        1      -0.00368899      -0.00368899       0.00368899
Br       2.94687337       2.94687337      11.72357639        2      -0.00391127      -0.00391127       0.00000000
Br       2.96106282      11.72357639       2.90072537        3      -0.00600154      -0.00000000       0.00600154
Br      11.72357639       2.96106282       2.90072537        4       0.00000000      -0.00600154       0.00600154
Cs       0.00000000      -0.00000000       5.86178819        5      -0.00000000      -0.00000000       0.00000000
Sn       2.93658410       2.93658410       8.79837230        6      -0.00368899      -0.00368899      -0.00368899
Br       2.96106282       2.96106282       5.86178819        7      -0.00600154      -0.00600154       0.00000000
Br       2.96106282      11.72357639       8.82285102        8      -0.00600154       0.00000000      -0.00600154
Br      11.72357639       2.96106282       8.82285102        9       0.00000000      -0.00600154      -0.00600154
Rb       0.00000000       5.86178819       0.00000000       10       0.00000000       0.00000000       0.00000000
Sn       2.93658410       8.78699228       2.92520409       11      -0.00368899       0.00368899       0.00368899
Br       2.94687337       8.77670301      11.72357639       12      -0.00391127       0.00391127       0.00000000
Br       2.94687337       5.86178819       2.91491482       13      -0.00391127      -0.00000000       0.00391127
Br      11.72357639       8.76251356       2.90072537       14       0.00000000       0.00600154       0.00600154
Rb      11.72357639       5.86178819       5.86178819       15       0.00000000      -0.00000000       0.00000000
Sn       2.93658410       8.78699228       8.79837230       16      -0.00368899       0.00368899      -0.00368899
Br       2.96106282       8.76251356       5.86178819       17      -0.00600154       0.00600154       0.00000000
Br       2.94687337       5.86178819       8.80866157       18      -0.00391127       0.00000000      -0.00391127
Br      11.72357639       8.76251356       8.82285102       19       0.00000000       0.00600154      -0.00600154
Rb       5.86178819       0.00000000       0.00000000       20       0.00000000       0.00000000       0.00000000
Sn       8.78699228       2.93658410       2.92520409       21       0.00368899      -0.00368899       0.00368899
Br       8.77670301       2.94687337      11.72357639       22       0.00391127      -0.00391127       0.00000000
Br       8.76251356      11.72357639       2.90072537       23       0.00600154      -0.00000000       0.00600154
Br       5.86178819       2.94687337       2.91491482       24      -0.00000000      -0.00391127       0.00391127
Rb       5.86178819      -0.00000000       5.86178819       25      -0.00000000       0.00000000       0.00000000
Sn       8.78699228       2.93658410       8.79837230       26       0.00368899      -0.00368899      -0.00368899
Br       8.76251356       2.96106282       5.86178819       27       0.00600154      -0.00600154       0.00000000
Br       8.76251356      11.72357639       8.82285102       28       0.00600154       0.00000000      -0.00600154
Br       5.86178819       2.94687337       8.80866157       29      -0.00000000      -0.00391127      -0.00391127
Rb       5.86178819       5.86178819      11.72357639       30       0.00000000       0.00000000       0.00000000
Sn       8.78699228       8.78699228       2.92520409       31       0.00368899       0.00368899       0.00368899
Br       8.77670301       8.77670301      11.72357639       32       0.00391127       0.00391127       0.00000000
Br       8.77670301       5.86178819       2.91491482       33       0.00391127      -0.00000000       0.00391127
Br       5.86178819       8.77670301       2.91491482       34       0.00000000       0.00391127       0.00391127
Rb       5.86178819       5.86178819       5.86178819       35      -0.00000000      -0.00000000       0.00000000
Sn       8.78699228       8.78699228       8.79837230       36       0.00368899       0.00368899      -0.00368899
Br       8.76251356       8.76251356       5.86178819       37       0.00600154       0.00600154       0.00000000
Br       8.77670301       5.86178819       8.80866157       38       0.00391127       0.00000000      -0.00391127
Br       5.86178819       8.77670301       8.80866157       39       0.00000000       0.00391127      -0.00391127
40
Lattice="11.723576385832535 0.0 0.0 0.0 11.723576385832555 0.0 0.0 -7.998000147914559e-14 11.72357638583255" Properties=species:S:1:pos:R:3:spacegroup_kinds:I:1:forces:R:3 spacegroup="P 1" unit_cell=conventional occupancy="_JSON {\"0\": {\"Rb\": 1.0}, \"1\": {\"Sn\": 1.0}, \"2\": {\"Br\": 1.0}, \"3\": {\"Br\": 1.0}, \"4\": {\"Br\": 1.0}, \"5\": {\"Cs\": 1.0}, \"6\": {\"Sn\": 1.0}, \"7\": {\"Br\": 1.0}, \"8\": {\"Br\": 1.0}, \"9\": {\"Br\": 1.0}, \"10\": {\"Rb\": 1.0}, \"11\": {\"Sn\": 1.0}, \"12\": {\"Br\": 1.0}, \"13\": {\"Br\": 1.0}, \"14\": {\"Br\": 1.0}, \"15\": {\"Rb\": 1.0}, \"16\": {\"Sn\": 1.0}, \"17\": {\"Br\": 1.0}, \"18\": {\"Br\": 1.0}, \"19\": {\"Br\": 1.0}, \"20\": {\"Rb\": 1.0}, \"21\": {\"Sn\": 1.0}, \"22\": {\"Br\": 1.0}, \"23\": {\"Br\": 1.0}, \"24\": {\"Br\": 1.0}, \"25\": {\"Rb\": 1.0}, \"26\": {\"Sn\": 1.0}, \"27\": {\"Br\": 1.0}, \"28\": {\"Br\": 1.0}, \"29\": {\"Br\": 1.0}, \"30\": {\"Rb\": 1.0}, \"31\": {\"Sn\": 1.0}, \"32\": {\"Br\": 1.0}, \"33\": {\"Br\": 1.0}, \"34\": {\"Br\": 1.0}, \"35\": {\"Rb\": 1.0}, \"36\": {\"Sn\": 1.0}, \"37\": {\"Br\": 1.0}, \"38\": {\"Br\": 1.0}, \"39\": {\"Br\": 1.0}}" candidate_id=33b8dc852ac74e9f formula=FA0.18Rb0.82SnBr3 config_index=1 rattle_stdev=0.08 method=PBE fidelity=phase2_force energy=-124.80537335527875 stress="-0.0017728683810456663 5.2695347423897075e-05 3.8348822499820104e-08 5.2695347423897075e-05 -0.0008548664203114673 -0.00013952646477400631 3.8348822499820104e-08 -0.00013952646477400631 -0.002317025118748837" pbc="T T T"
Rb      11.63666068      -0.07168521      -0.02450395        0      -0.05515817       0.02723814       0.03145017
Sn       2.82938941       2.84005726       2.87386594        1       0.34373200       0.34419389       0.19335372
Br       3.05150902       3.09451021      11.78990558        2      -0.08967802      -0.07646217       0.01902300
Br       2.95919892      11.70689127       2.82739579        3      -0.03669150       0.02685269      -0.03540578
Br      11.63759698       2.95417134       2.99479245        4       0.50252664      -0.01575905       0.00378645
Cs      -0.13080734       0.09825552       5.94789909        5       0.06259690       0.04139239      -0.06539963
Sn       2.96816593       2.90556804       8.84544444        6       0.10326629       0.00652890      -0.17426256
Br       2.84639892       2.93517685       5.96202697        7       0.04195847       0.01218738      -0.13047880
Br       2.90260342      11.83785519       8.89842333        8      -0.01494525      -0.45120442      -0.01211180
Br      11.70245616       2.94800576       8.74572244        9       0.07216935       0.00534650       0.00632651
Rb      -0.02741179       5.86570052      -0.03997056       10      -0.00562592      -0.03789983       0.02192390
Sn       2.75963174       8.81177923       2.79803199       11       0.82546007      -0.29734342      -0.09441541
Br       3.00522974       8.76807091      11.67156267       12      -0.07856923       0.03077712       0.01582234
Br       2.81142885       5.83231027       2.78768508       13      -0.03278306       0.02588610       0.06574675
Br      11.84201685       8.80046878       2.97383447       14      -0.79592778       0.01932381       0.01430919
Rb      11.80041401       5.86855160       5.99916667       15       0.03582542      -0.05707385      -0.00896456
Sn       3.00473552       8.72660146       8.61536195       16       0.28366959       0.08372893       0.35515023
Br       2.96980192       8.72650091       5.82875040       17      -0.02031840      -0.03406822      -0.06664631
Br       2.97239207       5.81849956       8.88455488       18      -0.02154392       0.42830209      -0.09658808
Br      11.73569119       8.76866576       8.81809899       19       0.30202156       0.01600054      -0.07022016
Rb       5.85617710      -0.04529192       0.02488043       20       0.02504308       0.01819997       0.02699946
Sn       8.84492899       2.97790011       3.00728654       21      -0.48647084      -0.26562711      -0.59778020
Br       8.81831522       2.87728629      11.84362160       22       0.08173957       0.02893578      -0.37279658
Br       8.85583133      11.76292954       2.84214439       23       0.00345188      -0.11975925       0.10975812
Br       5.91621268       2.98759312       2.84791192       24      -0.33645655      -0.01976725       0.07292814
Rb       5.91359978       0.00100316       5.98655532       25      -0.02413239       0.00437453      -0.01560181
Sn       8.86975991       2.96359952       8.69416346       26      -0.22987857       0.29386908       0.38231569
Br       8.67303002       3.06582403       5.82033083       27       0.00436134      -0.05229697       0.48161941
Br       8.73106362      11.80701387       8.82882823       28       0.07211092      -0.16987174      -0.11494216
Br       5.86894316       2.95118596       8.84213733       29      -0.04458902      -0.01727533      -0.04445232
Rb       5.76356979       5.77462487      11.74894634       30      -0.00346002      -0.03244649       0.03951258
Sn       8.72455984       8.71850180       2.81961438       31      -0.22336393       0.25625940       0.13897494
Br       8.81300554       8.85684500      11.83667516       32       0.01771072      -0.00850322      -0.19978849
Br       8.76148838       5.86419704       2.76504148       33       0.03702673       0.13365480      -0.01030358
Br       5.85244604       8.76650379       2.98708956       34       0.32256439      -0.00754077      -0.02488674
Rb       5.75663842       5.85382413       5.87303218       35      -0.00466123      -0.02054008      -0.01930371
Sn       8.99729676       8.92745459       8.58752047       36      -0.62557903      -0.33996597       0.92426569
Br       8.65958200       8.74877579       6.00582449       37       0.06268799       0.05370309      -0.79130670
Br       8.82539866       5.86431024       8.69134859       38       0.06453027       0.15011223       0.02104592
Br       5.88654345       8.86808044       8.76779403       39      -0.13183804       0.00551623      -0.02945482
40
Lattice="11.723576385832535 0.0 0.0 0.0 11.723576385832555 0.0 0.0 -7.998000147914559e-14 11.72357638583255" Properties=species:S:1:pos:R:3:spacegroup_kinds:I:1:forces:R:3 spacegroup="P 1" unit_cell=conventional occupancy="_JSON {\"0\": {\"Rb\": 1.0}, \"1\": {\"Sn\": 1.0}, \"2\": {\"Br\": 1.0}, \"3\": {\"Br\": 1.0}, \"4\": {\"Br\": 1.0}, \"5\": {\"Cs\": 1.0}, \"6\": {\"Sn\": 1.0}, \"7\": {\"Br\": 1.0}, \"8\": {\"Br\": 1.0}, \"9\": {\"Br\": 1.0}, \"10\": {\"Rb\": 1.0}, \"11\": {\"Sn\": 1.0}, \"12\": {\"Br\": 1.0}, \"13\": {\"Br\": 1.0}, \"14\": {\"Br\": 1.0}, \"15\": {\"Rb\": 1.0}, \"16\": {\"Sn\": 1.0}, \"17\": {\"Br\": 1.0}, \"18\": {\"Br\": 1.0}, \"19\": {\"Br\": 1.0}, \"20\": {\"Rb\": 1.0}, \"21\": {\"Sn\": 1.0}, \"22\": {\"Br\": 1.0}, \"23\": {\"Br\": 1.0}, \"24\": {\"Br\": 1.0}, \"25\": {\"Rb\": 1.0}, \"26\": {\"Sn\": 1.0}, \"27\": {\"Br\": 1.0}, \"28\": {\"Br\": 1.0}, \"29\": {\"Br\": 1.0}, \"30\": {\"Rb\": 1.0}, \"31\": {\"Sn\": 1.0}, \"32\": {\"Br\": 1.0}, \"33\": {\"Br\": 1.0}, \"34\": {\"Br\": 1.0}, \"35\": {\"Rb\": 1.0}, \"36\": {\"Sn\": 1.0}, \"37\": {\"Br\": 1.0}, \"38\": {\"Br\": 1.0}, \"39\": {\"Br\": 1.0}}" candidate_id=33b8dc852ac74e9f formula=FA0.18Rb0.82SnBr3 config_index=2 rattle_stdev=0.08 method=PBE fidelity=phase2_force energy=-124.82650485807407 stress="-0.0010406819019591594 3.463331375788616e-05 -1.833961080511772e-05 3.463331375788616e-05 -0.0012192399923182159 -3.295169937907596e-05 -1.833961080511772e-05 -3.295169937907596e-05 -0.0007016536898664805" pbc="T T T"
Rb      11.71455934      -0.08612512       0.14280215        0       0.02808372      -0.02042338      -0.06001068
Sn       2.82002544       2.91047844       2.82441237        1       0.75393265       0.30611133       0.17865421
Br       2.97694269       2.87662158      11.69557832        2      -0.09530709       0.07266690       0.00373399
Br       2.98479564      11.81964934       2.77520575        3      -0.05920328      -0.60210122       0.03324229
Br      11.87189869       3.00057977       2.89026845        4      -0.88665142       0.00252080      -0.05554628
Cs      -0.03224966      -0.07789298       5.82439085        5      -0.01523390      -0.00965738       0.07059823
Sn       2.87915039       3.03429557       8.73619630        6       0.43626657      -0.06948172      -0.08521404
Br       2.91398077       2.95645332       5.86815458        7      -0.01671805      -0.08833580      -0.03251793
Br       2.86640674      11.59967699       8.89583151        8      -0.01686040       0.40830482      -0.01737468
Br      11.75659004       2.90540130       8.63974927        9      -0.13546422       0.05819767       0.05008637
Rb      -0.06297932       5.77950686       0.00746465       10       0.02379766       0.03541818      -0.03023750
Sn       2.89424857       8.84941187       2.90913891       11       0.28897456      -0.25790147       0.08902406
Br       2.90842469       8.69388204      11.68335764       12       0.00796307      -0.02384090       0.41297900
Br       3.01006459       5.78778838       3.09171764       13      -0.06438401       0.50457164      -0.08726690
Br      11.61155749       8.74338577       2.91811262       14       0.55012293       0.00304770      -0.00144362
Rb      11.69538556       5.86865824       5.87032035       15      -0.00211075       0.01546543       0.02648959
Sn       2.92082161       8.89474699       8.82598622       16      -0.07927365      -0.41254503      -0.14831053
Br       3.00567438       8.71489075       5.92041477       17      -0.04272944       0.12186199      -0.33700494
Br       3.05337359       5.80338556       8.76980110       18      -0.04781711      -0.05948090       0.03348875
Br      11.80972952       8.55488497       8.83620527       19      -0.05269454       0.03424921      -0.02245920
Rb       5.94490496      -0.14468591       0.06069128       20      -0.02914847       0.03354578      -0.02061612
Sn       8.74698326       2.74904065       2.91657067       21      -0.32040777       0.50344707       0.20474557
Br       8.65648000       2.98597567      11.67932210       22       0.09728654       0.02852381       0.16298314
Br       8.84711416      11.65403096       2.89471808       23       0.01730959       0.11495544      -0.03535423
Br       5.85321580       3.11477914       2.88767178       24       0.42460448      -0.18887112      -0.01775521
Rb       5.81955578      -0.10356935       5.87891612       25       0.02325836      -0.01240947       0.02011387
Sn       8.87709385       2.96870697       8.85961912       26      -0.46755877      -0.06870273      -0.30756176
Br       8.65426337       3.00697150       5.84417722       27       0.06616076      -0.11663315      -0.10226516
Br       8.81412868      11.64319884       8.97483010       28       0.02234013       0.46749618       0.01201828
Br       5.87913706       2.98687100       8.75853428       29       0.08273564      -0.05402900       0.00114604
Rb       5.78155746       5.79928338      11.73991860       30      -0.02494159      -0.06734450       0.01105112
Sn       8.82987964       8.70099249       2.74777571       31      -0.44663210      -0.24701057       0.63050282
Br       8.82845743       8.75091615      11.70977125       32       0.00770808      -0.04033392       0.07575771
Br       8.59362927       5.85282468       2.99133992       33       0.12359561      -0.05811387      -0.09057818
Br       5.89816725       8.94165721       2.91991166       34      -0.40259143       0.06226432      -0.07687209
Rb       5.86201559       5.82550389       5.89166679       35       0.01346217      -0.02950922      -0.01331941
Sn       8.72194300       8.77886768       8.83402935       36       0.21370153       0.05682559      -0.55140439
Br       8.66050327       8.77114011       5.92996714       37       0.06623422       0.09344391      -0.11096138
Br       8.76415484       5.95689373       8.69088050       38       0.05966600      -0.55669307       0.07518911
Br       5.93107146       8.70523185       8.76474392       39      -0.12629580       0.07275749       0.09376358
40
Lattice="11.723576385832535 0.0 0.0 0.0 11.723576385832555 0.0 0.0 -7.998000147914559e-14 11.72357638583255" Properties=species:S:1:pos:R:3:spacegroup_kinds:I:1:forces:R:3 spacegroup="P 1" unit_cell=conventional occupancy="_JSON {\"0\": {\"Rb\": 1.0}, \"1\": {\"Sn\": 1.0}, \"2\": {\"Br\": 1.0}, \"3\": {\"Br\": 1.0}, \"4\": {\"Br\": 1.0}, \"5\": {\"Cs\": 1.0}, \"6\": {\"Sn\": 1.0}, \"7\": {\"Br\": 1.0}, \"8\": {\"Br\": 1.0}, \"9\": {\"Br\": 1.0}, \"10\": {\"Rb\": 1.0}, \"11\": {\"Sn\": 1.0}, \"12\": {\"Br\": 1.0}, \"13\": {\"Br\": 1.0}, \"14\": {\"Br\": 1.0}, \"15\": {\"Rb\": 1.0}, \"16\": {\"Sn\": 1.0}, \"17\": {\"Br\": 1.0}, \"18\": {\"Br\": 1.0}, \"19\": {\"Br\": 1.0}, \"20\": {\"Rb\": 1.0}, \"21\": {\"Sn\": 1.0}, \"22\": {\"Br\": 1.0}, \"23\": {\"Br\": 1.0}, \"24\": {\"Br\": 1.0}, \"25\": {\"Rb\": 1.0}, \"26\": {\"Sn\": 1.0}, \"27\": {\"Br\": 1.0}, \"28\": {\"Br\": 1.0}, \"29\": {\"Br\": 1.0}, \"30\": {\"Rb\": 1.0}, \"31\": {\"Sn\": 1.0}, \"32\": {\"Br\": 1.0}, \"33\": {\"Br\": 1.0}, \"34\": {\"Br\": 1.0}, \"35\": {\"Rb\": 1.0}, \"36\": {\"Sn\": 1.0}, \"37\": {\"Br\": 1.0}, \"38\": {\"Br\": 1.0}, \"39\": {\"Br\": 1.0}}" candidate_id=33b8dc852ac74e9f formula=FA0.18Rb0.82SnBr3 config_index=3 rattle_stdev=0.08 method=PBE fidelity=phase2_force energy=-124.65179681674297 stress="-0.0012106278493924803 0.00014088456698700737 5.060551443913144e-05 0.00014088456698700737 -0.001296086192423242 7.469158058384343e-05 5.060551443913144e-05 7.469158058384343e-05 -0.000543634980886702" pbc="T T T"
Rb      11.61789290       0.16134023       0.00380516        0       0.01748114       0.09845220       0.05005178
Sn       2.91757041       2.94331392       3.00196747        1      -0.29471403      -0.34592381      -0.71953932
Br       2.89234549       2.98919901      11.66158293        2       0.04497094      -0.02963772      -0.12896772
Br       3.07345932      11.70560195       2.79625451        3       0.01664203      -0.17351556       0.03029237
Br      11.66929357       2.83138816       2.79832749        4       0.11456078       0.04000476       0.06029479
Cs      -0.01794374      -0.06804488       5.80132898        5      -0.03541272       0.01872258      -0.02046035
Sn       2.95763777       2.73216866       8.66474962        6       0.03451700       0.53548294       0.59700723
Br       2.90412401       2.76532077       5.75965341        7      -0.01061798      -0.03754932       0.32841841
Br       3.01415263      11.62126967       8.75961824        8      -0.00291296       0.51821542      -0.00469532
Br      11.60338672       2.86589963       9.00418623        9       0.34917944      -0.00979385      -0.05196631
Rb      -0.03814223       5.93352131      -0.14439506       10       0.02130203      -0.08819347      -0.03770391
Sn       2.89728693       8.69103256       2.86078646       11       0.07633176       0.35397101      -0.00646510
Br       3.05933886       8.75827776      11.66648067       12      -0.04637640      -0.06105367       0.54130749
Br       2.93386637       5.80747780       3.03604423       13      -0.03143812       0.24230009       0.03061516
Br      11.58377056       8.81519593       2.87319607       14       1.11700536      -0.07703502       0.00280928
Rb      11.66288054       5.87555030       5.80920491       15      -0.04650469      -0.00183548       0.00647254
Sn       2.98079974       8.81760094       8.76866907       16      -0.13602342      -0.66899202       0.02326079
Br       3.08731434       8.77985736       5.95871552       17      -0.00336623       0.02431913      -0.53136792
Br       3.00539182       5.91570788       8.76223708       18      -0.01480664      -0.27782956      -0.06419801
Br      11.71562922       8.63572437       8.81687370       19      -0.18318745       0.01166338       0.01177900
Rb       5.95769290      -0.02123382      -0.05214397       20      -0.04453170       0.01408929       0.00521164
Sn       8.63526935       2.81336019       2.89377823       21       0.47576226       0.36540322       0.00256173
Br       8.74354455       3.00375880      11.77497842       22      -0.07372271      -0.05834377      -0.14363913
Br       8.95430047      11.70999380       2.81965467       23      -0.10534682      -0.28457738      -0.00631273
Br       5.82630370       3.01455155       2.95446354       24      -0.16530124      -0.04694915       0.04091400
Rb       5.88407925       0.04176727       5.88719753       25       0.00724659      -0.03726633       0.01131471
Sn       8.80516319       2.90535686       8.74093089       26      -0.07386775      -0.05181156       0.05383146
Br       8.88604246       2.89202721       5.83308199       27      -0.00656724      -0.01697040       0.13653174
Br       8.76921771      11.85791415       8.72850404       28      -0.01765763      -0.88781305       0.07328508
Br       5.82989002       2.91300223       8.85340851       29      -0.28330180      -0.08527978      -0.08834295
Rb       5.81560862       5.86748798      11.79295279       30      -0.01529946      -0.04002517      -0.04032867
Sn       8.82018500       8.76889350       2.98565154       31      -0.15527008      -0.22203411       0.18591254
Br       8.79471340       8.74152277      11.77590273       32       0.03729614      -0.00436709       0.05563264
Br       8.70501315       5.74783230       3.05431355       33       0.07173742       0.22937043       0.01335590
Br       6.09533424       8.72280499       2.85323288       34      -1.03077178       0.02444626      -0.00649631
Rb       5.94622758       5.95344523       5.87143804       35       0.02702172       0.03723668       0.01489217
Sn       8.78799175       8.73103057       8.94847623       36       0.07456759      -0.01072872      -0.35793554
Br       8.72646089       8.73801482       5.97480754       37       0.01393770       0.00910609      -0.07474674
Br       8.72441573       5.68046287       8.85708972       38       0.00938599       0.95517817      -0.00344841
Br       5.81984275       8.79330219       8.89637373       39       0.25838199       0.02386400       0.00785607
