40
Lattice="12.409580087604803 0.0 0.0 0.007424196655180351 12.314569032829878 0.0 -0.0019891591256163423 0.007482676059607009 12.40957767224492" Properties=species:S:1:pos:R:3:spacegroup_kinds:I:1:forces:R:3 spacegroup="P 1" unit_cell=conventional occupancy="_JSON {\"0\": {\"Cs\": 1.0}, \"1\": {\"Sn\": 1.0}, \"2\": {\"I\": 1.0}, \"3\": {\"I\": 1.0}, \"4\": {\"I\": 1.0}, \"5\": {\"Cs\": 1.0}, \"6\": {\"Sn\": 1.0}, \"7\": {\"I\": 1.0}, \"8\": {\"I\": 1.0}, \"9\": {\"I\": 1.0}, \"10\": {\"Cs\": 1.0}, \"11\": {\"Sn\": 1.0}, \"12\": {\"Cl\": 1.0}, \"13\": {\"Br\": 1.0}, \"14\": {\"I\": 1.0}, \"15\": {\"Cs\": 1.0}, \"16\": {\"Sn\": 1.0}, \"17\": {\"I\": 1.0}, \"18\": {\"Cl\": 1.0}, \"19\": {\"I\": 1.0}, \"20\": {\"Cs\": 1.0}, \"21\": {\"Sn\": 1.0}, \"22\": {\"I\": 1.0}, \"23\": {\"I\": 1.0}, \"24\": {\"Cl\": 1.0}, \"25\": {\"Cs\": 1.0}, \"26\": {\"Sn\": 1.0}, \"27\": {\"I\": 1.0}, \"28\": {\"I\": 1.0}, \"29\": {\"I\": 1.0}, \"30\": {\"Cs\": 1.0}, \"31\": {\"Sn\": 1.0}, \"32\": {\"I\": 1.0}, \"33\": {\"Cl\": 1.0}, \"34\": {\"I\": 1.0}, \"35\": {\"Cs\": 1.0}, \"36\": {\"Sn\": 1.0}, \"37\": {\"I\": 1.0}, \"38\": {\"I\": 1.0}, \"39\": {\"I\": 1.0}}" candidate_id=2862788215cd8ede formula=MASnBr0.062Cl0.16I0.783 config_index=0 rattle_stdev=0.0 method=PBE fidelity=phase2_force energy=-117.11802241581302 stress="-0.001109427249104119 -4.528411937412276e-05 1.9236194788085987e-05 -4.528411937412276e-05 0.0010769097932465427 -4.664971966628056e-05 1.9236194788085987e-05 -4.664971966628056e-05 -0.0011090792693056756" pbc="T T T"
Cs       0.03696579       0.04076519       0.07088697        0      -0.01397379       0.00892454      -0.01391719
Sn       3.44731378       3.23118075       3.08056979        1      -0.11646123      -0.01833553      -0.01569480
I        3.20848072       3.23370786       0.01613877        2      -0.02106192      -0.01219863      -0.11232120
I        3.20022230       0.00181139       3.00408563        3       0.00610881      -0.00000033      -0.00610865
I       12.23816840       3.23189572       3.10417434        4      -0.03590575       0.02939965       0.00036458
Cs       0.08621316      12.31826227       6.12501809        5      -0.01088301       0.00000815       0.01088333
Sn       3.11587576       3.43855668       9.31235468        6       0.01469132      -0.20198726      -0.00085461
I        3.19990742       3.26916822       6.16484579        7      -0.01581863      -0.00177712       0.11114916
I        3.10303193      12.13593522       9.46376608        8       0.00119088      -0.02081132       0.03682935
I        0.03656085       3.17267017       9.30845135        9      -0.12860706      -0.01588873      -0.00446885
Cs       0.08228278       6.13450526       0.05305412       10      -0.00391143      -0.00323427      -0.01556897
Sn       3.12925472       9.08690936       2.75892882       11       0.01603726       0.01840525       0.11623801
Cl       3.11850147       9.01033751       0.15570658       12      -0.00182776      -0.02887841       0.00545300
Br       3.23709898       6.15907591       2.97092636       13      -0.00322034       0.00000068       0.00320936
I        0.04491676       9.05093053       3.00586253       14      -0.11115971       0.00184920       0.01579639
Cs       0.08015665       6.16097917       6.12736213       15      -0.01360572       0.00000743       0.01360142
Sn       3.10474245       9.08456591       9.45593699       16      -0.00133138       0.22838051      -0.22538717
I        3.10506969       9.08839062       6.37765023       17      -0.00039255      -0.02937510       0.03594175
Cl       3.10908767       6.00837487       9.38170667       18      -0.00876513       0.08690060       0.01450315
I        0.02757725       9.15661702       9.40969217       19      -0.12638012      -0.02368076       0.02605763
Cs       6.18858409      12.31458328       0.02362636       20       0.01706868      -0.00000970      -0.01706022
Sn       9.15988449       3.23757646       3.10400474       21       0.22501952      -0.22851674       0.00193194
I        9.20742213       3.17019939       0.02437033       22      -0.02266639       0.01772489      -0.12734487
I        9.15021523       0.18621402       3.10755361       23      -0.03681343       0.02083644      -0.00121409
Cl       6.05057997       3.30618963       3.09169510       24      -0.00565613       0.02887690       0.00176525
Cs       6.14031405      12.27756564       6.16783624       25       0.01391622      -0.00892122       0.01398744
Sn       9.29348178       3.10557995       9.30422689       26       0.01018107       0.01765303      -0.00400705
I        9.20559261       3.16735296       6.18122020       27      -0.02606540       0.02377507       0.12636060
I        9.31301039      12.32018110       9.30729024       28       0.00165021      -0.00000043      -0.00164379
I        6.18247803       3.18635199       9.30351908       29       0.11816429      -0.02496352      -0.00688539
Cs       6.15643940       6.15731590       0.05205439       30       0.00756195      -0.00000458      -0.00755343
Sn       9.30687296       8.88349037       3.08949063       31       0.00059847       0.20197134      -0.01441609
I        9.31635219       9.13384055       0.02273833       32       0.00694393       0.02488611      -0.11817530
Cl       9.23597036       6.31371901       3.09781687       33      -0.01461456      -0.08689101       0.00877182
I        6.19364534       9.08267878       2.99825569       34       0.11232097       0.01214845       0.02107150
Cs       6.15447978       6.18378971       6.12619591       35       0.01557952       0.00322340       0.00391635
Sn       9.31420259       9.22021981       9.32126405       36       0.00361485      -0.01766050      -0.01054342
I        9.31044303       9.15123118       6.16864527       37       0.00446415       0.01596516       0.12859053
I        9.31112162       6.16289549       9.30546720       38       0.01011615      -0.00000642      -0.01008911
I        6.18442450       9.15005765       9.40885350       39       0.12733606      -0.01778941       0.02270093
40
Lattice="12.409580087604803 0.0 0.0 0.007424196655180351 12.314569032829878 0.0 -0.0019891591256163423 0.007482676059607009 12.40957767224492" Properties=species:S:1:pos:R:3:spacegroup_kinds:I:1:forces:R:3 spacegroup="P 1" unit_cell=conventional occupancy="_JSON {\"0\": {\"Cs\": 1.0}, \"1\": {\"Sn\": 1.0}, \"2\": {\"I\": 1.0}, \"3\": {\"I\": 1.0}, \"4\": {\"I\": 1.0}, \"5\": {\"Cs\": 1.0}, \"6\": {\"Sn\": 1.0}, \"7\": {\"I\": 1.0}, \"8\": {\"I\": 1.0}, \"9\": {\"I\": 1.0}, \"10\": {\"Cs\": 1.0}, \"11\": {\"Sn\": 1.0}, \"12\": {\"Cl\": 1.0}, \"13\": {\"Br\": 1.0}, \"14\": {\"I\": 1.0}, \"15\": {\"Cs\": 1.0}, \"16\": {\"Sn\": 1.0}, \"17\": {\"I\": 1.0}, \"18\": {\"Cl\": 1.0}, \"19\": {\"I\": 1.0}, \"20\": {\"Cs\": 1.0}, \"21\": {\"Sn\": 1.0}, \"22\": {\"I\": 1.0}, \"23\": {\"I\": 1.0}, \"24\": {\"Cl\": 1.0}, \"25\": {\"Cs\": 1.0}, \"26\": {\"Sn\": 1.0}, \"27\": {\"I\": 1.0}, \"28\": {\"I\": 1.0}, \"29\": {\"I\": 1.0}, \"30\": {\"Cs\": 1.0}, \"31\": {\"Sn\": 1.0}, \"32\": {\"I\": 1.0}, \"33\": {\"Cl\": 1.0}, \"34\": {\"I\": 1.0}, \"35\": {\"Cs\": 1.0}, \"36\": {\"Sn\": 1.0}, \"37\": {\"I\": 1.0}, \"38\": {\"I\": 1.0}, \"39\": {\"I\": 1.0}}" candidate_id=2862788215cd8ede formula=MASnBr0.062Cl0.16I0.783 config_index=1 rattle_stdev=0.08 method=PBE fidelity=phase2_force energy=-116.50945026627483 stress="-0.0025246145743389637 -0.000173617981064912 7.862561132922154e-05 -0.000173617981064912 -5.13286618951033e-05 2.20966433137335e-05 7.862561132922154e-05 2.20966433137335e-05 -0.003951268743756622" pbc="T T T"
Cs      -0.04994992      -0.03092002       0.04638302        0      -0.03555921       0.05091876       0.00368920
Sn       3.34011909       3.13465390       3.02923165        1       0.38261198       0.22725452       0.24588971
I        3.31311637       3.38134470       0.08246797        2      -0.13123355      -0.14870604      -0.18804079
I        3.19835839      -0.01487373       2.93075605        3      -0.02225556       0.06222898      -0.00247717
I       12.15218899       3.22500424       3.19824142        4       0.56092379       0.07098500       0.02500831
Cs      -0.04459417      12.41651779       6.21112899        5       0.02762396       0.04201531      -0.02234866
Sn       3.14745759       3.40754061       9.35942682        6       0.07253816      -0.48770575      -0.16413739
I        3.08524351       3.24328225       6.26508457        7       0.03342073       0.02167568      -0.04024685
I        3.04457252      12.25021402       9.53933839        8       0.00734364      -0.30342491      -0.04291532
I        0.01544063       3.15961310       9.23132277        9      -0.04627386      -0.01906167       0.02016693
Cs       0.05487099       6.13841758       0.01308356       10      -0.02098827      -0.04256627       0.00889424
Sn       2.95230236       9.11169631       2.63175672       11       0.99129846      -0.20714893       0.22415748
Cl       3.17685783       9.00170541       0.10369286       12      -0.12806597      -0.01721270      -0.20244766
Br       3.10165446       6.12959799       2.84369663       13      -0.03431378       0.06133496       0.09252026
I        0.16335723       9.08888574       3.07897164       14      -0.94799256       0.00606933       0.05986874
Cs       0.15699427       6.16774257       6.26474061       15      -0.01446415      -0.04424853      -0.01055199
Sn       3.17289386       9.02417509       9.27292664       16       0.21246659       0.41481228       0.21628563
I        3.11380879       9.05237798       6.34461244       17      -0.00757653      -0.00503588      -0.18839895
Cl       3.13460637       5.96508624       9.45759999       18      -0.02647716       0.44119768      -0.04354557
I        0.03969206       9.16276922       9.40494014       19       0.15489287      -0.00510621       0.01356890
Cs       6.18297299      12.26929136       0.04850679       20       0.03270574       0.01841665      -0.00329105
Sn       9.21782120       3.27889246       3.18608719       21      -0.30266031      -0.32134903      -0.58219465
I        9.24903434       3.10061231       0.14441554       22       0.00690922       0.07924370      -0.54291114
I        9.24353300       0.22556718       3.04897263       23      -0.05612706      -0.07855991       0.15330977
Cl       6.10500446       3.34690938       3.02469221       24      -0.49825846      -0.01669596       0.05962506
Cs       6.19212564      12.27856880       6.29260337       25      -0.01759902       0.00182383      -0.01226362
Sn       9.37624941       3.13259536       9.20001806       26      -0.11801010       0.29372189       0.29740899
I        9.11610907       3.27211417       6.13976284       27      -0.04911378      -0.03254010       0.61823268
I        9.28156044      12.40361858       9.31326746       28       0.02950526      -0.19848636      -0.04317154
I        6.18963299       3.19066458       9.33699483       29       0.07262817      -0.00806791      -0.02353027
Cs       6.05822099       6.07015258       0.07742434       30       0.09594639       0.05726723       0.03996219
Sn       9.24444052       8.81499989       2.98390092       31      -0.15977998       0.60309270       0.27435410
I        9.35265473       9.21398254       0.13583711       32       0.01935521       0.00037665      -0.43878616
Cl       9.22075573       6.31612785       2.94794353       33       0.00132601      -0.37541494      -0.02666427
I        6.18430318       9.07247955       3.07043043       34       0.27569266      -0.03365674       0.03778745
Cs       6.04933001       6.17582565       6.13743990       35       0.01785328      -0.03229343      -0.02217808
Sn       9.52450707       9.36068211       9.11041222       36      -0.47483987      -0.31505337       0.70621764
I        9.20751147       9.13749340       6.31268157       37       0.05803409       0.08189012      -0.62419023
I        9.35981727       6.16541753       9.18815423       38       0.00920572       0.19361672       0.08456099
I        6.20917976       9.24143508       9.36798596       39       0.02304762      -0.03258108       0.04547239
40
Lattice="12.409580087604803 0.0 0.0 0.007424196655180351 12.314569032829878 0.0 -0.0019891591256163423 0.007482676059607009 12.40957767224492" Properties=species:S:1:pos:R:3:spacegroup_kinds:I:1:forces:R:3 spacegroup="P 1" unit_cell=conventional occupancy="_JSON {\"0\": {\"Cs\": 1.0}, \"1\": {\"Sn\": 1.0}, \"2\": {\"I\": 1.0}, \"3\": {\"I\": 1.0}, \"4\": {\"I\": 1.0}, \"5\": {\"Cs\": 1.0}, \"6\": {\"Sn\": 1.0}, \"7\": {\"I\": 1.0}, \"8\": {\"I\": 1.0}, \"9\": {\"I\": 1.0}, \"10\": {\"Cs\": 1.0}, \"11\": {\"Sn\": 1.0}, \"12\": {\"Cl\": 1.0}, \"13\": {\"Br\": 1.0}, \"14\": {\"I\": 1.0}, \"15\": {\"Cs\": 1.0}, \"16\": {\"Sn\": 1.0}, \"17\": {\"I\": 1.0}, \"18\": {\"Cl\": 1.0}, \"19\": {\"I\": 1.0}, \"20\": {\"Cs\": 1.0}, \"21\": {\"Sn\": 1.0}, \"22\": {\"I\": 1.0}, \"23\": {\"I\": 1.0}, \"24\": {\"Cl\": 1.0}, \"25\": {\"Cs\": 1.0}, \"26\": {\"Sn\": 1.0}, \"27\": {\"I\": 1.0}, \"28\": {\"I\": 1.0}, \"29\": {\"I\": 1.0}, \"30\": {\"Cs\": 1.0}, \"31\": {\"Sn\": 1.0}, \"32\": {\"I\": 1.0}, \"33\": {\"Cl\": 1.0}, \"34\": {\"I\": 1.0}, \"35\": {\"Cs\": 1.0}, \"36\": {\"Sn\": 1.0}, \"37\": {\"I\": 1.0}, \"38\": {\"I\": 1.0}, \"39\": {\"I\": 1.0}}" candidate_id=2862788215cd8ede formula=MASnBr0.062Cl0.16I0.783 config_index=2 rattle_stdev=0.08 method=PBE fidelity=phase2_force energy=-116.6336351636693 stress="-0.0011513091504845444 3.981115218473558e-05 7.560936464701899e-05 3.981115218473558e-05 -0.0021678519024676637 0.00011228024319344584 7.560936464701899e-05 0.00011228024319344584 -0.0019585309337465068" pbc="T T T"
Cs       0.02794875      -0.04535993       0.21368913        0      -0.00984455       0.02576080      -0.05665806
Sn       3.33075512       3.20507508       2.97977807        1       0.12817972       0.29421254       0.25798944
I        3.23855004       3.16345607      -0.01185929        2      -0.05679968       0.02902581      -0.14910731
I        3.22395511       0.09788435       2.87856601        3      -0.04192401      -0.48528423       0.03082974
I       12.38649070       3.27141266       3.09371743        4      -0.28962314      -0.02968320      -0.04053465
Cs       0.05396350      12.24036929       6.08762075        5      -0.02307126       0.00681125       0.03689032
Sn       3.05844205       3.53626814       9.25017868        6       0.43820965      -0.94933296      -0.08497584
I        3.15282537       3.26455871       6.17121218        7      -0.00667328      -0.06156324       0.04086040
I        3.00837584      12.01203582       9.53674658        8       0.01661141       0.72131334       0.04254275
I        0.06957451       3.11700865       9.12534960        9      -0.31453900       0.00135287       0.04765140
Cs       0.01930346       6.05222393       0.06051877       10       0.03044953       0.00213411      -0.02364741
Sn       3.08691919       9.14932895       2.74286365       11       0.27355466      -0.19021298       0.03606627
Cl       3.08005278       8.92751654       0.11548783       12      -0.00415100      -0.00373985       0.28718347
Br       3.30029020       6.08507610       3.14772919       13      -0.07338378       0.40481493      -0.10496250
I       -0.06710213       9.03180274       3.02324979       14       0.41940530       0.00317971       0.02426542
Cs       0.05196582       6.16784921       6.13589429       15      -0.01223374      -0.00426448       0.00572387
Sn       3.08897995       9.19232062       9.48355091       16       0.00768282      -0.51586825      -0.12973783
I        3.14968125       9.04076781       6.43627681       17      -0.03211506       0.06389833      -0.20737925
Cl       3.21558788       5.94997224       9.34284621       18      -0.04621910       0.78616414       0.04458011
I        0.11373039       8.94898843       9.42304643       19      -0.24792681      -0.03961673       0.03198388
Cs       6.27170086      12.16989737       0.08431763       20      -0.00118966       0.04026057      -0.06206044
Sn       9.11987547       3.05003301       3.09537132       21       0.14772866       0.24216765       0.16062591
I        9.08719912       3.20930168      -0.01988395       22       0.05132906       0.03818512       0.02604146
I        9.23481583       0.11666859       3.10154632       23      -0.01500908      -0.14047396      -0.01223889
Cl       6.04200757       3.47409539       3.06445207       24       0.08693342      -0.12919971      -0.04537539
Cs       6.09808164      12.17399630       6.18496416       25       0.03265180      -0.00329278       0.03084551
Sn       9.38358335       3.13770281       9.36547372       26      -0.31714504      -0.04973960      -0.20795102
I        9.09734241       3.21326164       6.16360923       27       0.01959860      -0.04925738       0.00581018
I        9.36462550      12.23980356       9.45926933       28       0.02978513       0.47758999       0.00811029
I        6.19982689       3.22634962       9.25339179       29       0.13291788      -0.08217416       0.00656206
Cs       6.07620866       6.09481109       0.06839661       30      -0.01239304      -0.01873774       0.03695213
Sn       9.34976032       8.79749057       2.91206225       31      -0.41368868       0.26286599       0.70218211
I        9.36810661       9.10805369       0.00893320       32       0.01085618      -0.02471711      -0.13874361
Cl       9.05289662       6.30475550       3.17424197       33       0.06387266      -0.25919966      -0.10081023
I        6.23002439       9.24763297       3.00325252       34      -0.28196062       0.02645186      -0.04618896
Cs       6.15470718       6.14750541       6.15607451       35       0.01458201      -0.01748543      -0.05332532
Sn       9.24915331       9.21209521       9.35692110       36       0.16307292       0.11267022      -0.45728942
I        9.20843274       9.15985773       6.23682422       37       0.06049913       0.10716066      -0.06065772
I        9.29857346       6.25800103       9.18768613       38       0.06845276      -0.64154256       0.03653028
I        6.25370777       9.07858649       9.36493585       39       0.00026455       0.04573045       0.09017742
40
Lattice="12.409580087604803 0.0 0.0 0.007424196655180351 12.314569032829878 0.0 -0.0019891591256163423 0.007482676059607009 12.40957767224492" Properties=species:S:1:pos:R:3:spacegroup_kinds:I:1:forces:R:3 spacegroup="P 1" unit_cell=conventional occupancy="_JSON {\"0\": {\"Cs\": 1.0}, \"1\": {\"Sn\": 1.0}, \"2\": {\"I\": 1.0}, \"3\": {\"I\": 1.0}, \"4\": {\"I\": 1.0}, \"5\": {\"Cs\": 1.0}, \"6\": {\"Sn\": 1.0}, \"7\": {\"I\": 1.0}, \"8\": {\"I\": 1.0}, \"9\": {\"I\": 1.0}, \"10\": {\"Cs\": 1.0}, \"11\": {\"Sn\": 1.0}, \"12\": {\"Cl\": 1.0}, \"13\": {\"Br\": 1.0}, \"14\": {\"I\": 1.0}, \"15\": {\"Cs\": 1.0}, \"16\": {\"Sn\": 1.0}, \"17\": {\"I\": 1.0}, \"18\": {\"Cl\": 1.0}, \"19\": {\"I\": 1.0}, \"20\": {\"Cs\": 1.0}, \"21\": {\"Sn\": 1.0}, \"22\": {\"I\": 1.0}, \"23\": {\"I\": 1.0}, \"24\": {\"Cl\": 1.0}, \"25\": {\"Cs\": 1.0}, \"26\": {\"Sn\": 1.0}, \"27\": {\"I\": 1.0}, \"28\": {\"I\": 1.0}, \"29\": {\"I\": 1.0}, \"30\": {\"Cs\": 1.0}, \"31\": {\"Sn\": 1.0}, \"32\": {\"I\": 1.0}, \"33\": {\"Cl\": 1.0}, \"34\": {\"I\": 1.0}, \"35\": {\"Cs\": 1.0}, \"36\": {\"Sn\": 1.0}, \"37\": {\"I\": 1.0}, \"38\": {\"I\": 1.0}, \"39\": {\"I\": 1.0}}" candidate_id=2862788215cd8ede formula=MASnBr0.062Cl0.16I0.783 config_index=3 rattle_stdev=0.08 method=PBE fidelity=phase2_force energy=-116.41680430014199 stress="-0.0020474134162802612 5.619422455004072e-05 -5.6064010718186244e-05 5.619422455004072e-05 0.00033257991085746996 9.065878133723279e-05 -5.6064010718186244e-05 9.065878133723279e-05 -0.002195256500454221" pbc="T T T"
Cs      -0.06871769       0.20210542       0.07469213        0       0.02292614       0.05346113       0.01426644
Sn       3.42830009       3.23791056       3.15733317        1      -0.29721788      -0.25005594      -0.74598548
I        3.15395284       3.27603349      -0.04585468        2      -0.00947810      -0.01884865      -0.18073631
I        3.31261879      -0.01616305       2.89961478        3       0.00408933      -0.15101405       0.02193827
I       12.18388558       3.10222106       3.00177646        4      -0.00320010       0.13415061       0.05518391
Cs       0.06826943      12.25021739       6.06455888        5      -0.03282550       0.01919572      -0.01252705
Sn       3.13692943       3.23414123       9.17873201        6       0.00497025       0.51596185       0.53788482
I        3.14296860       3.07342617       6.06271101        7      -0.04283150      -0.02112652       0.49784550
I        3.15612173      12.03362850       9.40053331        8      -0.05483718       0.69499833       0.05238104
I       -0.08362881       3.07750697       9.48978656        9       0.23012897       0.00510923      -0.04547787
Cs       0.04414055       6.20623838      -0.09134094       10       0.03401787      -0.10510944      -0.01152498
Sn       3.08995755       8.99094964       2.69451120       11       0.14505320       0.29093740       0.06843323
Cl       3.23096696       8.99191226       0.09861086       12      -0.06515134      -0.10195544       0.31384487
Br       3.22409198       6.10476552       3.09205578       13      -0.02758224       0.20528203       0.00828444
I       -0.09488907       9.10361290       2.97833323       14       0.90069709       0.00271191      -0.01685751
Cs       0.01946080       6.17474127       6.07477885       15      -0.02774563      -0.02220891       0.01217148
Sn       3.14895808       9.11517458       9.42623376       16      -0.14839772      -0.48673049       0.02863165
I        3.23132121       9.10573442       6.47457756       17      -0.04359051      -0.03438481      -0.44992280
Cl       3.16760612       6.06229456       9.33528218       18      -0.03529006      -0.53501931      -0.08382826
I        0.01963009       9.02982783       9.40371486       19      -0.24973340       0.01063682      -0.00336781
Cs       6.28448880      12.29334946      -0.02851761       20      -0.02720252       0.01510151      -0.00817569
Sn       9.00816156       3.11435254       3.07257888       21       0.48811002       0.18713355       0.00827130
I        9.17426367       3.22708481       0.07577236       22      -0.08803106      -0.00261230      -0.29760514
I        9.34200213       0.17263143       3.02648291       23      -0.16953193      -0.39552599       0.01842646
Cl       6.01509548       3.37386781       3.13124383       24       0.11086017      -0.00184917       0.05031788
Cs       6.16260511      12.31933292       6.19324558       25       0.02456395      -0.04640937       0.01188989
Sn       9.31165269       3.07435271       9.24678549       26      -0.03906449      -0.09422586       0.01279744
I        9.32912150       3.09831735       6.15251399       27      -0.02492717       0.03422342       0.26741209
I        9.31971453      12.45451887       9.21294327       28      -0.01886409      -0.93829147       0.05858146
I        6.15057986       3.15248084       9.34826602       29      -0.09568425      -0.05124586      -0.07069188
Cs       6.11025982       6.16301569       0.12143080       30      -0.01731834      -0.05017703      -0.06476380
Sn       9.34006568       8.86539159       3.14993808       31      -0.15291730      -0.23933657       0.24055636
I        9.33436258       9.09866031       0.07506468       32       0.03564214       0.02548300      -0.06274640
Cl       9.16428050       6.19976312       3.23721560       33       0.06427389       0.24978783       0.00556011
I        6.42719139       9.02878076       2.93657374       34      -0.92751428       0.08635052       0.03407003
Cs       6.23891917       6.27544675       6.13584576       35       0.02309453      -0.01669611       0.01324323
Sn       9.31520206       9.16425809       9.47136798       36       0.07414538      -0.02545494      -0.29094646
I        9.27439036       9.12673244       6.28166462       37       0.01617356       0.02492201      -0.01704274
I        9.25883434       5.98157016       9.35389536       38      -0.00740537       1.06009670      -0.00803387
I        6.14247906       9.16665683       9.49656566       39       0.42458530      -0.02922736       0.05028282
