40
Lattice="12.139133599805872 0.0 0.0 0.0 12.142113952723163 0.0 0.0 6.544967154344528e-14 12.142113952723172" Properties=species:S:1:pos:R:3:spacegroup_kinds:I:1:forces:R:3 spacegroup="P 1" unit_cell=conventional occupancy="_JSON {\"0\": {\"Rb\": 1.0}, \"1\": {\"Sn\": 1.0}, \"2\": {\"I\": 1.0}, \"3\": {\"I\": 1.0}, \"4\": {\"I\": 1.0}, \"5\": {\"Rb\": 1.0}, \"6\": {\"Sn\": 1.0}, \"7\": {\"I\": 1.0}, \"8\": {\"I\": 1.0}, \"9\": {\"I\": 1.0}, \"10\": {\"Rb\": 1.0}, \"11\": {\"Ge\": 1.0}, \"12\": {\"I\": 1.0}, \"13\": {\"I\": 1.0}, \"14\": {\"I\": 1.0}, \"15\": {\"Rb\": 1.0}, \"16\": {\"Ge\": 1.0}, \"17\": {\"I\": 1.0}, \"18\": {\"I\": 1.0}, \"19\": {\"I\": 1.0}, \"20\": {\"Rb\": 1.0}, \"21\": {\"Ge\": 1.0}, \"22\": {\"I\": 1.0}, \"23\": {\"I\": 1.0}, \"24\": {\"I\": 1.0}, \"25\": {\"Rb\": 1.0}, \"26\": {\"Sn\": 1.0}, \"27\": {\"I\": 1.0}, \"28\": {\"I\": 1.0}, \"29\": {\"I\": 1.0}, \"30\": {\"Rb\": 1.0}, \"31\": {\"Ge\": 1.0}, \"32\": {\"I\": 1.0}, \"33\": {\"I\": 1.0}, \"34\": {\"I\": 1.0}, \"35\": {\"Rb\": 1.0}, \"36\": {\"Sn\": 1.0}, \"37\": {\"I\": 1.0}, \"38\": {\"I\": 1.0}, \"39\": {\"I\": 1.0}}" candidate_id=eb6af6805e0a9e8d formula=RbGe0.49Sn0.51I3 config_index=0 rattle_stdev=0.0 method=PBE fidelity=phase2_force energy=-110.09109637924865 stress="-0.0023901663058714384 -8.541767833845659e-16 -8.541767833845608e-16 -8.541767833845659e-16 -0.0025318509957211644 -9.827266200131287e-16 -8.541767833845608e-16 -9.827266200131287e-16 -0.002531850995721161" pbc="T T T"
Rb       0.00000000      12.00052452       0.14158944        0       0.00000000       0.01157417      -0.01157417
Sn       3.03478340       3.03552849       3.03552849        1      -0.00000000       0.00000000       0.00000000
I        3.03478340       3.03552849       0.00305022        2      -0.00000000       0.00000000       0.01034083
I        3.03478340      12.04999242       3.03552849        3      -0.00000000       0.07483558      -0.00000000
I       12.05244748       3.03552849       3.03552849        4       0.09289771      -0.00000000      -0.00000000
Rb       0.00000000      12.00052452       5.92946754        5       0.00000000       0.01157417       0.01157417
Sn       3.03478340       3.03552849       9.10658546        6       0.00000000      -0.00000000       0.00000000
I        3.03478340       3.03552849       6.06800676        7      -0.00000000       0.00000000      -0.01034083
I        3.03478340      12.04963427       9.10658546        8      -0.00000000       0.08534078       0.00000000
I        0.00000000       3.03552849       9.10658546        9       0.00000000      -0.00000000       0.00000000
Rb      12.13913360       6.21264641       0.14158944       10      -0.00000000      -0.01157417      -0.01157417
Ge       3.03478340       9.10658546       3.03552849       11      -0.00000000      -0.00000000       0.00000000
I        3.03478340       9.10658546       0.01030169       12       0.00000000      -0.00000000       0.01168184
I        3.03478340       6.16317851       3.03552849       13       0.00000000      -0.07483558       0.00000000
I       12.13913360       9.10658546       3.03552849       14       0.00000000      -0.00000000       0.00000000
Rb      12.13913360       6.21264641       5.92946754       15       0.00000000      -0.01157417       0.01157417
Ge       3.03478340       9.10658546       9.10658546       16       0.00000000      -0.00000000       0.00000000
I        3.03478340       9.10658546       6.06075528       17       0.00000000       0.00000000      -0.01168184
I        3.03478340       6.16353666       9.10658546       18      -0.00000000      -0.08534078      -0.00000000
I        0.08668612       9.10658546       9.10658546       19      -0.09289771       0.00000000       0.00000000
Rb       6.06956680      12.00052452       0.14158944       20       0.00000000       0.01157417      -0.01157417
Ge       9.10435020       3.03552849       3.03552849       21      -0.00000000      -0.00000000       0.00000000
I        9.10435020       3.03552849       0.09247968       22       0.00000000      -0.00000000      -0.08534078
I        9.10435020      12.13181226       3.03552849       23      -0.00000000      -0.01168184       0.00000000
I        6.15625292       3.03552849       3.03552849       24      -0.09289771       0.00000000      -0.00000000
Rb       6.06956680      12.00052452       5.92946754       25      -0.00000000       0.01157417       0.01157417
Sn       9.10435020       3.03552849       9.10658546       26      -0.00000000      -0.00000000       0.00000000
I        9.10435020       3.03552849       5.97857730       27       0.00000000       0.00000000       0.08534078
I        9.10435020      12.13906373       9.10658546       28       0.00000000      -0.01034083      -0.00000000
I        6.06956680       3.03552849       9.10658546       29       0.00000000       0.00000000      -0.00000000
Rb       6.06956680       6.21264641       0.14158944       30       0.00000000      -0.01157417      -0.01157417
Ge       9.10435020       9.10658546       3.03552849       31       0.00000000      -0.00000000       0.00000000
I        9.10435020       9.10658546       0.09212154       32       0.00000000       0.00000000      -0.07483558
I        9.10435020       6.08135867       3.03552849       33      -0.00000000       0.01168184      -0.00000000
I        6.06956680       9.10658546       3.03552849       34       0.00000000       0.00000000      -0.00000000
Rb       6.06956680       6.21264641       5.92946754       35       0.00000000      -0.01157417       0.01157417
Sn       9.10435020       9.10658546       9.10658546       36       0.00000000      -0.00000000      -0.00000000
I        9.10435020       9.10658546       5.97893544       37      -0.00000000      -0.00000000       0.07483558
I        9.10435020       6.07410720       9.10658546       38       0.00000000       0.01034083      -0.00000000
I        5.98288068       9.10658546       9.10658546       39       0.09289771       0.00000000      -0.00000000
40
Lattice="12.139133599805872 0.0 0.0 0.0 12.142113952723163 0.0 0.0 6.544967154344528e-14 12.142113952723172" Properties=species:S:1:pos:R:3:spacegroup_kinds:I:1:forces:R:3 spacegroup="P 1" unit_cell=conventional occupancy="_JSON {\"0\": {\"Rb\": 1.0}, \"1\": {\"Sn\": 1.0}, \"2\": {\"I\": 1.0}, \"3\": {\"I\": 1.0}, \"4\": {\"I\": 1.0}, \"5\": {\"Rb\": 1.0}, \"6\": {\"Sn\": 1.0}, \"7\": {\"I\": 1.0}, \"8\": {\"I\": 1.0}, \"9\": {\"I\": 1.0}, \"10\": {\"Rb\": 1.0}, \"11\": {\"Ge\": 1.0}, \"12\": {\"I\": 1.0}, \"13\": {\"I\": 1.0}, \"14\": {\"I\": 1.0}, \"15\": {\"Rb\": 1.0}, \"16\": {\"Ge\": 1.0}, \"17\": {\"I\": 1.0}, \"18\": {\"I\": 1.0}, \"19\": {\"I\": 1.0}, \"20\": {\"Rb\": 1.0}, \"21\": {\"Ge\": 1.0}, \"22\": {\"I\": 1.0}, \"23\": {\"I\": 1.0}, \"24\": {\"I\": 1.0}, \"25\": {\"Rb\": 1.0}, \"26\": {\"Sn\": 1.0}, \"27\": {\"I\": 1.0}, \"28\": {\"I\": 1.0}, \"29\": {\"I\": 1.0}, \"30\": {\"Rb\": 1.0}, \"31\": {\"Ge\": 1.0}, \"32\": {\"I\": 1.0}, \"33\": {\"I\": 1.0}, \"34\": {\"I\": 1.0}, \"35\": {\"Rb\": 1.0}, \"36\": {\"Sn\": 1.0}, \"37\": {\"I\": 1.0}, \"38\": {\"I\": 1.0}, \"39\": {\"I\": 1.0}}" candidate_id=eb6af6805e0a9e8d formula=RbGe0.49Sn0.51I3 config_index=1 rattle_stdev=0.08 method=PBE fidelity=phase2_force energy=-109.65312056463127 stress="-0.004308229359409445 4.367162054631199e-05 -5.7578110232041306e-05 4.367162054631199e-05 -0.0037100383368748463 -4.2400177476275816e-05 -5.7578110232041306e-05 -4.2400177476275816e-05 -0.004984094603074874" pbc="T T T"
Rb      -0.08691571      11.92883931       0.11708549        0      -0.00836473       0.05367402       0.00736751
Sn       2.92758871       2.93900164       2.98419034        1       0.23976671       0.23468840       0.34104208
I        3.13941905       3.18316532       0.06937941        2      -0.05207395      -0.01764074      -0.09105468
I        3.03291949      12.03330730       2.96219891        3       0.02458247       0.09473557       0.00859535
I       11.96646807       3.02863701       3.12959557        4       0.60561488       0.01319638       0.02125926
Rb      -0.13080734      12.09878004       6.01557844        5       0.03548519       0.05592711      -0.02555611
Sn       3.06636523       3.00451242       9.15365761        6       0.08283128      -0.05903011      -0.15839927
I        2.92011949       3.00964251       6.16824553        7       0.06084307       0.03267962      -0.28770023
I        2.97632399      12.16391308       9.18215778        8      -0.01308814      -0.33228741       0.01975665
I       -0.02112022       3.02247142       9.02945688        9       0.15817512       0.01223671       0.04956142
Rb      12.11172181       6.21655874       0.10161888       10      -0.00233024      -0.04381616      -0.00035438
Ge       2.85783104       9.13137241       2.90835639       11       0.34836204      -0.26229175      -0.20895984
I        3.09313977       9.09795336      -0.04171203       12      -0.06822658       0.03340616       0.19369603
I        2.89933888       6.13370059       2.90829875       13       0.02222559      -0.02966861       0.09455651
I       12.25757407       9.14454068       3.10863759       14      -0.47429525       0.01162701       0.01055628
Rb      12.21597122       6.21940982       6.06684601       15       0.02398402      -0.05700081      -0.00255991
Ge       3.10293482       9.04619464       8.92357512       16       0.29514047      -0.00280347       0.02065573
I        3.04352250       9.07057282       6.02771749       17       0.01173461      -0.00401948       0.14273891
I        3.06030210       6.12024802       9.18247878       18      -0.01530643       0.36482489      -0.06526618
I        0.09880093       9.11273766       9.10183343       19       0.15629894       0.02065303       0.00486399
Rb       6.06395570      11.95523259       0.16646987       20       0.01057623       0.03758376       0.00512931
Ge       9.16228690       3.07684449       3.11761094       21      -0.39252873      -0.21525509      -0.51884657
I        9.14596241       2.96594140       0.21252489       22       0.05706338       0.03151076      -0.51754200
I        9.19766797      12.17116542       2.97694751       23      -0.02948950      -0.09566357       0.17042756
I        6.21067741       3.07624824       2.96852559       24      -0.45497298      -0.01704373       0.07336806
Rb       6.12137839      12.00152767       6.05423467       25      -0.02840044       0.02728375      -0.01479566
Sn       9.18711783       3.06254390       9.00237663       26      -0.22412252       0.31799458       0.25366292
I        9.01486666       3.14028970       5.93711994       27      -0.03475432      -0.03412257       0.53426035
I        9.07290026      12.22250121       9.11256268       28       0.00127538      -0.24000437      -0.01216495
I        6.07672176       3.03984108       9.14006122       29      -0.01355736       0.00372759      -0.00165315
Rb       5.97134840       6.12548309       0.16695939       30       0.00104632      -0.03172628       0.00904792
Ge       9.04191776       9.03809498       2.92993878       31      -0.30115244       0.10227229       0.07325368
I        9.14065273       9.18672745       0.20522031       32      -0.00851236      -0.03460752      -0.31622521
I        9.08913557       6.08376751       2.88565515       33       0.04898357       0.18173988       0.06304256
I        6.06022464       9.09638624       3.10770323       34       0.39464217      -0.00768785      -0.02305791
Rb       5.96441703       6.20468235       5.94071153       35      -0.00825134      -0.03797863      -0.00003925
Sn       9.31465468       9.24704777       8.89573364       36      -0.40244468      -0.37337304       0.78117628
I        9.00141864       9.09284769       6.12297174       37       0.05090639       0.03897469      -0.75947525
I        9.15304585       6.07662924       8.98927249       38      -0.00188517       0.24057689       0.08240718
I        6.00763594       9.19796289       9.06571793       39      -0.09125255      -0.01652776       0.02509691
40
Lattice="12.139133599805872 0.0 0.0 0.0 12.142113952723163 0.0 0.0 6.544967154344528e-14 12.142113952723172" Properties=species:S:1:pos:R:3:spacegroup_kinds:I:1:forces:R:3 spacegroup="P 1" unit_cell=conventional occupancy="_JSON {\"0\": {\"Rb\": 1.0}, \"1\": {\"Sn\": 1.0}, \"2\": {\"I\": 1.0}, \"3\": {\"I\": 1.0}, \"4\": {\"I\": 1.0}, \"5\": {\"Rb\": 1.0}, \"6\": {\"Sn\": 1.0}, \"7\": {\"I\": 1.0}, \"8\": {\"I\": 1.0}, \"9\": {\"I\": 1.0}, \"10\": {\"Rb\": 1.0}, \"11\": {\"Ge\": 1.0}, \"12\": {\"I\": 1.0}, \"13\": {\"I\": 1.0}, \"14\": {\"I\": 1.0}, \"15\": {\"Rb\": 1.0}, \"16\": {\"Ge\": 1.0}, \"17\": {\"I\": 1.0}, \"18\": {\"I\": 1.0}, \"19\": {\"I\": 1.0}, \"20\": {\"Rb\": 1.0}, \"21\": {\"Ge\": 1.0}, \"22\": {\"I\": 1.0}, \"23\": {\"I\": 1.0}, \"24\": {\"I\": 1.0}, \"25\": {\"Rb\": 1.0}, \"26\": {\"Sn\": 1.0}, \"27\": {\"I\": 1.0}, \"28\": {\"I\": 1.0}, \"29\": {\"I\": 1.0}, \"30\": {\"Rb\": 1.0}, \"31\": {\"Ge\": 1.0}, \"32\": {\"I\": 1.0}, \"33\": {\"I\": 1.0}, \"34\": {\"I\": 1.0}, \"35\": {\"Rb\": 1.0}, \"36\": {\"Sn\": 1.0}, \"37\": {\"I\": 1.0}, \"38\": {\"I\": 1.0}, \"39\": {\"I\": 1.0}}" candidate_id=eb6af6805e0a9e8d formula=RbGe0.49Sn0.51I3 config_index=2 rattle_stdev=0.08 method=PBE fidelity=phase2_force energy=-109.66531659335546 stress="-0.003695148660060198 3.223596844074825e-05 -4.491070466699011e-06 3.223596844074825e-05 -0.004088229944768337 -3.956094517583004e-05 -4.491070466699011e-06 -3.956094517583004e-05 -0.003575322181298418" pbc="T T T"
Rb      -0.00901704      11.91439940       0.28439159        0       0.01980380       0.01415638      -0.07192613
Sn       2.91822474       3.00942283       2.93473677        1       0.57091842       0.25319494       0.19879157
I        3.06485272       2.96527670      -0.02494784        2      -0.02990347       0.04271999      -0.05096582
I        3.05851622      12.14606537       2.91000887        3      -0.02585267      -0.51799135       0.06901080
I       12.20076978       3.07504543       3.02507157        4      -0.78234909       0.03310637      -0.03113540
Rb      -0.03224966      11.92263153       5.89207020        5      -0.00986572       0.00107812       0.06180556
Sn       2.97734968       3.13323995       9.04440946        6       0.48044766       0.09309508       0.00672582
I        2.98770135       3.03091898       6.07437315        7       0.05297912      -0.10725966      -0.17321705
I        2.94012732      11.92573488       9.17956596        8       0.02605426       0.47556153      -0.01283589
I        0.03301366       2.97986697       8.92348371        9      -0.18367300       0.00490593       0.01898476
Rb      12.07615428       6.13036508       0.14905409       10       0.02147025       0.00619980      -0.01862951
Ge       2.99244787       9.16900505       3.01946331       11       0.20894562      -0.18239405       0.01219175
I        2.99633471       9.02376449      -0.02991706       12       0.03099062      -0.04646179       0.34714842
I        3.09797462       6.08917870       3.21233131       13      -0.02735226       0.39177565      -0.08831792
I       12.02711470       9.08745767       3.05291574       14       0.41250044      -0.04072738       0.01944819
Rb      12.11094278       6.21951646       5.93799970       15      -0.00505799      -0.00469400       0.03408271
Ge       3.01902090       9.21434017       9.13419938       16      -0.14672538      -0.24470656      -0.07544865
I        3.07939495       9.05896265       6.11938186       17      -0.03380195       0.10334598      -0.28917482
I        3.14128361       6.10513402       9.06772500       18      -0.00923982      -0.23333289       0.03348766
I        0.17283926       8.89895687       9.11993972       19      -0.18886604       0.00462847      -0.02213025
Rb       6.15268357      11.85583861       0.20228071       20      -0.02371187       0.06170621      -0.05200685
Ge       9.06434118       2.84798504       3.02689507       21      -0.29984535       0.11424612       0.17719273
I        8.98412719       3.07463078       0.04822540       22       0.10463678       0.04345294       0.05321959
I        9.18895080      12.06226683       3.02952120       23      -0.00956724       0.29961473      -0.00904880
I        6.14768053       3.20343425       3.00828545       24       0.28181037      -0.17886933      -0.00083972
Rb       6.02733439      11.89695517       5.94659546       25       0.01598345       0.02235688       0.03993407
Sn       9.19445177       3.06765136       9.16783229       26      -0.43968120      -0.08910141      -0.14520592
I        8.99610000       3.08143717       5.96096633       27       0.06763640      -0.08939135      -0.05860091
I        9.15596532      12.05868619       9.25856455       28       0.03698368       0.55665092       0.01072911
I        6.08691567       3.07552612       9.05645818       29       0.05246302      -0.07339082      -0.01464483
Rb       5.98933606       6.15014160       0.15793166       30      -0.01952235      -0.04615058      -0.00180656
Ge       9.14723756       9.02058567       2.85810011       31      -0.25442599      -0.28418937       0.47567100
I        9.15610462       9.08079860       0.07831640       32       0.00317888      -0.06027505       0.01365850
I        8.92127646       6.07239516       3.11195359       33       0.15028115       0.18713255      -0.09816622
I        6.10594585       9.27153966       3.04052533       34      -0.32569208      -0.04501395      -0.05665097
Rb       6.06979419       6.17636211       5.95934614       35       0.00684181      -0.03090508       0.01973958
Sn       9.03930092       9.09846086       9.14224252       36       0.13582401       0.12949944      -0.46612188
I        9.00233991       9.11521201       6.04711439       37       0.06860066       0.07608268       0.01134627
I        9.09180203       6.16921274       8.98880439       38       0.06232950      -0.67835191       0.02971492
I        6.05216394       9.03511430       9.06266782       39      -0.02369936       0.05441520       0.08542456
40
Lattice="12.139133599805872 0.0 0.0 0.0 12.142113952723163 0.0 0.0 6.544967154344528e-14 12.142113952723172" Properties=species:S:1:pos:R:3:spacegroup_kinds:I:1:forces:R:3 spacegroup="P 1" unit_cell=conventional occupancy="_JSON {\"0\": {\"Rb\": 1.0}, \"1\": {\"Sn\": 1.0}, \"2\": {\"I\": 1.0}, \"3\": {\"I\": 1.0}, \"4\": {\"I\": 1.0}, \"5\": {\"Rb\": 1.0}, \"6\": {\"Sn\": 1.0}, \"7\": {\"I\": 1.0}, \"8\": {\"I\": 1.0}, \"9\": {\"I\": 1.0}, \"10\": {\"Rb\": 1.0}, \"11\": {\"Ge\": 1.0}, \"12\": {\"I\": 1.0}, \"13\": {\"I\": 1.0}, \"14\": {\"I\": 1.0}, \"15\": {\"Rb\": 1.0}, \"16\": {\"Ge\": 1.0}, \"17\": {\"I\": 1.0}, \"18\": {\"I\": 1.0}, \"19\": {\"I\": 1.0}, \"20\": {\"Rb\": 1.0}, \"21\": {\"Ge\": 1.0}, \"22\": {\"I\": 1.0}, \"23\": {\"I\": 1.0}, \"24\": {\"I\": 1.0}, \"25\": {\"Rb\": 1.0}, \"26\": {\"Sn\": 1.0}, \"27\": {\"I\": 1.0}, \"28\": {\"I\": 1.0}, \"29\": {\"I\": 1.0}, \"30\": {\"Rb\": 1.0}, \"31\": {\"Ge\": 1.0}, \"32\": {\"I\": 1.0}, \"33\": {\"I\": 1.0}, \"34\": {\"I\": 1.0}, \"35\": {\"Rb\": 1.0}, \"36\": {\"Sn\": 1.0}, \"37\": {\"I\": 1.0}, \"38\": {\"I\": 1.0}, \"39\": {\"I\": 1.0}}" candidate_id=eb6af6805e0a9e8d formula=RbGe0.49Sn0.51I3 config_index=3 rattle_stdev=0.08 method=PBE fidelity=phase2_force energy=-109.35107715049335 stress="-0.003862229663502955 8.853772899902617e-05 2.7146263115350397e-05 8.853772899902617e-05 -0.004309329392438564 -4.494028965317793e-05 2.7146263115350397e-05 -4.494028965317793e-05 -0.003556551838682626" pbc="T T T"
Rb      -0.10568348      12.16186475       0.14539459        0       0.04085586       0.06520881      -0.00183498
Sn       3.01576971       3.04225830       3.11229187        1      -0.29121136      -0.26934552      -0.87013366
I        2.98025552       3.07785412      -0.05894324        2       0.02699076       0.00762795      -0.05338007
I        3.14717990      12.03201798       2.93105763        3       0.02022585      -0.09002458       0.00860153
I       11.99816466       2.90585383       2.93313061        4       0.32295629       0.07604623       0.03526652
Rb      -0.01794374      11.93247963       5.86900833        5      -0.01460942       0.02887148      -0.00114232
Sn       3.05583706       2.83111304       8.97296279        6      -0.04021706       0.36251167       0.56595233
I        2.97784458       2.83978644       5.96587197        7      -0.05556430      -0.04008816       0.47237400
I        3.08787320      11.94732755       9.04335269        8      -0.06656482       0.61772453       0.03642571
I       -0.12018966       2.94036529       9.28792068        9       0.53986175       0.03758277       0.01129324
Rb      12.10099137       6.28437953      -0.00280562       10       0.03177158      -0.07309364      -0.02520266
Ge       2.99548623       9.01062574       2.97111086       11      -0.04888258       0.29220838      -0.10164415
I        3.14724889       9.08816021      -0.04679403       12      -0.08655928      -0.05968422       0.51621410
I        3.02177640       6.10886812       3.15665790       13      -0.02039775       0.17098438       0.00308988
I       11.99932777       9.15926783       3.00799919       14       0.93549496      -0.10676527       0.03165017
Rb      12.07843775       6.22640852       5.87688426       15      -0.02725737      -0.00554121       0.01955399
Ge       3.07899904       9.13719412       9.07688224       16      -0.07810060      -0.62823871      -0.07864768
I        3.16103492       9.12392926       6.15768262       17      -0.03534028       0.01727699      -0.38222103
I        3.09330185       6.21745634       9.06016098       18      -0.02293160      -0.38163487      -0.03361764
I        0.07873896       8.97979627       9.10060815       19      -0.24644527       0.03126918       0.01624819
Rb       6.16547151      11.97929070       0.08944547       20      -0.03616902       0.02479491      -0.00085915
Ge       8.95262727       2.91230457       3.00410263       21       0.33905600       0.19772479      -0.02286192
I        9.07119173       3.09241391       0.14388171       22      -0.09007490      -0.03409289      -0.21404258
I        9.29613710      12.11822968       2.95445779       23      -0.19325204      -0.17631155       0.04213506
I        6.12076843       3.10320666       3.07507721       24      -0.16552063      -0.06572009       0.02854741
Rb       6.09185786      12.04229179       5.95487688       25       0.00632874      -0.02422771       0.00579064
Sn       9.12252111       3.00430125       9.04914406       26      -0.18402185      -0.04785271      -0.06794810
I        9.22787909       2.96649288       5.94987109       27      -0.01708010      -0.01339933       0.27720127
I        9.11105435      12.27340150       9.01223849       28      -0.04619932      -1.17098560       0.06320990
I        6.03766863       3.00165734       9.15133241       29      -0.17258588      -0.02687945      -0.04805867
Rb       6.02338722       6.21834620       0.21096585       30      -0.00892049      -0.04632101      -0.04730855
Ge       9.13754292       9.08848668       3.09597594       31      -0.18781530      -0.15434715       0.15283832
I        9.12236059       9.07140522       0.14444788       32       0.03558353      -0.01938183      -0.07528275
I        9.03266034       5.96740277       3.17492722       33       0.09910488       0.23677136      -0.02571404
I        6.30311285       9.05268744       2.97384655       34      -0.73205749       0.05442905       0.04925857
Rb       6.15400618       6.30430345       5.93911738       35       0.00444758       0.00912428       0.03067027
Sn       9.10534967       9.05062375       9.25668939       36       0.08699420       0.02572761      -0.25348419
I        9.06829753       9.08208672       6.09195479       37       0.01516324       0.02439508      -0.07415332
I        9.05206292       5.89278187       9.15501362       38      -0.02021808       1.13662893       0.00655134
I        5.94093524       9.12318465       9.19429763       39       0.38623399       0.01000919       0.00568555
