Cs Pb I  Cs Pb I  Cs Pb Cl I  Cs Pb I  Cl I  Cs Pb I  Cl Cs Pb I  Cs Pb I  Cl I  Cs Pb I 
 1.0000000000000000
    13.2861121544265153    0.0000000000000000    0.0000000000000000
     0.0000000000000000   13.2861121544265153    0.0000000000000000
     0.0000000000000000    0.0000000000000000   13.2861121544265153
 Cs  Pb  I   Cs  Pb  I   Cs  Pb  Cl  I   Cs  Pb  I   Cl  I   Cs  Pb  I   Cl  Cs  Pb  I   Cs  Pb  I   Cl  I   Cs  Pb  I  
   1   1   3   1   1   3   1   1   1   2   1   1   1   1   1   1   1   2   1   1   1   3   1   1   1   1   1   1   1   3
Cartesian
  0.0000000000000000  0.0000000000000000  0.0000000000000000
  3.3215280386066279  3.3215280386066279  3.3215280386066279
  3.3215280386066279  3.3215280386066279  0.0000000000000000
  3.3215280386066279  0.0000000000000000  3.3215280386066279
  0.0000000000000000  3.3215280386066279  3.3215280386066279
  0.0000000000000000  0.0000000000000000  6.6430560772132567
  3.3215280386066279  3.3215280386066279  9.9645841158198856
  3.3215280386066279  3.3215280386066279  6.6430560772132567
  3.3215280386066279  0.0000000000000000  9.9645841158198856
  0.0000000000000000  3.3215280386066279  9.9645841158198856
  0.0000000000000000  6.6430560772132567  0.0000000000000000
  3.3215280386066279  9.9645841158198856  3.3215280386066279
  3.3215280386066279  9.9645841158198856  0.0000000000000000
  3.3215280386066279  6.6430560772132567  3.3215280386066279
  0.0000000000000000  9.9645841158198856  3.3215280386066279
  0.0000000000000000  6.6430560772132567  6.6430560772132567
  3.3215280386066279  9.9645841158198856  9.9645841158198856
  3.3215280386066279  9.9645841158198856  6.6430560772132567
  3.3215280386066279  6.6430560772132567  9.9645841158198856
  0.0000000000000000  9.9645841158198856  9.9645841158198856
  6.6430560772132567  0.0000000000000000  0.0000000000000000
  9.9645841158198856  3.3215280386066279  3.3215280386066279
  9.9645841158198856  3.3215280386066279  0.0000000000000000
  9.9645841158198856  0.0000000000000000  3.3215280386066279
  6.6430560772132567  3.3215280386066279  3.3215280386066279
  6.6430560772132567  0.0000000000000000  6.6430560772132567
  9.9645841158198856  3.3215280386066279  9.9645841158198856
  9.9645841158198856  3.3215280386066279  6.6430560772132567
  9.9645841158198856  0.0000000000000000  9.9645841158198856
  6.6430560772132567  3.3215280386066279  9.9645841158198856
  6.6430560772132567  6.6430560772132567  0.0000000000000000
  9.9645841158198856  9.9645841158198856  3.3215280386066279
  9.9645841158198856  9.9645841158198856  0.0000000000000000
  9.9645841158198856  6.6430560772132567  3.3215280386066279
  6.6430560772132567  9.9645841158198856  3.3215280386066279
  6.6430560772132567  6.6430560772132567  6.6430560772132567
  9.9645841158198856  9.9645841158198856  9.9645841158198856
  9.9645841158198856  9.9645841158198856  6.6430560772132567
  9.9645841158198856  6.6430560772132567  9.9645841158198856
  6.6430560772132567  9.9645841158198856  9.9645841158198856
