40
Lattice="12.27250361746514 0.0 0.0 0.030169150746812288 12.257070679510006 0.0 -0.00811646880084419 0.007934745925438675 12.370919962125008" Properties=species:S:1:pos:R:3:spacegroup_kinds:I:1:forces:R:3 spacegroup="P 1" unit_cell=conventional candidate_id=7ee22ed1e3ea0489 formula=FASnBr0.11Cl0.2I0.693 config_index=0 rattle_stdev=0.0 method=PBE fidelity=phase2_force energy=-118.32003140512055 stress="0.00041961147986331636 -3.5087653683364495e-05 1.6900612273242476e-05 -3.5087653683364495e-05 0.0007181736688800898 -4.5998131882188996e-05 1.6900612273242476e-05 -4.5998131882188996e-05 -0.0016906609951358304" pbc="T T T"
Cs      12.27197691       0.03171313       0.10157550        0      -0.00620835       0.00694888      -0.00861555
Sn       3.39092107       3.22098656       3.07414553        1      -0.09299610       0.01695530      -0.02158461
I        3.16955302       3.20712547       0.01640313        2      -0.01674813      -0.00349184      -0.09055314
I        3.24742825      12.19570070       2.99655381        3       0.00903283       0.06543145      -0.00908110
I       12.16476542       3.24167865       3.09409578        4      -0.03965783       0.02442226      -0.00173148
Cs       0.05883974      12.25564048       6.06133990        5      -0.00578316       0.00406291       0.00143214
Sn       3.08203093       3.39651823       9.27790877        6       0.03179703      -0.13138072       0.00628261
I        3.15341461       3.22094765       6.14787178        7      -0.01051993      -0.00798038       0.09527371
I        3.18239723      12.08302586       9.43203968        8       0.00642886      -0.01141326       0.04125376
I        0.02477229       3.13381660       9.27518732        9      -0.13514313      -0.01401581      -0.00149933
Cs       0.07471192       6.11634308       0.04699837       10       0.00484222      -0.00271472      -0.01596742
Sn       3.21023104       9.06601469       2.79041616       11      -0.01279686       0.01124413       0.07305865
Cl       3.26921241       8.99430694       0.16349018       12       0.02182495      -0.03388148       0.06637919
Br       3.22788261       6.10460368       3.00906232       13       0.02731909      -0.04727126       0.00309940
I        0.09203185       9.03902695       2.99725036       14      -0.06366988      -0.00425801      -0.01402271
Cs       0.08475382       6.15782937       6.11238036       15       0.00603496      -0.00056740       0.01658712
Sn       3.19023502       9.05044255       9.43556623       16      -0.07643645       0.19115328      -0.20148026
I        3.19187405       9.05990262       6.36559398       17       0.00523687      -0.03014179       0.00004166
Cl       3.10819393       5.97670674       9.32967691       18      -0.00916762       0.06691142       0.01978414
I        0.12066404       9.09599781       9.40814996       19      -0.03891785      -0.03133096       0.03677285
Cs       6.17169244      12.19801399       0.01874228       20       0.00300186      -0.01184984      -0.01892133
Sn       9.00162032       3.27137589       3.09182586       21       0.23058328      -0.23983888       0.00036331
I        9.10853603       3.17025958       0.03002095       22      -0.00918761       0.00822539      -0.14252635
I        9.02767060       0.11281079       3.09567794       23      -0.02796628       0.03868250      -0.00151749
Cl       6.05656696       3.34171674       3.08391578       24      -0.05041636       0.02079402       0.00493327
Cs       6.12347255      12.16953858       6.15386483       25       0.00323868      -0.01292038       0.02211405
Sn       9.18247385       3.09341487       9.27442482       26      -0.01447888       0.03661702      -0.00515524
I        9.11242962       3.16514633       6.15448227       27      -0.01134548       0.01101277       0.14008007
I        9.17499579      12.25323460       9.27527560       28       0.01749505       0.08082371      -0.00113738
I        6.10756343       3.14468244       9.27211284       29       0.13190177      -0.02582278      -0.00750772
Cs       6.10073661       6.19236412       0.10484981       30      -0.00215981       0.00390965       0.00309932
Sn       9.06513292       8.88358501       3.07600938       31      -0.00317984       0.09801063      -0.02117726
I        9.09111486       9.09276087       0.02446166       32       0.01320132       0.01991306      -0.12526066
Cl       8.94460133       6.21350918       3.08583904       33      -0.02052302       0.05458039       0.00732177
Br       6.19028402       9.04148399       3.01105090       34       0.03951441      -0.02817622       0.00671590
Cs       6.12932718       6.17219246       6.03330250       35       0.00511770      -0.00400379      -0.00986333
Sn       9.06574801       9.18590087       9.28121005       36       0.02905339      -0.03345602       0.00244296
I        9.09246261       9.11113136       6.14356500       37       0.02152850       0.01355887       0.13006823
I        9.13952175       6.15499421       9.27254276       38       0.01739976      -0.08630807      -0.00810115
Br       6.23708190       9.16606726       9.31583909       39       0.01402553      -0.01077602       0.02631997
40
Lattice="12.27250361746514 0.0 0.0 0.030169150746812288 12.257070679510006 0.0 -0.00811646880084419 0.007934745925438675 12.370919962125008" Properties=species:S:1:pos:R:3:spacegroup_kinds:I:1:forces:R:3 spacegroup="P 1" unit_cell=conventional candidate_id=7ee22ed1e3ea0489 formula=FASnBr0.11Cl0.2I0.693 config_index=1 rattle_stdev=0.08 method=PBE fidelity=phase2_force energy=-117.73021202601913 stress="-0.0006986494546985473 -0.00014098183300020984 -2.8772629640235385e-05 -0.00014098183300020984 -0.00018089531210179478 -1.1320860654484793e-05 -2.8772629640235385e-05 -1.1320860654484793e-05 -0.004566039515975507" pbc="T T T"
Cs      12.18506120      -0.03997208       0.07707155        0      -0.02559583       0.04721739       0.00266173
Sn       3.28372637       3.12445971       3.02280739        1       0.26593248       0.26304928       0.25547848
I        3.27418867       3.35476231       0.08273232        2      -0.12076816      -0.13067381      -0.17085516
I        3.24556434      12.17901558       2.92322423        3      -0.01674238       0.17279933       0.00313296
I       12.07878601       3.23478717       3.18816286        4       0.43846268       0.04913158       0.00892266
Cs      -0.07196760      12.35389600       6.14745080        5       0.03113373       0.04134610      -0.03056287
Sn       3.11361276       3.36550217       9.32498091        6       0.07905804      -0.41851678      -0.15087213
I        3.03875070       3.19506168       6.24811056        7       0.04113382       0.01953984      -0.06684072
I        3.12393782      12.19730466       9.50761199        8       0.00736324      -0.32748217      -0.03646596
I        0.00365207       3.12075954       9.19805874        9      -0.02292659      -0.01888641       0.02445088
Cs       0.04730013       6.12025541       0.00702781       10      -0.01398076      -0.04141470       0.00381727
Sn       3.03327868       9.09080164       2.66324406       11       0.85703387      -0.24553312       0.17013472
Cl       3.32756878       8.98567484       0.11147646       12      -0.10292898      -0.01688540      -0.09027204
Br       3.09243809       6.07512576       2.88183259       13       0.00292825      -0.03089729       0.10136294
I        0.21047232       9.07698216       3.07035947       14      -0.83120655       0.00788106      -0.00751348
Cs       0.16159144       6.16459277       6.24975883       15       0.00475028      -0.03905254      -0.00143418
Sn       3.25838644       8.99005172       9.25255589       16       0.17105432       0.42098649       0.27228631
I        3.20061315       9.02388997       6.33255619       17      -0.01463438       0.00209121      -0.22756829
Cl       3.13371264       5.93341810       9.40557023       18      -0.02643363       0.42836318      -0.04052559
I        0.13277884       9.10215001       9.40339792       19      -0.00081804      -0.01515367      -0.00739193
Cs       6.16608134      12.15272207       0.04362271       20       0.01313426       0.00240257      -0.02175459
Sn       9.05955702       3.31269189       3.17390832       21      -0.19015318      -0.37557068      -0.62008228
I        9.15014824       3.10067250       0.15006616       22       0.02447354       0.05630873      -0.56710564
I        9.12098837       0.15216395       3.03709697       23      -0.04358667      -0.02560885       0.15212082
Cl       6.11099145       3.38243648       3.01691289       24      -0.42658852      -0.01603607       0.06862082
Cs       6.17528414      12.17054174       6.27863196       25      -0.04335024      -0.00231533       0.00060835
Sn       9.26524148       3.12043028       9.17021598       26      -0.17478131       0.32706241       0.30596106
I        9.02294608       3.26990754       6.11302491       27      -0.02625682      -0.05104942       0.65876325
I        9.14354584      12.33667208       9.28125281       28       0.03358370      -0.10824538      -0.03572889
I        6.11471839       3.14899503       9.30558860       29       0.10486118      -0.00346919      -0.01943007
Cs       6.00251821       6.10520080       0.13021976       30       0.08766288       0.05033287       0.03717013
Sn       9.00270048       8.81509452       2.97041966       31      -0.16539015       0.33192801       0.34982501
I        9.12741739       9.17290286       0.13756044       32       0.02091038      -0.01739231      -0.50621235
Cl       8.92938670       6.21591802       2.93596570       33      -0.01132915      -0.02804338      -0.00889341
Br       6.18094186       9.03128476       3.08322564       34       0.26770425      -0.06404934      -0.00256464
Cs       6.02417740       6.16422840       6.04454648       35       0.01005859      -0.04280740      -0.04020751
Sn       9.27605249       9.32636317       9.07035822       36      -0.25046684      -0.38765089       0.81910811
I        8.98953105       9.09739358       6.28760130       37       0.06837326       0.07632001      -0.70529723
I        9.18821740       6.15751626       9.15522978       38       0.01799230       0.12179176       0.09432015
Br       6.26183716       9.25744469       9.27497156       39      -0.04096363      -0.00809635       0.03300626
40
Lattice="12.27250361746514 0.0 0.0 0.030169150746812288 12.257070679510006 0.0 -0.00811646880084419 0.007934745925438675 12.370919962125008" Properties=species:S:1:pos:R:3:spacegroup_kinds:I:1:forces:R:3 spacegroup="P 1" unit_cell=conventional candidate_id=7ee22ed1e3ea0489 formula=FASnBr0.11Cl0.2I0.693 config_index=2 rattle_stdev=0.08 method=PBE fidelity=phase2_force energy=-117.8065725980602 stress="-0.0003242074735831674 5.067666917985638e-05 6.128083942343347e-05 5.067666917985638e-05 -0.002321434188315051 0.00010184634344402847 6.128083942343347e-05 0.00010184634344402847 -0.0027488048098944944" pbc="T T T"
Cs      12.26295987      -0.05441199       0.24437766        0      -0.00410561       0.02352763      -0.05495582
Sn       3.27436240       3.19488089       2.97335381        1       0.09190735       0.24104049       0.26900640
I        3.19962234       3.13687368      -0.01159493        2      -0.05402484       0.04009529      -0.13808492
I        3.27116106      12.29177365       2.87103419        3      -0.03854793      -0.39806356       0.02918965
I       12.31308772       3.28119559       3.08363886        4      -0.27097026      -0.03301447      -0.04622485
Cs       0.02659008      12.17774750       6.02394256        5      -0.02201976       0.00987697       0.02978747
Sn       3.02459722       3.49422970       9.21573277        6       0.49431154      -0.81328390      -0.06046344
I        3.10633256       3.21633814       6.15423818        7       0.00100781      -0.07599156       0.02230895
I        3.08774114      11.95912646       9.50502017        8       0.01201651       0.81653880       0.04825535
I        0.05778595       3.07815508       9.09208557        9      -0.32301555      -0.00540209       0.04107874
Cs       0.01173260       6.03406175       0.05446302       10       0.03375078       0.00580107      -0.02375649
Sn       3.16789551       9.12843428       2.77435098       11       0.17366523      -0.17048715       0.00876662
Cl       3.23076372       8.91148597       0.12327143       12       0.01678069      -0.00107879       0.35023022
Br       3.29107383       6.03060387       3.18586515       13      -0.05367612       0.36351203      -0.11134565
I       -0.01998704       9.01989916       3.01463762       14       0.31269835       0.00295960      -0.02075220
Cs       0.05656300       6.16469941       6.12091251       15       0.00187828      -0.00152036       0.00915444
Sn       3.17447252       9.15819726       9.46318015       16      -0.00974432      -0.66261407      -0.10061942
I        3.23648561       9.01227980       6.42422056       17      -0.03531484       0.06159574      -0.26183168
Cl       3.21469415       5.91830410       9.29081645       18      -0.05195698       0.68879297       0.04179026
I        0.20681718       8.88836922       9.42150421       19      -0.19007350      -0.01115102       0.04462603
Cs       6.25480921      12.05332808       0.07943356       20      -0.02362016       0.02866865      -0.04738174
Sn       8.96161129       3.08383244       3.08319245       21       0.00887699       0.12048986       0.15731387
I        8.98831301       3.20936187      -0.01423333       22       0.07011235       0.03216516       0.01059823
I        9.11227120       0.04326536       3.08967066       23      -0.02075489       0.05517685      -0.01472100
Cl       6.04799456       3.50962250       3.05667275       24       0.19905290      -0.16796525      -0.03911805
Cs       6.08124014      12.06596924       6.17099275       25       0.02921200      -0.00390311       0.02872466
Sn       9.27257542       3.12553774       9.33567164       26      -0.38366660      -0.04714882      -0.20606768
I        9.00417942       3.21105501       6.13687130       27       0.04108551      -0.06391194       0.03086381
I        9.22661090      12.17285705       9.42725468       28       0.05145109       0.59581436       0.00779665
I        6.12491230       3.18468007       9.22198556       29       0.14037369      -0.09533679       0.00070116
Cs       6.02050587       6.12985931       0.12119203       30      -0.01341197      -0.02424188       0.04094249
Sn       9.10802028       8.79758521       2.89858099       31      -0.28998821      -0.00594746       0.81093905
I        9.14286928       9.06697401       0.01065653       32       0.01472788      -0.03860005      -0.17135185
Cl       8.76152759       6.20454567       3.16226414       33       0.09055087       0.02942747      -0.12859246
Br       6.22666307       9.20643819       3.01604774       34      -0.25356232       0.00622514      -0.09307762
Cs       6.12955457       6.13590815       6.06318110       35       0.00489427      -0.02450391      -0.05075574
Sn       9.00069873       9.17777627       9.31686710       36       0.34949254       0.10018099      -0.47108792
I        8.99045232       9.11975790       6.21174395       37       0.09550746       0.10602840      -0.08891524
I        9.12697358       6.25009975       9.15476168       38       0.09832432      -0.75520594       0.04361940
Br       6.30636517       9.09459610       9.27192145       39      -0.29261829       0.06310323       0.10968706
40
Lattice="12.27250361746514 0.0 0.0 0.030169150746812288 12.257070679510006 0.0 -0.00811646880084419 0.007934745925438675 12.370919962125008" Properties=species:S:1:pos:R:3:spacegroup_kinds:I:1:forces:R:3 spacegroup="P 1" unit_cell=conventional candidate_id=7ee22ed1e3ea0489 formula=FASnBr0.11Cl0.2I0.693 config_index=3 rattle_stdev=0.08 method=PBE fidelity=phase2_force energy=-117.64060391293823 stress="-0.0007589922630666505 0.00012526043057536736 5.412114887720034e-06 0.00012526043057536736 -2.8191232417738628e-05 0.00011432357819058922 5.412114887720034e-06 0.00011432357819058922 -0.0027984327791599527" pbc="T T T"
Cs      12.16629343       0.19305336       0.10538066        0       0.03049749       0.04120819       0.01674505
Sn       3.37190737       3.22771637       3.15090891        1      -0.28719018      -0.24815107      -0.76906509
I        3.11502514       3.24945110      -0.04559033        2      -0.00182263      -0.00926033      -0.15166145
I        3.35982474      12.17772626       2.89208296        3       0.00958786      -0.14597197       0.01860810
I       12.11048260       3.11200399       2.99169789        4       0.05056768       0.10889258       0.05771638
Cs       0.04089600      12.18759560       6.00088070        5      -0.03023699       0.02034561      -0.02011054
Sn       3.10308460       3.19210279       9.14428610        6      -0.00671297       0.54792431       0.53365411
I        3.09647579       3.02520560       6.04573700        7      -0.04033676      -0.03481254       0.48053996
I        3.23548703      11.98071914       9.36880690        8      -0.04470433       0.72932345       0.06102825
I       -0.09541737       3.03865340       9.45652253        9       0.27335731       0.00988565      -0.02871406
Cs       0.03656969       6.18807621      -0.09739669       10       0.03682052      -0.10235284      -0.00691102
Sn       3.17093387       8.97005496       2.72599853       11      -0.05019290       0.36168835      -0.00202469
Cl       3.38167790       8.97588169       0.10639446       12      -0.03830605      -0.09931707       0.39177805
Br       3.21487561       6.05029329       3.13019174       13      -0.00544248       0.18561497       0.02098506
I       -0.04777397       9.09170931       2.96972106       14       0.74906701      -0.03693554      -0.03216462
Cs       0.02405797       6.17159147       6.05979708       15      -0.00925270      -0.01812195       0.01977606
Sn       3.23445066       9.08105121       9.40586300       16      -0.11255856      -0.58441544       0.07628497
I        3.31812557       9.07724642       6.46252132       17      -0.03684233      -0.03275108      -0.50611620
Cl       3.16671238       6.03062642       9.28325242       18      -0.03107174      -0.52646655      -0.07219059
I        0.11271687       8.96920862       9.40217264       19      -0.17884707       0.03586542      -0.01087050
Cs       6.26759715      12.17678018      -0.03340169       20      -0.04113530       0.00332889      -0.02168788
Sn       8.84989739       3.14815197       3.06040000       21       0.48864471       0.09962770       0.04100016
I        9.07537756       3.22714500       0.08142298       22      -0.07368427      -0.01037522      -0.32514333
I        9.21945751       0.09922821       3.01460725       23      -0.16531959      -0.26496418       0.02892784
Cl       6.02108246       3.40939491       3.12346451       24      -0.01775068      -0.02204944       0.04826490
Cs       6.14576361      12.21130586       6.17927417       25       0.02059722      -0.04194317       0.02122544
Sn       9.20064476       3.06218763       9.21698341       26      -0.07960854      -0.06308070      -0.00523467
I        9.23595851       3.09611072       6.12577606       27      -0.01100393       0.02073875       0.28350103
I        9.18169993      12.38757236       9.18092862       28      -0.01508920      -0.91041456       0.05611756
I        6.07566526       3.11081129       9.31685979       29      -0.06498549      -0.04791640      -0.06007982
Cs       6.05455703       6.19806392       0.17422622       30      -0.01109020      -0.04300324      -0.05647933
Sn       9.09832564       8.86548623       3.13645683       31       0.13899749      -0.20035699       0.19707990
I        9.10912525       9.05758063       0.07678800       32       0.04646522       0.01564340      -0.07839241
Cl       8.87291147       6.09955329       3.22523777       33       0.05013666       0.26019553      -0.00561571
Br       6.42383006       8.98758597       2.94936896       34      -0.88972892       0.04668681       0.03191776
Cs       6.21376656       6.26384950       6.04295234       35       0.00593369      -0.04670390       0.00950827
Sn       9.06674748       9.12993915       9.43131398       36       0.08186263      -0.02439034      -0.27974765
I        9.05640994       9.08663261       6.25658435       37       0.04069622       0.04031787      -0.00720818
I        9.08723446       5.97366889       9.32097091       38      -0.01083504       1.00324698      -0.00844264
Br       6.19513646       9.18266644       9.40355126       39       0.22928691      -0.01765041       0.06363685
