40
Lattice="12.565169418117087 0.0 0.0 0.0 12.565169418116962 0.0 -4.81066143309171e-15 1.1795057405443128e-13 12.565169418117051" Properties=species:S:1:pos:R:3:spacegroup_kinds:I:1:forces:R:3 spacegroup="P 1" unit_cell=conventional candidate_id=4754b89461d244cb formula=MAGe0.053Sn0.95I3 config_index=0 rattle_stdev=0.0 method=PBE fidelity=phase2_force energy=-112.4258681820904 stress="0.0005302308885686232 -4.715486301092561e-32 2.0300253831792104e-19 -4.715486301092561e-32 0.0005302308885686341 -4.977333421217871e-18 2.0300253831792104e-19 -4.977333421217871e-18 0.000530230888568627" pbc="T T T"
Cs      12.56516942      12.56516942      12.56516942        0       0.00000000       0.00000000       0.00000000
Sn       3.14129235       3.14129235       3.14129235        1       0.00023476       0.00023476       0.00023476
I        3.14129235       3.14129235      12.56516942        2       0.00000342       0.00000342      -0.00000000
I        3.14129235      12.56516942       3.14129235        3       0.00000342       0.00000000       0.00000342
I       12.56516942       3.14129235       3.14129235        4      -0.00000000       0.00000342       0.00000342
Cs      12.56516942      12.56516942       6.28258471        5      -0.00000000      -0.00000000      -0.00000000
Sn       3.14129235       3.14129235       9.42387706        6       0.00023476       0.00023476      -0.00023476
I        3.14129235       3.14129235       6.28258471        7       0.00001536       0.00001536      -0.00000000
I        3.14129235      12.56516942       9.42387706        8       0.00000342      -0.00000000      -0.00000342
I       12.56516942       3.14129235       9.42387706        9       0.00000000       0.00000342      -0.00000342
Cs      12.56516942       6.28258471      12.56516942       10      -0.00000000      -0.00000000      -0.00000000
Sn       3.14129235       9.42387706       3.14129235       11       0.00023476      -0.00023476       0.00023476
I        3.14129235       9.42387706      12.56516942       12       0.00000342      -0.00000342       0.00000000
I        3.14129235       6.28258471       3.14129235       13       0.00001536       0.00000000       0.00001536
I       12.56516942       9.42387706       3.14129235       14      -0.00000000      -0.00000342       0.00000342
Cs      12.56516942       6.28258471       6.28258471       15       0.00000000      -0.00000000       0.00000000
Sn       3.14129235       9.42387706       9.42387706       16       0.00023476      -0.00023476      -0.00023476
I        3.14129235       9.42387706       6.28258471       17       0.00001536      -0.00001536       0.00000000
I        3.14129235       6.28258471       9.42387706       18       0.00001536      -0.00000000      -0.00001536
I       12.56516942       9.42387706       9.42387706       19       0.00000000      -0.00000342      -0.00000342
Cs       6.28258471      12.56516942      12.56516942       20      -0.00000000       0.00000000       0.00000000
Sn       9.42387706       3.14129235       3.14129235       21      -0.00023476       0.00023476       0.00023476
I        9.42387706       3.14129235      12.56516942       22      -0.00000342       0.00000342      -0.00000000
I        9.42387706      12.56516942       3.14129235       23      -0.00000342       0.00000000       0.00000342
I        6.28258471       3.14129235       3.14129235       24      -0.00000000       0.00001536       0.00001536
Cs       6.28258471      12.56516942       6.28258471       25       0.00000000       0.00000000       0.00000000
Sn       9.42387706       3.14129235       9.42387706       26      -0.00023476       0.00023476      -0.00023476
I        9.42387706       3.14129235       6.28258471       27      -0.00001536       0.00001536       0.00000000
I        9.42387706      12.56516942       9.42387706       28      -0.00000342      -0.00000000      -0.00000342
I        6.28258471       3.14129235       9.42387706       29       0.00000000       0.00001536      -0.00001536
Cs       6.28258471       6.28258471      12.56516942       30       0.00000000      -0.00000000       0.00000000
Sn       9.42387706       9.42387706       3.14129235       31      -0.00023476      -0.00023476       0.00023476
I        9.42387706       9.42387706      12.56516942       32      -0.00000342      -0.00000342      -0.00000000
I        9.42387706       6.28258471       3.14129235       33      -0.00001536       0.00000000       0.00001536
I        6.28258471       9.42387706       3.14129235       34      -0.00000000      -0.00001536       0.00001536
Cs       6.28258471       6.28258471       6.28258471       35      -0.00000000       0.00000000       0.00000000
Sn       9.42387706       9.42387706       9.42387706       36      -0.00023476      -0.00023476      -0.00023476
I        9.42387706       9.42387706       6.28258471       37      -0.00001536      -0.00001536       0.00000000
I        9.42387706       6.28258471       9.42387706       38      -0.00001536      -0.00000000      -0.00001536
I        6.28258471       9.42387706       9.42387706       39       0.00000000      -0.00001536      -0.00001536
