40
Lattice="11.71033569853775 0.0 0.0 -0.11150631110266339 11.505598664374293 0.0 -0.05110045555769431 -0.12773213351427049 11.921298729298847" Properties=species:S:1:pos:R:3:spacegroup_kinds:I:1:forces:R:3 spacegroup="P 1" unit_cell=conventional occupancy="_JSON {\"0\": {\"Cs\": 1.0}, \"1\": {\"Pb\": 1.0}, \"2\": {\"I\": 1.0}, \"3\": {\"Cl\": 1.0}, \"4\": {\"Cl\": 1.0}, \"5\": {\"Cs\": 1.0}, \"6\": {\"Pb\": 1.0}, \"7\": {\"Cl\": 1.0}, \"8\": {\"Cl\": 1.0}, \"9\": {\"Cl\": 1.0}, \"10\": {\"Cs\": 1.0}, \"11\": {\"Pb\": 1.0}, \"12\": {\"Cl\": 1.0}, \"13\": {\"Cl\": 1.0}, \"14\": {\"I\": 1.0}, \"15\": {\"Cs\": 1.0}, \"16\": {\"Pb\": 1.0}, \"17\": {\"I\": 1.0}, \"18\": {\"Cl\": 1.0}, \"19\": {\"I\": 1.0}, \"20\": {\"Cs\": 1.0}, \"21\": {\"Pb\": 1.0}, \"22\": {\"Cl\": 1.0}, \"23\": {\"Cl\": 1.0}, \"24\": {\"Cl\": 1.0}, \"25\": {\"Cs\": 1.0}, \"26\": {\"Pb\": 1.0}, \"27\": {\"Cl\": 1.0}, \"28\": {\"I\": 1.0}, \"29\": {\"Cl\": 1.0}, \"30\": {\"Cs\": 1.0}, \"31\": {\"Pb\": 1.0}, \"32\": {\"I\": 1.0}, \"33\": {\"Cl\": 1.0}, \"34\": {\"Cl\": 1.0}, \"35\": {\"Cs\": 1.0}, \"36\": {\"Pb\": 1.0}, \"37\": {\"Cl\": 1.0}, \"38\": {\"Cl\": 1.0}, \"39\": {\"Cl\": 1.0}}" candidate_id=983250d76f7c8e34 formula=MAPbCl0.75I0.253 config_index=0 rattle_stdev=0.0 method=PBE fidelity=phase2_force energy=-133.98658818422615 stress="0.0010495055988124036 4.1071850199311215e-05 -0.00019616901535558955 4.1071850199311215e-05 0.0015456189307406247 0.0001733934730765017 -0.00019616901535558955 0.0001733934730765017 0.0013355492313366331" pbc="T T T"
Cs      11.22032141      11.23922138      11.81947062        0      -0.01829258       0.02747689      -0.04935680
Pb       2.96011270       2.87144648       3.15258968        1      -0.00763026      -0.01187940       0.06363734
I        2.68096574       2.33761114       0.03652952        2      -0.03538401       0.01051508      -0.00024890
Cl       2.74019178       0.08759574       3.58924911        3       0.00390033       0.06861583      -0.00892173
Cl      -0.04261218       3.31063330       3.30060176        4      -0.01184217      -0.06048722       0.02146757
Cs      11.55664040       0.38232439       5.65606363        5      -0.02145434      -0.01743391      -0.01830059
Pb       3.01237245       2.79384721       8.85222522        6       0.01609647       0.04262125      -0.05011914
Cl       3.14339665       3.33876005       5.99999683        7       0.00102083      -0.07260909       0.00936449
Cl       3.44744679      11.39884466       8.63282708        8       0.01335922       0.03188279       0.01327542
Cl      11.59351298       2.40585060       8.70610931        9       0.03356558       0.05613952      -0.03029347
Cs       0.26317543       5.48654325       0.25482643       10       0.00385781       0.05268817       0.01395905
Pb       2.92344230       8.59631639       2.83909200       11       0.00563043       0.03021617      -0.03465571
Cl       2.37327992       9.19999355       0.03490936       12       0.05063911      -0.03513914      -0.00090453
Cl       3.19012567       5.82431358       2.31110920       13       0.01257567      -0.00537500       0.01631875
I       11.55970115       8.22260708       3.64779256       14       0.01920885       0.01726663      -0.01997562
Cs       0.31253185       5.51300632       6.29388402       15      -0.00182322      -0.03610723       0.02780000
Pb       2.92162275       8.52770039       9.09779582       16      -0.02799457      -0.02174807       0.01865239
I        3.45720850       8.04470695       5.97807282       17       0.04980209      -0.00200608       0.01039173
Cl       2.32157444       5.61484286       9.31805477       18       0.02044038      -0.01198940       0.00932300
I       11.51175830       9.09237538       8.32442487       19       0.03255542      -0.01092810       0.03383581
Cs       5.37292711      11.17071134      11.87157674       20      -0.02515427      -0.01938359       0.01287763
Pb       8.77514650       2.86189140       3.01930039       21       0.04277365      -0.02639796       0.06969928
Cl       8.98508471       3.30882415      11.76144985       22       0.02296577      -0.04755800       0.02039824
Cl       9.16281494       0.03849996       2.72992479       23      -0.00493225       0.09013767       0.03140850
Cl       5.81576690       2.55695117       2.95558839       24       0.01027348      -0.00701329      -0.02944460
Cs       5.72767224      -0.01149392       5.72785616       25      -0.01009267       0.02012224      -0.01789553
Pb       8.83399311       2.97570536       8.98938508       26       0.04173674       0.03503753      -0.03366094
Cl       8.60156301       2.53611931       5.77386230       27      -0.01725983      -0.00475051      -0.05586673
I        8.06896227      -0.05829224       9.17650723       28      -0.00627722       0.02740614      -0.00719741
Cl       5.76323856       3.39216071       9.09165017       29      -0.05438027       0.00331964       0.00353604
Cs       6.04717809       5.50445074       0.21460830       30      -0.03785211       0.02838526      -0.00743578
Pb       8.45855530       8.57192395       3.15332922       31       0.00407965       0.01067877      -0.04822167
I        9.09888878       7.99678781      11.88930235       32      -0.03078108      -0.02212486       0.01108099
Cl       8.09054307       5.76609873       3.20564115       33      -0.00566088      -0.06539596      -0.01766292
Cl       5.70934923       9.12060353       2.54890146       34      -0.03490726      -0.00409055      -0.01643191
Cs       6.14146177       5.30624548       6.03088376       35       0.01912168       0.01327494       0.02032012
Pb       8.39735528       8.35058444       8.74718978       36       0.08812045      -0.02644198       0.02356023
Cl       7.83642898       8.74206484       5.93186723       37      -0.04932320       0.00697053      -0.02427988
Cl       9.07653878       5.67227317       8.07710664       38      -0.03299729      -0.05471694       0.01006979
Cl       5.66618300       7.96108131       9.68441896       39      -0.07028707      -0.00285161       0.02243792
40
Lattice="11.71033569853775 0.0 0.0 -0.11150631110266339 11.505598664374293 0.0 -0.05110045555769431 -0.12773213351427049 11.921298729298847" Properties=species:S:1:pos:R:3:spacegroup_kinds:I:1:forces:R:3 spacegroup="P 1" unit_cell=conventional occupancy="_JSON {\"0\": {\"Cs\": 1.0}, \"1\": {\"Pb\": 1.0}, \"2\": {\"I\": 1.0}, \"3\": {\"Cl\": 1.0}, \"4\": {\"Cl\": 1.0}, \"5\": {\"Cs\": 1.0}, \"6\": {\"Pb\": 1.0}, \"7\": {\"Cl\": 1.0}, \"8\": {\"Cl\": 1.0}, \"9\": {\"Cl\": 1.0}, \"10\": {\"Cs\": 1.0}, \"11\": {\"Pb\": 1.0}, \"12\": {\"Cl\": 1.0}, \"13\": {\"Cl\": 1.0}, \"14\": {\"I\": 1.0}, \"15\": {\"Cs\": 1.0}, \"16\": {\"Pb\": 1.0}, \"17\": {\"I\": 1.0}, \"18\": {\"Cl\": 1.0}, \"19\": {\"I\": 1.0}, \"20\": {\"Cs\": 1.0}, \"21\": {\"Pb\": 1.0}, \"22\": {\"Cl\": 1.0}, \"23\": {\"Cl\": 1.0}, \"24\": {\"Cl\": 1.0}, \"25\": {\"Cs\": 1.0}, \"26\": {\"Pb\": 1.0}, \"27\": {\"Cl\": 1.0}, \"28\": {\"I\": 1.0}, \"29\": {\"Cl\": 1.0}, \"30\": {\"Cs\": 1.0}, \"31\": {\"Pb\": 1.0}, \"32\": {\"I\": 1.0}, \"33\": {\"Cl\": 1.0}, \"34\": {\"Cl\": 1.0}, \"35\": {\"Cs\": 1.0}, \"36\": {\"Pb\": 1.0}, \"37\": {\"Cl\": 1.0}, \"38\": {\"Cl\": 1.0}, \"39\": {\"Cl\": 1.0}}" candidate_id=983250d76f7c8e34 formula=MAPbCl0.75I0.253 config_index=1 rattle_stdev=0.08 method=PBE fidelity=phase2_force energy=-133.35327405022352 stress="-0.0012992864589915331 -0.0001743350179079768 3.003870294106276e-05 -0.0001743350179079768 0.00016495858481949875 0.00027269616550166376 3.003870294106276e-05 0.00027269616550166376 -0.001723965195692455" pbc="T T T"
Cs      11.13340570      11.16753617      11.79496667        0       0.13063466       0.23000806      -0.01101609
Pb       2.85291801       2.77491963       3.10125153        1       0.31164583       0.29152158       0.40772693
I        2.78560139       2.48524798       0.10285871        2      -0.15265164      -0.19694130      -0.17107044
Cl       2.73832788       0.07091062       3.51591953        3      -0.06595181      -0.03681170       0.06027353
Cl      -0.12859158       3.30374182       3.39466884        4       0.38974973      -0.00004188       0.06124588
Cs      11.42583306       0.48057991       5.74217453        5       0.07690622      -0.09341734      -0.17480570
Pb       3.04395428       2.76283114       8.89929736        6       0.09285564       0.19619668      -0.22667557
Cl       3.02873275       3.31287407       6.10023561        7       0.08262471      -0.11853710      -0.09671135
Cl       3.38898738      11.51312347       8.70839940        8       0.06480417      -0.31896596      -0.08453295
Cl      11.57239275       2.39279353       8.62898073        9       0.13931236       0.04553011       0.02368207
Cs       0.23576365       5.49045557       0.21485588       10      -0.08288073       0.02403305       0.03489863
Pb       2.74648994       8.62110334       2.71191990       11       0.58751703      -0.13348499      -0.16337558
Cl       2.43163629       9.19136145      -0.01710435       12      -0.08962841       0.01123264      -0.00759587
Cl       3.05468115       5.79483566       2.18387946       13       0.00601310       0.14023996       0.15100193
I       11.67814161       8.26056229       3.72090167       14      -0.65001250      -0.03613437       0.10319434
Cs       0.38936947       5.51976973       6.43126250       15       0.03080665      -0.03387706      -0.11075942
Pb       2.98977417       8.46730957       8.91478548       16       0.29990328      -0.08509947       0.48547140
I        3.46594760       8.00869430       5.94503502       17       0.06819373       0.04551545      -0.13218435
Cl       2.34709314       5.57155423       9.39394809       18       0.01865016       0.29403910      -0.07032629
I       11.52387311       9.09852758       8.31967284       19       0.45286094       0.14623308      -0.08851408
Cs       5.36731602      11.12541941      11.89645717       20      -0.00741121      -0.01241998       0.04585282
Pb       8.83308321       2.90320740       3.10138284       21      -0.25685809      -0.16456162      -0.79708933
Cl       9.02669692       3.23923707      11.88149507       22       0.05711194      -0.02411403      -0.39870960
Cl       9.25613271       0.07785312       2.67134381       23      -0.04897389       0.01400672       0.16941827
Cl       5.87019138       2.59767092       2.88858549       24      -0.31983443      -0.02981218       0.06201924
Cs       5.77948383      -0.01049076       5.85262329       25      -0.11958463       0.08143516      -0.12545488
Pb       8.91676074       3.00272078       8.88517625       26      -0.21289247       0.15179527       0.43338504
Cl       8.51207947       2.64088052       5.73240494       27      -0.02751212      -0.15184599       0.65256607
I        8.03751232       0.02514524       9.18248445       28       0.04167793      -0.11282682      -0.05842451
Cl       5.77039353       3.39647330       9.12512593       29      -0.05671653      -0.01339081      -0.08201447
Cs       5.94895969       5.41728742       0.23997825       30       0.01586368       0.04536133      -0.06112119
Pb       8.39612285       8.50343347       3.04773951       31       0.10573309       0.23754386       0.03327490
I        9.13519131       8.07692980      12.00240112       32      -0.12808627      -0.10943911      -0.17307398
Cl       8.07532844       5.76850757       3.05576781       33      -0.06591792       0.01882132       0.15190657
Cl       5.70000707       9.11040431       2.62107620       34       0.11285042      -0.03200881      -0.00198384
Cs       6.03631200       5.29828142       6.04212775       35       0.09945382      -0.03648392      -0.01920965
Pb       8.60765975       8.49104674       8.53633796       36      -0.55109733      -0.40992384       0.72244157
Cl       7.73349742       8.72832707       6.07590352       37      -0.09645298       0.05001758      -0.57530162
Cl       9.12523443       5.67479522       7.95979366       38      -0.08270169       0.12202780       0.05097662
Cl       5.69093826       8.05245874       9.64355143       39      -0.17849362       0.01383615      -0.05693748
40
Lattice="11.71033569853775 0.0 0.0 -0.11150631110266339 11.505598664374293 0.0 -0.05110045555769431 -0.12773213351427049 11.921298729298847" Properties=species:S:1:pos:R:3:spacegroup_kinds:I:1:forces:R:3 spacegroup="P 1" unit_cell=conventional occupancy="_JSON {\"0\": {\"Cs\": 1.0}, \"1\": {\"Pb\": 1.0}, \"2\": {\"I\": 1.0}, \"3\": {\"Cl\": 1.0}, \"4\": {\"Cl\": 1.0}, \"5\": {\"Cs\": 1.0}, \"6\": {\"Pb\": 1.0}, \"7\": {\"Cl\": 1.0}, \"8\": {\"Cl\": 1.0}, \"9\": {\"Cl\": 1.0}, \"10\": {\"Cs\": 1.0}, \"11\": {\"Pb\": 1.0}, \"12\": {\"Cl\": 1.0}, \"13\": {\"Cl\": 1.0}, \"14\": {\"I\": 1.0}, \"15\": {\"Cs\": 1.0}, \"16\": {\"Pb\": 1.0}, \"17\": {\"I\": 1.0}, \"18\": {\"Cl\": 1.0}, \"19\": {\"I\": 1.0}, \"20\": {\"Cs\": 1.0}, \"21\": {\"Pb\": 1.0}, \"22\": {\"Cl\": 1.0}, \"23\": {\"Cl\": 1.0}, \"24\": {\"Cl\": 1.0}, \"25\": {\"Cs\": 1.0}, \"26\": {\"Pb\": 1.0}, \"27\": {\"Cl\": 1.0}, \"28\": {\"I\": 1.0}, \"29\": {\"Cl\": 1.0}, \"30\": {\"Cs\": 1.0}, \"31\": {\"Pb\": 1.0}, \"32\": {\"I\": 1.0}, \"33\": {\"Cl\": 1.0}, \"34\": {\"Cl\": 1.0}, \"35\": {\"Cs\": 1.0}, \"36\": {\"Pb\": 1.0}, \"37\": {\"Cl\": 1.0}, \"38\": {\"Cl\": 1.0}, \"39\": {\"Cl\": 1.0}}" candidate_id=983250d76f7c8e34 formula=MAPbCl0.75I0.253 config_index=2 rattle_stdev=0.08 method=PBE fidelity=phase2_force energy=-133.32777319732875 stress="1.785496644036836e-05 0.00035592460972327987 -0.00021794705426950216 0.00035592460972327987 -0.0007390503443566584 0.0003170994110669474 -0.00021794705426950216 0.0003170994110669474 -0.0003079950339940514" pbc="T T T"
Cs      11.21130436      11.15309626      11.96227278        0       0.12433441       0.05354147      -0.19916966
Pb       2.84355404       2.84534081       3.05179796        1       0.35838108       0.50687799       0.24185186
I        2.71103506       2.26735935       0.00853146        2      -0.08759863      -0.00266471      -0.11563805
Cl       2.76392460       0.18366869       3.46372949        3      -0.10998582      -0.68123294       0.11693407
Cl       0.10571012       3.35015025       3.29014484        4      -0.47761691      -0.10619554      -0.00730320
Cs      11.52439074       0.30443141       5.61866629        5       0.00797453      -0.03974776       0.07583422
Pb       2.95493873       2.89155867       8.79004922        6       0.23274387       0.02295716      -0.05636206
Cl       3.09631460       3.33415054       6.00636322        7      -0.02177731      -0.11689191      -0.01881413
Cl       3.35279071      11.27494527       8.70580758        8       0.12758057       0.27907287      -0.05047293
Cl      11.62652664       2.35018908       8.52300756        9       0.00093884       0.12397328       0.09424056
Cs       0.20019611       5.40426191       0.26229108       10       0.16861818       0.07036957       0.01648743
Pb       2.88110676       8.65873598       2.82302683       11       0.23266858      -0.28639530       0.18913563
Cl       2.33483123       9.11717258      -0.00530939       12       0.02494436      -0.00778761       0.34961875
Cl       3.25331689       5.75031377       2.48791202       13      -0.11870589       0.46562531      -0.12890697
I       11.44768225       8.20347929       3.66517982       14       0.55627299       0.01855274      -0.00364653
Cs       0.28434102       5.51987636       6.30241618       15       0.09713966      -0.06370765      -0.01433015
Pb       2.90586025       8.63545510       9.12540974       16       0.04653471      -0.27472977      -0.20384424
I        3.50182006       7.99708414       6.03669939       17      -0.08714556       0.12091335      -0.31595847
Cl       2.42807465       5.55644023       9.27919431       18      -0.12878884      -0.12528111       0.10978990
I       11.59791144       8.88474679       8.33777912       19      -0.11378098       0.15799679       0.01182311
Cs       5.45604388      11.02602543      11.93226801       20      -0.17663815       0.24278786      -0.23185890
Pb       8.73513748       2.67434795       3.01066698       21      -0.32819675       0.47745899       0.26808243
Cl       8.86486169       3.34792644      11.71719557       22       0.17776878      -0.02262131       0.29124398
Cl       9.24741554      -0.03104547       2.72391750       23      -0.05073583       0.12305309       0.05988433
Cl       5.80719450       2.72485693       2.92834536       24       0.39159766      -0.22529392      -0.07116953
Cs       5.68543983      -0.11506327       5.74498409       25      -0.02032637       0.08954361       0.01560412
Pb       8.92409467       3.00782823       9.05063190       26      -0.32768985      -0.05378694      -0.50007142
Cl       8.49331282       2.58202799       5.75625133       27       0.12659912      -0.19523349      -0.21766332
I        8.12057739      -0.13866978       9.32848632       28       0.11887073       0.60882873      -0.04874260
Cl       5.78058743       3.43215835       9.04152289       29      -0.02199247      -0.09673817       0.04756517
Cs       5.96694735       5.44194592       0.23095052       30      -0.08832124       0.01178596      -0.00285475
Pb       8.50144266       8.48592415       2.97590084       31      -0.51800188      -0.19990555       0.43379821
I        9.15064320       7.97100095      11.87549721       32      -0.00611930      -0.12557937       0.10274911
Cl       7.90746933       5.75713522       3.28206625       33       0.24518328       0.01723554      -0.27326123
Cl       5.74572828       9.28555773       2.55389829       34      -0.32479649      -0.21708206       0.21080143
Cs       6.14168917       5.26996117       6.06076236       35      -0.09906316       0.03360706       0.02753695
Pb       8.33230600       8.34245984       8.78284684       36       0.11273401      -0.07149993      -0.44718669
Cl       7.73441869       8.75069139       6.00004618       37       0.10004992       0.01851210      -0.09422984
Cl       9.06399061       5.76737872       7.95932557       38      -0.00401665      -0.51918299       0.17668580
Cl       5.73546627       7.88961015       9.64050131       39      -0.14427904      -0.00897767       0.14328409
40
Lattice="11.71033569853775 0.0 0.0 -0.11150631110266339 11.505598664374293 0.0 -0.05110045555769431 -0.12773213351427049 11.921298729298847" Properties=species:S:1:pos:R:3:spacegroup_kinds:I:1:forces:R:3 spacegroup="P 1" unit_cell=conventional occupancy="_JSON {\"0\": {\"Cs\": 1.0}, \"1\": {\"Pb\": 1.0}, \"2\": {\"I\": 1.0}, \"3\": {\"Cl\": 1.0}, \"4\": {\"Cl\": 1.0}, \"5\": {\"Cs\": 1.0}, \"6\": {\"Pb\": 1.0}, \"7\": {\"Cl\": 1.0}, \"8\": {\"Cl\": 1.0}, \"9\": {\"Cl\": 1.0}, \"10\": {\"Cs\": 1.0}, \"11\": {\"Pb\": 1.0}, \"12\": {\"Cl\": 1.0}, \"13\": {\"Cl\": 1.0}, \"14\": {\"I\": 1.0}, \"15\": {\"Cs\": 1.0}, \"16\": {\"Pb\": 1.0}, \"17\": {\"I\": 1.0}, \"18\": {\"Cl\": 1.0}, \"19\": {\"I\": 1.0}, \"20\": {\"Cs\": 1.0}, \"21\": {\"Pb\": 1.0}, \"22\": {\"Cl\": 1.0}, \"23\": {\"Cl\": 1.0}, \"24\": {\"Cl\": 1.0}, \"25\": {\"Cs\": 1.0}, \"26\": {\"Pb\": 1.0}, \"27\": {\"Cl\": 1.0}, \"28\": {\"I\": 1.0}, \"29\": {\"Cl\": 1.0}, \"30\": {\"Cs\": 1.0}, \"31\": {\"Pb\": 1.0}, \"32\": {\"I\": 1.0}, \"33\": {\"Cl\": 1.0}, \"34\": {\"Cl\": 1.0}, \"35\": {\"Cs\": 1.0}, \"36\": {\"Pb\": 1.0}, \"37\": {\"Cl\": 1.0}, \"38\": {\"Cl\": 1.0}, \"39\": {\"Cl\": 1.0}}" candidate_id=983250d76f7c8e34 formula=MAPbCl0.75I0.253 config_index=3 rattle_stdev=0.08 method=PBE fidelity=phase2_force energy=-133.14262059350844 stress="-0.0013331476762618235 0.00018532330156979395 -0.00011834185041706187 0.00018532330156979395 -0.00014858437030323445 0.0006039207468796073 -0.00011834185041706187 0.0006039207468796073 0.0002469681918660539" pbc="T T T"
Cs      11.11463792      11.40056161      11.82327578        0       0.12512945       0.00974286      -0.16352596
Pb       2.94109901       2.87817629       3.22935306        1      -0.30678729      -0.26535217      -0.70116359
I        2.62643786       2.37993677      -0.02546394        2       0.10864339       0.00163399      -0.12483595
Cl       2.85258828       0.06962130       3.48477826        3      -0.03574261      -0.05665838       0.06025281
Cl      -0.09689499       3.18095864       3.19820388        4       0.09473645       0.02017551       0.09454560
Cs      11.53869666       0.31427950       5.59560442        5       0.01530711       0.00075224      -0.00722276
Pb       3.03342611       2.58943177       8.71860254        6       0.12451280       0.37418205       0.63367778
Cl       3.08645784       3.14301800       5.89786205        7       0.03936655       0.08205570       0.43117563
Cl       3.50053660      11.29653795       8.56959431        8       0.06350984       0.43413300      -0.03416485
Cl      11.47332331       2.31068740       8.88744453        9       0.48642862      -0.00685879      -0.16008661
Cs       0.22503321       5.55827637       0.11043137       10       0.09884426      -0.12382666       0.01225630
Pb       2.88414513       8.50035666       2.77467438       11       0.14486712       0.29301180       0.12068806
Cl       2.48574541       9.18156829      -0.02218636       12      -0.04689858      -0.04243478       0.38138536
Cl       3.17711867       5.77000319       2.43223861       13      -0.03884264       0.13463697      -0.04260004
I       11.41989532       8.27528945       3.62026326       14       1.22734207      -0.10576625       0.05218171
Cs       0.25183600       5.52676843       6.24130074       15       0.03367299      -0.05095604       0.05213066
Pb       2.96583839       8.55830905       9.06809259       16      -0.24440054      -0.49829273       0.13464002
I        3.58346002       8.06205075       6.07500015       17      -0.07417740       0.00406072      -0.51882494
Cl       2.38009288       5.66876255       9.27163028       18      -0.01837915      -0.17810541      -0.07371609
I       11.50381114       8.96558619       8.31844756       19      -0.08834115       0.04354820       0.02554207
Cs       5.46883182      11.14947752      11.81943277       20      -0.13351992       0.02833961       0.07003359
Pb       8.62342357       2.73866748       2.98787453       21       0.47541965       0.30925171      -0.04743812
Cl       8.95192624       3.36570957      11.81285189       22      -0.02360629      -0.11101696      -0.07249663
Cl       9.35460184       0.02491738       2.64885409       23      -0.23414006      -0.14058044       0.15910144
Cl       5.78028240       2.62462935       2.99513711       24      -0.04452359      -0.11318107      -0.01339996
Cs       5.74996330       0.03027335       5.75326550       25       0.02299632      -0.04970101      -0.07114031
Pb       8.85216402       2.94447812       8.93194367       26      -0.19104874       0.08906153       0.37910039
Cl       8.72509191       2.46708370       5.74515609       27      -0.12573655      -0.02528880       0.04504570
I        8.07566641       0.07604553       9.08216025       28      -0.13837768      -1.12900732       0.03458530
Cl       5.73134039       3.35828957       9.13639712       29      -0.32368641      -0.09138640      -0.12923970
Cs       6.00099851       5.51015053       0.28398471       30      -0.01164234      -0.02070599      -0.05197642
Pb       8.49174802       8.55382517       3.21377667       31      -0.44034019      -0.16255568       0.08491087
I        9.11689917       7.96160757      11.94162869       32      -0.03939526       0.05518598       0.07774830
Cl       8.01885321       5.65214284       3.34503988       33       0.18334498       0.19867613      -0.22807441
Cl       5.94289528       9.06670551       2.48721952       34      -0.90100391       0.06265463      -0.11633857
Cs       6.22590116       5.39790252       6.04053361       35      -0.13303011      -0.10238022       0.18514361
Pb       8.39835475       8.29462272       8.89729371       36       0.05905056       0.15335472      -0.26779315
Cl       7.80037631       8.71756610       6.04488657       37       0.02508538       0.00635883      -0.09410339
Cl       9.02425150       5.49094785       8.12553479       38       0.07085124       0.95735891      -0.15019844
Cl       5.62423756       7.97768049       9.77213113       39       0.17666977       0.00653276       0.04899052
