40
Lattice="12.553570286159454 0.0 0.0 0.0 12.55702919375327 0.0 0.0 0.0 12.55357028615965" Properties=species:S:1:pos:R:3:spacegroup_kinds:I:1:forces:R:3 spacegroup="P 1" unit_cell=conventional occupancy="_JSON {\"0\": {\"Cs\": 1.0}, \"1\": {\"Pb\": 1.0}, \"2\": {\"I\": 1.0}, \"3\": {\"I\": 1.0}, \"4\": {\"I\": 1.0}, \"5\": {\"Cs\": 1.0}, \"6\": {\"Pb\": 1.0}, \"7\": {\"I\": 1.0}, \"8\": {\"I\": 1.0}, \"9\": {\"I\": 1.0}, \"10\": {\"Cs\": 1.0}, \"11\": {\"Pb\": 1.0}, \"12\": {\"I\": 1.0}, \"13\": {\"I\": 1.0}, \"14\": {\"I\": 1.0}, \"15\": {\"Cs\": 1.0}, \"16\": {\"Ge\": 1.0}, \"17\": {\"I\": 1.0}, \"18\": {\"I\": 1.0}, \"19\": {\"I\": 1.0}, \"20\": {\"Cs\": 1.0}, \"21\": {\"Pb\": 1.0}, \"22\": {\"I\": 1.0}, \"23\": {\"I\": 1.0}, \"24\": {\"I\": 1.0}, \"25\": {\"Cs\": 1.0}, \"26\": {\"Pb\": 1.0}, \"27\": {\"I\": 1.0}, \"28\": {\"I\": 1.0}, \"29\": {\"I\": 1.0}, \"30\": {\"Cs\": 1.0}, \"31\": {\"Ge\": 1.0}, \"32\": {\"I\": 1.0}, \"33\": {\"I\": 1.0}, \"34\": {\"I\": 1.0}, \"35\": {\"Cs\": 1.0}, \"36\": {\"Pb\": 1.0}, \"37\": {\"I\": 1.0}, \"38\": {\"I\": 1.0}, \"39\": {\"I\": 1.0}}" candidate_id=a8c377f7b83a0e77 formula=CsGe0.29Pb0.71I3 config_index=0 rattle_stdev=0.0 method=PBE fidelity=phase2_force energy=-112.61930967086317 stress="-0.0012832518928318048 0.0 8.677534992466044e-11 0.0 -0.0013097502627448484 0.0 8.677534992466044e-11 0.0 -0.001283251892831765" pbc="T T T"
Cs      12.55357029      12.47742654      12.55357029        0       0.00000000      -0.00547271       0.00000000
Pb       3.13839257       3.13925730       3.13839257        1       0.00024337       0.00022314       0.00024337
I        3.13839257       3.13925730      12.54671695        2      -0.00000617      -0.00000485       0.01798009
I        3.13839257      12.53913819       3.13839257        3      -0.00000522       0.01694721      -0.00000522
I       12.54671695       3.13925730       3.13839257        4       0.01798009      -0.00000485      -0.00000617
Cs      12.55357029      12.47742654       6.27678514        5       0.00000000      -0.00547022      -0.00000000
Pb       3.13839257       3.13925730       9.41517771        6       0.00026959      -0.00000480      -0.00026959
I        3.13839257       3.13925730       6.28363848        7      -0.00000376      -0.00000387      -0.01798734
I        3.13839257      12.39175516       9.41517771        8      -0.00000675       0.23825434       0.00000675
I        0.00685334       3.13925730       9.41517771        9      -0.01798009      -0.00000485       0.00000617
Cs      12.55357029       6.35811725      12.55357029       10       0.00000000       0.00546547       0.00000000
Pb       3.13839257       9.41777190       3.13839257       11       0.00001586      -0.00029568       0.00001586
I        3.13839257       9.41777190      12.39856533       12      -0.00000640       0.00000724       0.25990118
I        3.13839257       6.29640560       3.13839257       13      -0.00000418      -0.01696589      -0.00000418
I       12.39856533       9.41777190       3.13839257       14       0.25990118       0.00000724      -0.00000640
Cs      12.55357029       6.35811725       6.27678514       15      -0.00000000       0.00546274      -0.00000000
Ge       3.13839257       9.41777190       9.41517771       16      -0.00002404       0.00002940       0.00002404
I        3.13839257       9.41777190       6.43179010       17      -0.00000451       0.00000594      -0.25993891
I        3.13839257       6.44378863       9.41517771       18      -0.00000556      -0.23829986       0.00000556
I        0.15500496       9.41777190       9.41517771       19      -0.25990118       0.00000724       0.00000640
Cs       6.27678514      12.47742654      12.55357029       20       0.00000000      -0.00547022       0.00000000
Pb       9.41517771       3.13925730       3.13839257       21      -0.00026959      -0.00000480       0.00026959
I        9.41517771       3.13925730       0.00685334       22       0.00000617      -0.00000485      -0.01798009
I        9.41517771      12.39175516       3.13839257       23       0.00000675       0.23825434      -0.00000675
I        6.28363848       3.13925730       3.13839257       24      -0.01798734      -0.00000387      -0.00000376
Cs       6.27678514      12.47742654       6.27678514       25       0.00000000      -0.00546725       0.00000000
Pb       9.41517771       3.13925730       9.41517771       26      -0.00024337       0.00022314      -0.00024337
I        9.41517771       3.13925730       6.26993180       27       0.00000376      -0.00000387       0.01798734
I        9.41517771      12.53913819       9.41517771       28       0.00000522       0.01694721       0.00000522
I        6.26993180       3.13925730       9.41517771       29       0.01798734      -0.00000387       0.00000376
Cs       6.27678514       6.35811725      12.55357029       30       0.00000000       0.00546274       0.00000000
Ge       9.41517771       9.41777190       3.13839257       31       0.00002404       0.00002940      -0.00002404
I        9.41517771       9.41777190       0.15500496       32       0.00000640       0.00000724      -0.25990118
I        9.41517771       6.44378863       3.13839257       33       0.00000556      -0.23829986      -0.00000556
I        6.43179010       9.41777190       3.13839257       34      -0.25993891       0.00000594      -0.00000451
Cs       6.27678514       6.35811725       6.27678514       35       0.00000000       0.00545989       0.00000000
Pb       9.41517771       9.41777190       9.41517771       36      -0.00001586      -0.00029568      -0.00001586
I        9.41517771       9.41777190       6.12178019       37       0.00000451       0.00000594       0.25993891
I        9.41517771       6.29640560       9.41517771       38       0.00000418      -0.01696589       0.00000418
I        6.12178019       9.41777190       9.41517771       39       0.25993891       0.00000594       0.00000451
40
Lattice="12.553570286159454 0.0 0.0 0.0 12.55702919375327 0.0 0.0 0.0 12.55357028615965" Properties=species:S:1:pos:R:3:spacegroup_kinds:I:1:forces:R:3 spacegroup="P 1" unit_cell=conventional occupancy="_JSON {\"0\": {\"Cs\": 1.0}, \"1\": {\"Pb\": 1.0}, \"2\": {\"I\": 1.0}, \"3\": {\"I\": 1.0}, \"4\": {\"I\": 1.0}, \"5\": {\"Cs\": 1.0}, \"6\": {\"Pb\": 1.0}, \"7\": {\"I\": 1.0}, \"8\": {\"I\": 1.0}, \"9\": {\"I\": 1.0}, \"10\": {\"Cs\": 1.0}, \"11\": {\"Pb\": 1.0}, \"12\": {\"I\": 1.0}, \"13\": {\"I\": 1.0}, \"14\": {\"I\": 1.0}, \"15\": {\"Cs\": 1.0}, \"16\": {\"Ge\": 1.0}, \"17\": {\"I\": 1.0}, \"18\": {\"I\": 1.0}, \"19\": {\"I\": 1.0}, \"20\": {\"Cs\": 1.0}, \"21\": {\"Pb\": 1.0}, \"22\": {\"I\": 1.0}, \"23\": {\"I\": 1.0}, \"24\": {\"I\": 1.0}, \"25\": {\"Cs\": 1.0}, \"26\": {\"Pb\": 1.0}, \"27\": {\"I\": 1.0}, \"28\": {\"I\": 1.0}, \"29\": {\"I\": 1.0}, \"30\": {\"Cs\": 1.0}, \"31\": {\"Ge\": 1.0}, \"32\": {\"I\": 1.0}, \"33\": {\"I\": 1.0}, \"34\": {\"I\": 1.0}, \"35\": {\"Cs\": 1.0}, \"36\": {\"Pb\": 1.0}, \"37\": {\"I\": 1.0}, \"38\": {\"I\": 1.0}, \"39\": {\"I\": 1.0}}" candidate_id=a8c377f7b83a0e77 formula=CsGe0.29Pb0.71I3 config_index=1 rattle_stdev=0.08 method=PBE fidelity=phase2_force energy=-112.31210239729401 stress="-0.0026885947310760303 6.852210626009112e-05 -4.5660599304102065e-06 6.852210626009112e-05 -0.001954011680646428 -7.168958672983176e-05 -4.5660599304102065e-06 -7.168958672983176e-05 -0.0033073298649305177" pbc="T T T"
Cs      12.46665458      12.40574133      12.52906634        0      -0.00635356       0.02629196       0.03158241
Pb       3.03119788       3.04273045       3.08705443        1       0.30269740       0.29265941       0.30998185
I        3.24302822       3.28689413      12.61304614        2      -0.04802535      -0.00961228      -0.09099057
I        3.13652867      12.52245307       3.06506299        3       0.03750008       0.02880261       0.00618318
I       12.46073754       3.13236582       3.23245965        4       0.60500644      -0.00766422       0.02107925
Cs      12.42276295      12.57568206       6.36289604        5       0.04145886       0.01470210      -0.04662906
Pb       3.16997440       3.10824123       9.46224986        6       0.04588098      -0.11638765      -0.09066125
I        3.02372867       3.11337132       6.38387726        7       0.03641530       0.02720412      -0.29251497
I        3.07993316      12.50603396       9.49075003        8      -0.00616562      -0.06119691      -0.01291070
I       -0.01426688       3.12620023       9.33804913        9       0.14456974       0.00766484       0.03226673
Cs      12.52615850       6.36202957      12.51359973       10      -0.00322117      -0.01424908       0.01862880
Pb       2.96144021       9.44255884       3.01122047       11       0.30711726      -0.31030824      -0.19327036
I        3.19674894       9.40913980      12.34655161       12      -0.04281777       0.02408826       0.36567009
I        3.00294805       6.26692768       3.01116283       13       0.01790458       0.01467447       0.07116996
I       12.51700580       9.45572711       3.21150168       14      -0.19373957      -0.00036677       0.04213420
Cs      12.63040791       6.36488065       6.41416362       15       0.01184076      -0.02318956      -0.02663746
Ge       3.20654399       9.35738107       9.23216737       16       0.26193082       0.02239609       0.20943200
I        3.14713167       9.38175925       6.39875230       17       0.00730516      -0.00034281      -0.21756911
I        3.16391127       6.40050000       9.49107103       18      -0.01093702       0.12862823      -0.07152254
I        0.16711976       9.42392409       9.41042568       19      -0.15581811       0.02006913       0.00070573
Cs       6.27117405      12.43213462      12.57845072       20       0.01141165       0.02134400       0.02342029
Pb       9.47311442       3.18057330       3.22047503       21      -0.49221256      -0.19092598      -0.51330706
I        9.45678992       3.06967021       0.12689855       22       0.03623126       0.01230056      -0.51847182
I        9.50849549      12.43110832       3.07981159       23      -0.01586028       0.14436689       0.12013111
I        6.33806297       3.17997705       3.07138967       24      -0.40985879      -0.00359073       0.04832269
Cs       6.32859673      12.47842970       6.40155227       25      -0.03029146       0.00802855      -0.03452897
Pb       9.49794534       3.16627271       9.31096888       26      -0.22086366       0.27084655       0.40442414
I        9.32569417       3.24401851       6.22847444       27      -0.04594357      -0.01946185       0.49557303
I        9.38372777      12.62257567       9.42115493       28      -0.01200216      -0.16154928       0.00736665
I        6.27708677       3.14356989       9.44865347       29       0.04188082       0.00257392      -0.00363086
Cs       6.17856674       6.27095392      12.57894024       30       0.01606624      -0.00378336       0.02315453
Ge       9.35274527       9.34928141       3.03280286       31      -0.21928759       0.17902428       0.01610536
I        9.45148025       9.49791388       0.26810373       32      -0.00944467      -0.03145692      -0.35156517
I        9.39996308       6.44619748       2.98851924       33       0.03697321      -0.10751939       0.03965582
I        6.42244794       9.40757267       3.21056731       34       0.07658693       0.00440050      -0.01037038
Cs       6.17163537       6.35015319       6.28802913       35       0.00702238      -0.01088714      -0.01116016
Pb       9.62548219       9.55823420       9.20432589       36      -0.21079362      -0.38998948       0.31897858
I        9.31224616       9.40403412       6.26581648       37       0.05922477       0.04192009      -0.18355537
I        9.46387337       6.29892764       9.29786474       38      -0.00515879       0.19352965       0.07030919
I        6.14653545       9.50914932       9.37431018       39       0.03385489      -0.02194920      -0.00198462
40
Lattice="12.553570286159454 0.0 0.0 0.0 12.55702919375327 0.0 0.0 0.0 12.55357028615965" Properties=species:S:1:pos:R:3:spacegroup_kinds:I:1:forces:R:3 spacegroup="P 1" unit_cell=conventional occupancy="_JSON {\"0\": {\"Cs\": 1.0}, \"1\": {\"Pb\": 1.0}, \"2\": {\"I\": 1.0}, \"3\": {\"I\": 1.0}, \"4\": {\"I\": 1.0}, \"5\": {\"Cs\": 1.0}, \"6\": {\"Pb\": 1.0}, \"7\": {\"I\": 1.0}, \"8\": {\"I\": 1.0}, \"9\": {\"I\": 1.0}, \"10\": {\"Cs\": 1.0}, \"11\": {\"Pb\": 1.0}, \"12\": {\"I\": 1.0}, \"13\": {\"I\": 1.0}, \"14\": {\"I\": 1.0}, \"15\": {\"Cs\": 1.0}, \"16\": {\"Ge\": 1.0}, \"17\": {\"I\": 1.0}, \"18\": {\"I\": 1.0}, \"19\": {\"I\": 1.0}, \"20\": {\"Cs\": 1.0}, \"21\": {\"Pb\": 1.0}, \"22\": {\"I\": 1.0}, \"23\": {\"I\": 1.0}, \"24\": {\"I\": 1.0}, \"25\": {\"Cs\": 1.0}, \"26\": {\"Pb\": 1.0}, \"27\": {\"I\": 1.0}, \"28\": {\"I\": 1.0}, \"29\": {\"I\": 1.0}, \"30\": {\"Cs\": 1.0}, \"31\": {\"Ge\": 1.0}, \"32\": {\"I\": 1.0}, \"33\": {\"I\": 1.0}, \"34\": {\"I\": 1.0}, \"35\": {\"Cs\": 1.0}, \"36\": {\"Pb\": 1.0}, \"37\": {\"I\": 1.0}, \"38\": {\"I\": 1.0}, \"39\": {\"I\": 1.0}}" candidate_id=a8c377f7b83a0e77 formula=CsGe0.29Pb0.71I3 config_index=2 rattle_stdev=0.08 method=PBE fidelity=phase2_force energy=-112.10855402596675 stress="-0.002669198028536636 0.00011072198556801012 5.084010462530869e-07 0.00011072198556801012 -0.00278503186649995 -7.79844213062726e-05 5.084010462530869e-07 -7.79844213062726e-05 -0.0022027079874265545" pbc="T T T"
Cs      12.54455324      12.39130142      12.69637244        0       0.01439937      -0.00935335      -0.05787227
Pb       3.02183391       3.11315164       3.03760085        1       0.82620095       0.28155387       0.15768762
I        3.16846189       3.06900551      12.51871888        2      -0.02726523       0.01601670      -0.05897553
I        3.16212539      12.63521114       3.01287295        3       0.00583959      -0.63705324       0.03608587
I       12.69503925       3.17877424       3.12793566        4      -1.13919342       0.03620599      -0.01097318
Cs      12.52132063      12.39953356       6.23938780        5      -0.02002366      -0.02022560       0.05009649
Pb       3.08095885       3.23696876       9.35300171        6       0.44608963       0.21410480       0.04690822
I        3.09131052       3.13464779       6.29000487        7       0.02778750      -0.09750614      -0.17587485
I        3.04373649      12.26785576       9.48815821        8       0.01171572       0.53999302      -0.00834802
I        0.03986700       3.08359578       9.23207596        9      -0.21622026      -0.01443231       0.01800924
Cs      12.49059096       6.27583591      12.56103493       10       0.03292268       0.02510746      -0.02235786
Pb       3.09605704       9.48019148       3.12232740       11       0.19271392      -0.24710898       0.02005428
I        3.09994388       9.33495093      12.35834658       12       0.02975124      -0.03493252       0.61803570
I        3.20158379       6.22240579       3.31519540       13      -0.01563696       0.53548207      -0.03934218
I       12.28654644       9.39864411       3.15577983       14       0.71683715      -0.04563134       0.02678809
Cs      12.52537946       6.36498729       6.28531730       15       0.00416735       0.01463715       0.01794755
Ge       3.12263007       9.52552660       9.44279163       16      -0.12057643      -0.25987879      -0.09439161
I        3.18300412       9.37014908       6.49041667       17      -0.02630623       0.07146087      -0.55974067
I        3.24489279       6.38538600       9.37631725       18      -0.02063414      -0.43036131       0.03392508
I        0.24115809       9.21014330       9.42853197       19      -0.29149829       0.02614854      -0.01033204
Cs       6.35990191      12.33274063      12.61426156       20      -0.02464899       0.03016661      -0.03059486
Pb       9.37516869       2.95171385       3.12975916       21      -0.11534749       0.06060039       0.11823869
I        9.29495470       3.17835959      -0.03740094       22       0.05346393       0.04854944       0.21138867
I        9.49977832      12.32220973       3.13238528       23       0.01252646       0.49718004      -0.01232786
I        6.27506609       3.30716306       3.11114954       24       0.28289898      -0.07781405      -0.00672124
Cs       6.23455273      12.37385720       6.29391307       25       0.02477612       0.00042766       0.02556919
Pb       9.50527928       3.17138017       9.47642454       26      -0.34837615      -0.07248135      -0.27919143
I        9.30692752       3.18516598       6.25232083       27       0.04027601      -0.04303488      -0.03797175
I        9.46679283      12.45876065       9.56715680       28       0.04178523       0.54864265       0.01647931
I        6.28728067       3.17925493       9.36505043       29       0.07795393      -0.06172632       0.00095645
Cs       6.19655441       6.29561243      12.56991251       30      -0.02283951      -0.02512688      -0.00763410
Ge       9.45806508       9.33177210       2.96096419       31      -0.32158647      -0.22727059       0.37062790
I        9.46693213       9.39198503       0.14119982       32       0.00531699      -0.04578536      -0.18150114
I        9.23210397       6.43482513       3.21481768       33       0.09263297      -0.16273349      -0.07540748
I        6.46816915       9.58272609       3.14338941       34      -0.58654139       0.00242167      -0.04981275
Cs       6.27701254       6.32183294       6.30666374       35      -0.00116938      -0.00722867       0.00271469
Pb       9.35012844       9.40964729       9.45083477       36       0.00524665       0.10643743      -0.40031399
I        9.31316742       9.42639844       6.18995914       37       0.06643103       0.05463936       0.22928500
I        9.40262955       6.39151114       9.29739664       38       0.06054092      -0.65138222       0.03548828
I        6.19106345       9.34630073       9.37126007       39       0.22056991       0.05917605       0.08253428
40
Lattice="12.553570286159454 0.0 0.0 0.0 12.55702919375327 0.0 0.0 0.0 12.55357028615965" Properties=species:S:1:pos:R:3:spacegroup_kinds:I:1:forces:R:3 spacegroup="P 1" unit_cell=conventional occupancy="_JSON {\"0\": {\"Cs\": 1.0}, \"1\": {\"Pb\": 1.0}, \"2\": {\"I\": 1.0}, \"3\": {\"I\": 1.0}, \"4\": {\"I\": 1.0}, \"5\": {\"Cs\": 1.0}, \"6\": {\"Pb\": 1.0}, \"7\": {\"I\": 1.0}, \"8\": {\"I\": 1.0}, \"9\": {\"I\": 1.0}, \"10\": {\"Cs\": 1.0}, \"11\": {\"Pb\": 1.0}, \"12\": {\"I\": 1.0}, \"13\": {\"I\": 1.0}, \"14\": {\"I\": 1.0}, \"15\": {\"Cs\": 1.0}, \"16\": {\"Ge\": 1.0}, \"17\": {\"I\": 1.0}, \"18\": {\"I\": 1.0}, \"19\": {\"I\": 1.0}, \"20\": {\"Cs\": 1.0}, \"21\": {\"Pb\": 1.0}, \"22\": {\"I\": 1.0}, \"23\": {\"I\": 1.0}, \"24\": {\"I\": 1.0}, \"25\": {\"Cs\": 1.0}, \"26\": {\"Pb\": 1.0}, \"27\": {\"I\": 1.0}, \"28\": {\"I\": 1.0}, \"29\": {\"I\": 1.0}, \"30\": {\"Cs\": 1.0}, \"31\": {\"Ge\": 1.0}, \"32\": {\"I\": 1.0}, \"33\": {\"I\": 1.0}, \"34\": {\"I\": 1.0}, \"35\": {\"Cs\": 1.0}, \"36\": {\"Pb\": 1.0}, \"37\": {\"I\": 1.0}, \"38\": {\"I\": 1.0}, \"39\": {\"I\": 1.0}}" candidate_id=a8c377f7b83a0e77 formula=CsGe0.29Pb0.71I3 config_index=3 rattle_stdev=0.08 method=PBE fidelity=phase2_force energy=-111.81665203669745 stress="-0.0030252763288663043 0.00023104602831622322 3.8422810808602915e-05 0.00023104602831622322 -0.0027373360502149042 -4.109919092069625e-05 3.8422810808602915e-05 -4.109919092069625e-05 -0.0022487438762069183" pbc="T T T"
Cs      12.44788680      12.63876677      12.55737544        0       0.03269775       0.03068606       0.01990140
Pb       3.11937888       3.14598711       3.21515595        1      -0.29391648      -0.29776333      -0.74048895
I        3.08386469       3.18158293      12.48472349        2       0.02623868       0.00926070      -0.05353070
I        3.25078907      12.52116375       3.03392172        3       0.03067258      -0.19271038      -0.00001390
I       12.49243413       3.00958264       3.03599469        4       0.13939091       0.03107292       0.02353808
Cs      12.53562655      12.40938166       6.21632594        5      -0.02978048       0.00552038      -0.01171197
Pb       3.15944624       2.93484186       9.28155504        6      -0.07421631       0.19097371       0.48632092
I        3.08145376       2.94351525       6.18150370        7      -0.04039575      -0.03559555       0.41187251
I        3.19148238      12.28944844       9.35194494        8      -0.05630547       0.76213005       0.03104552
I       -0.11333632       3.04409410       9.59651293        9       0.53266450       0.02748664      -0.00153089
Cs      12.51542806       6.42985037      12.40917523       10       0.02533431      -0.06567427      -0.00379663
Pb       3.09909540       9.32181217       3.07397495       11      -0.05750520       0.36087697      -0.09070577
I        3.25085806       9.39934664      12.34146961       12      -0.06865187      -0.02897492       0.75541391
I        3.12538557       6.24209521       3.25952199       13      -0.00574747       0.20409757       0.03104060
I       12.25875950       9.47045426       3.11086327       14       1.26531510      -0.10536000       0.03625004
Cs      12.49287444       6.37187935       6.22420186       15      -0.03538450       0.00495700       0.01247041
Ge       3.18260821       9.44838056       9.38547449       16      -0.07635414      -0.53999129      -0.00595029
I        3.26464409       9.43511569       6.52871743       17      -0.02359938       0.00529542      -0.70585564
I        3.19691102       6.49770832       9.36875323       18      -0.01485829      -0.43982734      -0.02321871
I        0.14705779       9.29098270       9.40920040       19      -0.40729292       0.04500710       0.00264547
Cs       6.37268985      12.45619273      12.50142632       20      -0.03478234       0.01167973       0.00888506
Pb       9.26345479       3.01603338       3.10696671       21       0.44534313       0.13342396       0.06892773
I        9.38201925       3.19614272       0.05825537       22      -0.04897652      -0.01132272      -0.26298990
I        9.60696462      12.37817257       3.05732188       23      -0.12668664       0.08977550       0.04075797
I        6.24815399       3.20693547       3.17794129       24      -0.21663990       0.00175045       0.02769794
Cs       6.29907620      12.51919382       6.30219448       25       0.01540570      -0.03908488       0.00179333
Pb       9.43334862       3.10803006       9.35773631       26      -0.19917750      -0.02967590       0.04312904
I        9.53870661       3.07022169       6.24122560       27       0.01545527       0.00742673       0.11198469
I        9.42188186      12.67347595       9.32083074       28      -0.03525599      -1.03683845       0.05104273
I        6.23803363       3.10538615       9.45992466       29      -0.15567512      -0.01965189      -0.03839972
Cs       6.23060557       6.36381704      12.62294669       30      -0.00213666      -0.03007828      -0.03778333
Ge       9.44837043       9.39967311       3.19884002       31      -0.16437840      -0.17668606       0.15536343
I        9.43318810       9.38259165       0.20733130       32       0.02551108      -0.02408440      -0.35472724
I        9.34348785       6.32983274       3.27779130       33       0.08628733      -0.01663835      -0.00636732
I        6.66533615       9.36387387       3.07671063       34      -1.11005976       0.06183063       0.03089400
Cs       6.36122453       6.44977429       6.28643499       35       0.01458443       0.01817791       0.01959047
Pb       9.41617719       9.36181018       9.56528165       36       0.09487516       0.04028041      -0.15905660
I        9.37912504       9.39327315       6.23479954       37       0.01800819       0.03037638       0.13825934
I        9.36289043       6.11508027       9.46360587       38      -0.01844388       1.00318063       0.00140767
I        6.07983475       9.43437108       9.50288988       39       0.52489883       0.00649047      -0.01463357
