40
Lattice="11.23946905177687 0.0 0.0 0.0 11.23946905177697 0.0 0.0 1.0051475759667671e-13 11.239469051777043" Properties=species:S:1:pos:R:3:spacegroup_kinds:I:1:forces:R:3 spacegroup="P 1" unit_cell=conventional occupancy="_JSON {\"0\": {\"Cs\": 1.0}, \"1\": {\"Sn\": 1.0}, \"2\": {\"Cl\": 1.0}, \"3\": {\"Cl\": 1.0}, \"4\": {\"Cl\": 1.0}, \"5\": {\"Cs\": 1.0}, \"6\": {\"Sn\": 1.0}, \"7\": {\"Cl\": 1.0}, \"8\": {\"Cl\": 1.0}, \"9\": {\"Cl\": 1.0}, \"10\": {\"Cs\": 1.0}, \"11\": {\"Sn\": 1.0}, \"12\": {\"Cl\": 1.0}, \"13\": {\"Cl\": 1.0}, \"14\": {\"Cl\": 1.0}, \"15\": {\"Cs\": 1.0}, \"16\": {\"Sn\": 1.0}, \"17\": {\"Cl\": 1.0}, \"18\": {\"Cl\": 1.0}, \"19\": {\"Cl\": 1.0}, \"20\": {\"Cs\": 1.0}, \"21\": {\"Sn\": 1.0}, \"22\": {\"Cl\": 1.0}, \"23\": {\"Cl\": 1.0}, \"24\": {\"Cl\": 1.0}, \"25\": {\"Cs\": 1.0}, \"26\": {\"Sn\": 1.0}, \"27\": {\"Cl\": 1.0}, \"28\": {\"Cl\": 1.0}, \"29\": {\"Cl\": 1.0}, \"30\": {\"Cs\": 1.0}, \"31\": {\"Sn\": 1.0}, \"32\": {\"Cl\": 1.0}, \"33\": {\"Cl\": 1.0}, \"34\": {\"Cl\": 1.0}, \"35\": {\"Cs\": 1.0}, \"36\": {\"Sn\": 1.0}, \"37\": {\"Cl\": 1.0}, \"38\": {\"Cl\": 1.0}, \"39\": {\"Cl\": 1.0}}" candidate_id=6b2463c9de483b6d formula=FA0.88MA0.12SnCl3 config_index=0 rattle_stdev=0.0 method=PBE fidelity=phase2_force energy=-139.74576546717728 stress="0.0014110952958409733 -8.252101026911982e-32 -1.2893907854549971e-33 -8.252101026911982e-32 0.0014110952958409488 -1.2619448565930259e-17 -1.2893907854549971e-33 -1.2619448565930259e-17 0.0014110952958409308" pbc="T T T"
Cs       0.00000000       0.00000000      11.23946905        0       0.00000000      -0.00000000       0.00000000
Sn       2.80986726       2.80986726       2.80986726        1       0.00000000       0.00000000       0.00000000
Cl       2.80986726       2.80986726       0.00000000        2       0.00000000       0.00000000      -0.00000000
Cl       2.80986726      11.23946905       2.80986726        3       0.00000000      -0.00000000       0.00000000
Cl      11.23946905       2.80986726       2.80986726        4       0.00000000       0.00000000       0.00000000
Cs       0.00000000       0.00000000       5.61973453        5      -0.00000000       0.00000000      -0.00000000
Sn       2.80986726       2.80986726       8.42960179        6       0.00000000       0.00000000      -0.00000000
Cl       2.80986726       2.80986726       5.61973453        7       0.00000000       0.00000000      -0.00000000
Cl       2.80986726      11.23946905       8.42960179        8       0.00000000       0.00000000      -0.00000000
Cl      11.23946905       2.80986726       8.42960179        9       0.00000000       0.00000000      -0.00000000
Cs       0.00000000       5.61973453      11.23946905       10       0.00000000       0.00000000      -0.00000000
Sn       2.80986726       8.42960179       2.80986726       11       0.00000000      -0.00000000       0.00000000
Cl       2.80986726       8.42960179      11.23946905       12       0.00000000      -0.00000000      -0.00000000
Cl       2.80986726       5.61973453       2.80986726       13       0.00000000       0.00000000       0.00000000
Cl      11.23946905       8.42960179       2.80986726       14       0.00000000      -0.00000000       0.00000000
Cs       0.00000000       5.61973453       5.61973453       15      -0.00000000      -0.00000000      -0.00000000
Sn       2.80986726       8.42960179       8.42960179       16       0.00000000      -0.00000000      -0.00000000
Cl       2.80986726       8.42960179       5.61973453       17       0.00000000      -0.00000000      -0.00000000
Cl       2.80986726       5.61973453       8.42960179       18       0.00000000      -0.00000000      -0.00000000
Cl      11.23946905       8.42960179       8.42960179       19      -0.00000000      -0.00000000      -0.00000000
Cs       5.61973453       0.00000000      11.23946905       20      -0.00000000       0.00000000       0.00000000
Sn       8.42960179       2.80986726       2.80986726       21      -0.00000000       0.00000000       0.00000000
Cl       8.42960179       2.80986726       0.00000000       22      -0.00000000       0.00000000      -0.00000000
Cl       8.42960179      11.23946905       2.80986726       23      -0.00000000      -0.00000000       0.00000000
Cl       5.61973453       2.80986726       2.80986726       24      -0.00000000       0.00000000       0.00000000
Cs       5.61973453       0.00000000       5.61973453       25      -0.00000000       0.00000000       0.00000000
Sn       8.42960179       2.80986726       8.42960179       26      -0.00000000       0.00000000      -0.00000000
Cl       8.42960179       2.80986726       5.61973453       27      -0.00000000       0.00000000       0.00000000
Cl       8.42960179      11.23946905       8.42960179       28      -0.00000000       0.00000000      -0.00000000
Cl       5.61973453       2.80986726       8.42960179       29      -0.00000000       0.00000000      -0.00000000
Cs       5.61973453       5.61973453      11.23946905       30      -0.00000000       0.00000000       0.00000000
Sn       8.42960179       8.42960179       2.80986726       31      -0.00000000      -0.00000000       0.00000000
Cl       8.42960179       8.42960179      11.23946905       32      -0.00000000      -0.00000000       0.00000000
Cl       8.42960179       5.61973453       2.80986726       33      -0.00000000       0.00000000       0.00000000
Cl       5.61973453       8.42960179       2.80986726       34      -0.00000000      -0.00000000       0.00000000
Cs       5.61973453       5.61973453       5.61973453       35       0.00000000      -0.00000000       0.00000000
Sn       8.42960179       8.42960179       8.42960179       36      -0.00000000      -0.00000000      -0.00000000
Cl       8.42960179       8.42960179       5.61973453       37      -0.00000000      -0.00000000       0.00000000
Cl       8.42960179       5.61973453       8.42960179       38      -0.00000000      -0.00000000      -0.00000000
Cl       5.61973453       8.42960179       8.42960179       39      -0.00000000      -0.00000000      -0.00000000
40
Lattice="11.23946905177687 0.0 0.0 0.0 11.23946905177697 0.0 0.0 1.0051475759667671e-13 11.239469051777043" Properties=species:S:1:pos:R:3:spacegroup_kinds:I:1:forces:R:3 spacegroup="P 1" unit_cell=conventional occupancy="_JSON {\"0\": {\"Cs\": 1.0}, \"1\": {\"Sn\": 1.0}, \"2\": {\"Cl\": 1.0}, \"3\": {\"Cl\": 1.0}, \"4\": {\"Cl\": 1.0}, \"5\": {\"Cs\": 1.0}, \"6\": {\"Sn\": 1.0}, \"7\": {\"Cl\": 1.0}, \"8\": {\"Cl\": 1.0}, \"9\": {\"Cl\": 1.0}, \"10\": {\"Cs\": 1.0}, \"11\": {\"Sn\": 1.0}, \"12\": {\"Cl\": 1.0}, \"13\": {\"Cl\": 1.0}, \"14\": {\"Cl\": 1.0}, \"15\": {\"Cs\": 1.0}, \"16\": {\"Sn\": 1.0}, \"17\": {\"Cl\": 1.0}, \"18\": {\"Cl\": 1.0}, \"19\": {\"Cl\": 1.0}, \"20\": {\"Cs\": 1.0}, \"21\": {\"Sn\": 1.0}, \"22\": {\"Cl\": 1.0}, \"23\": {\"Cl\": 1.0}, \"24\": {\"Cl\": 1.0}, \"25\": {\"Cs\": 1.0}, \"26\": {\"Sn\": 1.0}, \"27\": {\"Cl\": 1.0}, \"28\": {\"Cl\": 1.0}, \"29\": {\"Cl\": 1.0}, \"30\": {\"Cs\": 1.0}, \"31\": {\"Sn\": 1.0}, \"32\": {\"Cl\": 1.0}, \"33\": {\"Cl\": 1.0}, \"34\": {\"Cl\": 1.0}, \"35\": {\"Cs\": 1.0}, \"36\": {\"Sn\": 1.0}, \"37\": {\"Cl\": 1.0}, \"38\": {\"Cl\": 1.0}, \"39\": {\"Cl\": 1.0}}" candidate_id=6b2463c9de483b6d formula=FA0.88MA0.12SnCl3 config_index=1 rattle_stdev=0.08 method=PBE fidelity=phase2_force energy=-139.10702108175286 stress="-0.0012244164708327403 5.9881447826214396e-05 -5.429657377115721e-06 5.9881447826214396e-05 -0.00011965995704472506 -0.00014553004456088325 -5.429657377115721e-06 -0.00014553004456088325 -0.0017342915145255931" pbc="T T T"
Cs      -0.08691571      -0.07168521      11.21496510        0      -0.03173655       0.06418945       0.03659710
Sn       2.70267257       2.71334042       2.75852912        1       0.40034844       0.40115135       0.18057346
Cl       2.91450291       2.95750410       0.06632920        2      -0.13780907      -0.13101123       0.08219629
Cl       2.80800336      11.22278394       2.73653768        3      -0.07326081       0.03646051      -0.04202450
Cl      11.15348965       2.80297578       2.90393435        4       0.52110728      -0.02007653      -0.01063256
Cs      -0.13080734       0.09825552       5.70584543        5       0.09654305       0.04121069      -0.09393530
Sn       2.84144909       2.77885120       8.47667393        6       0.12038324      -0.00037617      -0.19149435
Cl       2.69520336       2.78398129       5.71997330        7       0.05456959       0.00227999      -0.08725587
Cl       2.75140786      11.35374786       8.50517410        8      -0.00296852      -0.42173928      -0.03765779
Cl      11.21834883       2.79681020       8.35247321        9       0.03752979      -0.00189344       0.00217907
Cs      -0.02741179       5.62364685      11.19949849       10      -0.01527706      -0.04637206       0.01955882
Sn       2.63291490       8.45438874       2.68269516       11       0.88400312      -0.32409673      -0.08157211
Cl       2.86822363       8.42096969      11.18745533       12      -0.12098404       0.02682477       0.01804991
Cl       2.67442274       5.59025660       2.68263753       13      -0.05563376       0.00512452       0.07147815
Cl      11.35790952       8.46755700       2.88297637       14      -0.72825619       0.01501134      -0.00732975
Cs       0.07683762       5.62649793       5.75711300       15       0.02414912      -0.06270175      -0.07160354
Sn       2.87801868       8.36921096       8.24659144       16       0.33051656       0.10638913       0.42708259
Cl       2.81860636       8.39358914       5.58669673       17      -0.03387514      -0.02836479      -0.00803754
Cl       2.83538596       5.57644589       8.50549511       18      -0.02340971       0.44944112      -0.13351368
Cl      11.25158386       8.43575398       8.42484976       19       0.29643334       0.02359626      -0.12589192
Cs       5.61412343      -0.04529192      11.26434948       20       0.04119918       0.03215781       0.03055641
Sn       8.48753849       2.85118327       2.89194972       21      -0.54935810      -0.27302619      -0.71459765
Cl       8.47121400       2.74028018       0.12004521       22       0.09714408       0.04502700      -0.32470732
Cl       8.52291956      11.27882221       2.75128629       23      -0.01008150      -0.13752191       0.12083693
Cl       5.67415901       2.85058701       2.74286437       24      -0.34241890      -0.03406871       0.08792001
Cs       5.67154611       0.00100316       5.74450165       25      -0.06027088       0.02359412      -0.08085411
Sn       8.51236942       2.83688268       8.32539296       26      -0.28243029       0.33645141       0.44301261
Cl       8.34011825       2.91462847       5.57827717       27       0.03659200      -0.06299911       0.54282195
Cl       8.39815185      11.32290653       8.43557901       28       0.11060769      -0.15936839      -0.16262744
Cl       5.62688949       2.81417985       8.46307755       29      -0.07201667      -0.02510579      -0.07047245
Cs       5.52151612       5.53257120      11.26483900       30       0.05288085       0.00836768       0.03001238
Sn       8.36716935       8.36111131       2.70427755       31      -0.27449465       0.26099711       0.05697147
Cl       8.46590432       8.50974378      11.35256783       32       0.00288456      -0.04427538      -0.01512392
Cl       8.41438716       5.62214337       2.65999393       33       0.03902371       0.18688402      -0.00330609
Cl       5.61039237       8.41940256       2.88204201       34       0.40466809      -0.01391853      -0.06385876
Cs       5.51458475       5.61177047       5.63097851       35       0.01229493      -0.02884245      -0.04310271
Sn       8.63990626       8.57006410       8.21874996       36      -0.74348297      -0.42294545       0.99532659
Cl       8.32667023       8.41586401       5.76377082       37       0.10493574       0.06444960      -0.69509186
Cl       8.47829744       5.62225657       8.31228881       38       0.08447019       0.12747633      -0.00549035
Cl       5.64448979       8.52097922       8.38873426       39      -0.18740311      -0.02014968      -0.06891565
40
Lattice="11.23946905177687 0.0 0.0 0.0 11.23946905177697 0.0 0.0 1.0051475759667671e-13 11.239469051777043" Properties=species:S:1:pos:R:3:spacegroup_kinds:I:1:forces:R:3 spacegroup="P 1" unit_cell=conventional occupancy="_JSON {\"0\": {\"Cs\": 1.0}, \"1\": {\"Sn\": 1.0}, \"2\": {\"Cl\": 1.0}, \"3\": {\"Cl\": 1.0}, \"4\": {\"Cl\": 1.0}, \"5\": {\"Cs\": 1.0}, \"6\": {\"Sn\": 1.0}, \"7\": {\"Cl\": 1.0}, \"8\": {\"Cl\": 1.0}, \"9\": {\"Cl\": 1.0}, \"10\": {\"Cs\": 1.0}, \"11\": {\"Sn\": 1.0}, \"12\": {\"Cl\": 1.0}, \"13\": {\"Cl\": 1.0}, \"14\": {\"Cl\": 1.0}, \"15\": {\"Cs\": 1.0}, \"16\": {\"Sn\": 1.0}, \"17\": {\"Cl\": 1.0}, \"18\": {\"Cl\": 1.0}, \"19\": {\"Cl\": 1.0}, \"20\": {\"Cs\": 1.0}, \"21\": {\"Sn\": 1.0}, \"22\": {\"Cl\": 1.0}, \"23\": {\"Cl\": 1.0}, \"24\": {\"Cl\": 1.0}, \"25\": {\"Cs\": 1.0}, \"26\": {\"Sn\": 1.0}, \"27\": {\"Cl\": 1.0}, \"28\": {\"Cl\": 1.0}, \"29\": {\"Cl\": 1.0}, \"30\": {\"Cs\": 1.0}, \"31\": {\"Sn\": 1.0}, \"32\": {\"Cl\": 1.0}, \"33\": {\"Cl\": 1.0}, \"34\": {\"Cl\": 1.0}, \"35\": {\"Cs\": 1.0}, \"36\": {\"Sn\": 1.0}, \"37\": {\"Cl\": 1.0}, \"38\": {\"Cl\": 1.0}, \"39\": {\"Cl\": 1.0}}" candidate_id=6b2463c9de483b6d formula=FA0.88MA0.12SnCl3 config_index=2 rattle_stdev=0.08 method=PBE fidelity=phase2_force energy=-139.0967737891477 stress="-0.0002743239194838883 1.860692210145301e-05 1.408155957910053e-05 1.860692210145301e-05 -0.00043576600219444474 4.799904976525441e-07 1.408155957910053e-05 4.799904976525441e-07 9.777623597838018e-05" pbc="T T T"
Cs      -0.00901704      -0.08612512      11.38227121        0       0.04029283       0.00492960      -0.13309916
Sn       2.69330860       2.78376160       2.70907554        1       0.83648418       0.36685803       0.22243085
Cl       2.83993658       2.73961547      -0.02799806        2      -0.14053462       0.08641616       0.01984898
Cl       2.83360008      11.33554201       2.68434764        3      -0.07872979      -0.65202254       0.04100026
Cl      11.38779135       2.84938421       2.79941035        4      -0.85316352      -0.02652862      -0.07253041
Cs      -0.03224966      -0.07789298       5.58233718        5      -0.02078070      -0.00906693       0.09682313
Sn       2.75243355       2.90757873       8.36742579        6       0.48904997      -0.06796581      -0.11359342
Cl       2.76278521       2.80525775       5.62610092        7      -0.03349175      -0.08821380       0.01241919
Cl       2.71521118      11.11556966       8.50258228        8      -0.02649776       0.33786093      -0.02026708
Cl      11.27248271       2.75420574       8.24650004        9      -0.14667758       0.07513816       0.09108162
Cs      -0.06297932       5.53745319      11.24693370       10       0.04433016       0.04420718      -0.03754081
Sn       2.76753173       8.49202138       2.79380209       11       0.34071058      -0.31328006       0.13021178
Cl       2.77141858       8.34678082      11.19925030       12      -0.00810253       0.01386850       0.45891308
Cl       2.87305848       5.54573472       2.98667009       13      -0.11497080       0.53067626      -0.15169483
Cl      11.12745016       8.41047400       2.82725452       14       0.54843885       0.00138492      -0.03181422
Cs      -0.02819082       5.62660457       5.62826668       15      -0.00356471       0.02120728       0.01237536
Sn       2.79410477       8.53735650       8.45721571       16      -0.09921109      -0.45970512      -0.16378144
Cl       2.85447882       8.38197898       5.67836110       17      -0.07367978       0.16068023      -0.38541172
Cl       2.91636748       5.56133189       8.39074133       18      -0.10182139      -0.15779526       0.05184461
Cl      11.32562219       8.22197320       8.44295604       19       0.00424414       0.07703155       0.00398853
Cs       5.70285130      -0.14468591      11.30016033       20      -0.06283782       0.09224477      -0.06106668
Sn       8.38959276       2.62232381       2.80123385       21      -0.40911727       0.61034499       0.26256712
Cl       8.30937878       2.84896956      -0.04425428       22       0.12144160      -0.00071362       0.14199948
Cl       8.51420239      11.16992362       2.80385998       23      -0.00130481       0.14594862      -0.04407321
Cl       5.61116213       2.97777302       2.78262423       24       0.52466861      -0.26200294      -0.03003021
Cs       5.57750212      -0.10356935       5.63686245       25       0.03377004       0.03810706       0.03157141
Sn       8.51970335       2.84199013       8.49084861       26      -0.54700015      -0.08430416      -0.35725578
Cl       8.32135159       2.85577594       5.60212356       27       0.08595946      -0.15686869      -0.13245518
Cl       8.48121691      11.15909151       8.58158087       28       0.01115170       0.49800134       0.00774059
Cl       5.63708339       2.84986489       8.37947450       29       0.11885368      -0.05478937       0.02891558
Cs       5.53950379       5.55722971      11.25581127       30      -0.01926594      -0.05674040       0.00731510
Sn       8.47248915       8.34360199       2.63243888       31      -0.50518109      -0.27217721       0.72096259
Cl       8.48135621       8.40381493      11.22566392       32       0.00434110      -0.05159397       0.14245944
Cl       8.24652804       5.61077102       2.88629237       33       0.17054238      -0.05551211      -0.15158765
Cl       5.65611358       8.59455599       2.81486410       34      -0.43075740       0.02566528      -0.11087841
Cs       5.61996192       5.58345022       5.64961313       35       0.00953927      -0.02186891      -0.02822107
Sn       8.36455251       8.42147719       8.46525884       36       0.19823443       0.01288493      -0.63367079
Cl       8.32759150       8.43822833       5.68791348       37       0.08402630       0.09227335      -0.08076187
Cl       8.41705362       5.71484007       8.31182072       38       0.06128606      -0.54684940       0.12948135
Cl       5.68901779       8.35813063       8.38568414       39      -0.04075709       0.10226890       0.12164172
40
Lattice="11.23946905177687 0.0 0.0 0.0 11.23946905177697 0.0 0.0 1.0051475759667671e-13 11.239469051777043" Properties=species:S:1:pos:R:3:spacegroup_kinds:I:1:forces:R:3 spacegroup="P 1" unit_cell=conventional occupancy="_JSON {\"0\": {\"Cs\": 1.0}, \"1\": {\"Sn\": 1.0}, \"2\": {\"Cl\": 1.0}, \"3\": {\"Cl\": 1.0}, \"4\": {\"Cl\": 1.0}, \"5\": {\"Cs\": 1.0}, \"6\": {\"Sn\": 1.0}, \"7\": {\"Cl\": 1.0}, \"8\": {\"Cl\": 1.0}, \"9\": {\"Cl\": 1.0}, \"10\": {\"Cs\": 1.0}, \"11\": {\"Sn\": 1.0}, \"12\": {\"Cl\": 1.0}, \"13\": {\"Cl\": 1.0}, \"14\": {\"Cl\": 1.0}, \"15\": {\"Cs\": 1.0}, \"16\": {\"Sn\": 1.0}, \"17\": {\"Cl\": 1.0}, \"18\": {\"Cl\": 1.0}, \"19\": {\"Cl\": 1.0}, \"20\": {\"Cs\": 1.0}, \"21\": {\"Sn\": 1.0}, \"22\": {\"Cl\": 1.0}, \"23\": {\"Cl\": 1.0}, \"24\": {\"Cl\": 1.0}, \"25\": {\"Cs\": 1.0}, \"26\": {\"Sn\": 1.0}, \"27\": {\"Cl\": 1.0}, \"28\": {\"Cl\": 1.0}, \"29\": {\"Cl\": 1.0}, \"30\": {\"Cs\": 1.0}, \"31\": {\"Sn\": 1.0}, \"32\": {\"Cl\": 1.0}, \"33\": {\"Cl\": 1.0}, \"34\": {\"Cl\": 1.0}, \"35\": {\"Cs\": 1.0}, \"36\": {\"Sn\": 1.0}, \"37\": {\"Cl\": 1.0}, \"38\": {\"Cl\": 1.0}, \"39\": {\"Cl\": 1.0}}" candidate_id=6b2463c9de483b6d formula=FA0.88MA0.12SnCl3 config_index=3 rattle_stdev=0.08 method=PBE fidelity=phase2_force energy=-138.93411120137947 stress="-0.00045218417689587366 0.00020137894208153393 5.69217046846003e-05 0.00020137894208153393 -0.0005800466676974499 9.647481239387081e-05 5.69217046846003e-05 9.647481239387081e-05 0.00029387124133861936" pbc="T T T"
Cs      -0.10568348       0.16134023      11.24327421        0       0.07115643       0.03597874       0.03889326
Sn       2.79085357       2.81659708       2.88663064        1      -0.30315947      -0.36017513      -0.76579842
Cl       2.75533938       2.85219290      -0.06199346        2       0.07373516      -0.05932856      -0.17117314
Cl       2.92226376      11.22149461       2.70539641        3       0.01003909      -0.22124816       0.05214141
Cl      11.18518623       2.68019260       2.70746938        4       0.13234802       0.07733781       0.10058894
Cs      -0.01794374      -0.06804488       5.55927532        5      -0.04565895       0.02089302      -0.01902754
Sn       2.83092093       2.60545182       8.29597912        6       0.04589585       0.61494908       0.68738617
Cl       2.75292845       2.61412521       5.51759974        7       0.00163370      -0.03180752       0.30079553
Cl       2.86295707      11.13716233       8.36636901        8       0.00893019       0.56723607      -0.01553205
Cl      11.11927939       2.71470407       8.61093700        9       0.33547746       0.00362412      -0.11789676
Cs      -0.03814223       5.69146765      11.09507399       10       0.04543942      -0.13436001       0.00732827
Sn       2.77057009       8.33364206       2.74544964       11       0.10251681       0.40484214      -0.01510740
Cl       2.92233275       8.41117654      11.18237333       12      -0.06219953      -0.05231402       0.61126578
Cl       2.79686026       5.56542413       2.93099668       13      -0.03354895       0.29195723       0.02319842
Cl      11.09966322       8.48228416       2.78233796       14       1.15836045      -0.09136805      -0.00026521
Cs      -0.06069585       5.63349663       5.56715125       15      -0.03204937      -0.02370323       0.02762789
Sn       2.85408290       8.46021045       8.39989856       16      -0.11598198      -0.73191692       0.04066009
Cl       2.93611878       8.44694559       5.71666186       17      -0.01788151       0.02163971      -0.55102996
Cl       2.86838571       5.67365421       8.38317730       18      -0.00581092      -0.25446869      -0.08092412
Cl      11.23152188       8.30281260       8.42362448       19      -0.25794745       0.04396898       0.01634100
Cs       5.71563923      -0.02123382      11.18732508       20      -0.07129127       0.02965306       0.02668875
Sn       8.27787886       2.68664334       2.77844140       21       0.55076279       0.43119064       0.00463567
Cl       8.39644332       2.86675269       0.05140203       22      -0.08518646      -0.07337463      -0.11201256
Cl       8.62138869      11.22588647       2.72879657       23      -0.17112894      -0.31196065       0.01605577
Cl       5.58425003       2.87754544       2.84941598       24      -0.19736840      -0.06585819       0.05666329
Cs       5.64202559       0.04176727       5.64514386       25       0.02860824      -0.06437560      -0.01517596
Sn       8.44777270       2.77864002       8.37216038       26      -0.06852539      -0.04166638       0.07840764
Cl       8.55313068       2.74083165       5.59102832       27      -0.02944523      -0.01753999       0.13511400
Cl       8.43630593      11.37380681       8.33525481       28      -0.01405264      -0.89888192       0.08725789
Cl       5.58783635       2.77599612       8.47434874       29      -0.37560366      -0.11547937      -0.11658163
Cs       5.57355495       5.62543432      11.30884546       30      -0.01176250      -0.06825278      -0.06557522
Sn       8.46279451       8.41150301       2.87031471       31      -0.18209685      -0.22480387       0.15473292
Cl       8.44761218       8.39442155      11.29179539       32       0.03057199       0.00680951       0.02725977
Cl       8.35791193       5.50577863       2.94926599       33       0.06574631       0.20854133      -0.01993978
Cl       5.85328058       8.37570377       2.74818532       34      -1.00519456       0.04286000      -0.00114269
Cs       5.70417391       5.71139157       5.62938437       35       0.00274376       0.00637924       0.03706044
Sn       8.43060126       8.37364007       8.57970572       36       0.09036484       0.00113270      -0.41151763
Cl       8.39354912       8.40510305       5.73275387       37       0.01556021       0.01712895      -0.02560502
Cl       8.37731451       5.43840920       8.47802995       38       0.02683396       0.97578728      -0.01211416
Cl       5.57778909       8.44620097       8.51731396       39       0.25014043       0.03049407      -0.00538201
