K  Pb I  K  Pb I  K  Ge I  K  Ge I  K  Ge I  K  Pb I  K  Ge I  K  Ge I 
 1.0000000000000000
    12.5017893127343953    0.0000000000000000    0.0000000000000000
     0.0000000000000000   12.5017893127343953    0.0000000000000000
     0.0000000000000000    0.0000000000000000   12.5017893127343953
 K   Pb  I   K   Pb  I   K   Ge  I   K   Ge  I   K   Ge  I   K   Pb  I   K   Ge  I   K   Ge  I  
   1   1   3   1   1   3   1   1   3   1   1   3   1   1   3   1   1   3   1   1   3   1   1   3
Cartesian
  0.0000000000000000  0.0000000000000000  0.0000000000000000
  3.1254473281835988  3.1254473281835988  3.1254473281835988
  3.1254473281835988  3.1254473281835988  0.0000000000000000
  3.1254473281835988  0.0000000000000000  3.1254473281835988
  0.0000000000000000  3.1254473281835988  3.1254473281835988
  0.0000000000000000  0.0000000000000000  6.2508946563671968
  3.1254473281835988  3.1254473281835988  9.3763419845507965
  3.1254473281835988  3.1254473281835988  6.2508946563671968
  3.1254473281835988  0.0000000000000000  9.3763419845507965
  0.0000000000000000  3.1254473281835988  9.3763419845507965
  0.0000000000000000  6.2508946563671968  0.0000000000000000
  3.1254473281835988  9.3763419845507965  3.1254473281835988
  3.1254473281835988  9.3763419845507965  0.0000000000000000
  3.1254473281835988  6.2508946563671968  3.1254473281835988
  0.0000000000000000  9.3763419845507965  3.1254473281835988
  0.0000000000000000  6.2508946563671968  6.2508946563671968
  3.1254473281835988  9.3763419845507965  9.3763419845507965
  3.1254473281835988  9.3763419845507965  6.2508946563671968
  3.1254473281835988  6.2508946563671968  9.3763419845507965
  0.0000000000000000  9.3763419845507965  9.3763419845507965
  6.2508946563671968  0.0000000000000000  0.0000000000000000
  9.3763419845507965  3.1254473281835988  3.1254473281835988
  9.3763419845507965  3.1254473281835988  0.0000000000000000
  9.3763419845507965  0.0000000000000000  3.1254473281835988
  6.2508946563671968  3.1254473281835988  3.1254473281835988
  6.2508946563671968  0.0000000000000000  6.2508946563671968
  9.3763419845507965  3.1254473281835988  9.3763419845507965
  9.3763419845507965  3.1254473281835988  6.2508946563671968
  9.3763419845507965  0.0000000000000000  9.3763419845507965
  6.2508946563671968  3.1254473281835988  9.3763419845507965
  6.2508946563671968  6.2508946563671968  0.0000000000000000
  9.3763419845507965  9.3763419845507965  3.1254473281835988
  9.3763419845507965  9.3763419845507965  0.0000000000000000
  9.3763419845507965  6.2508946563671968  3.1254473281835988
  6.2508946563671968  9.3763419845507965  3.1254473281835988
  6.2508946563671968  6.2508946563671968  6.2508946563671968
  9.3763419845507965  9.3763419845507965  9.3763419845507965
  9.3763419845507965  9.3763419845507965  6.2508946563671968
  9.3763419845507965  6.2508946563671968  9.3763419845507965
  6.2508946563671968  9.3763419845507965  9.3763419845507965
