40
Lattice="12.666537598152596 0.0 0.0 0.0 12.66653759815259 0.0 0.0 -1.6099616284206057e-14 12.666537598152459" Properties=species:S:1:pos:R:3:spacegroup_kinds:I:1:forces:R:3 spacegroup="P 1" unit_cell=conventional occupancy="_JSON {\"0\": {\"Cs\": 1.0}, \"1\": {\"Pb\": 1.0}, \"2\": {\"I\": 1.0}, \"3\": {\"I\": 1.0}, \"4\": {\"I\": 1.0}, \"5\": {\"Cs\": 1.0}, \"6\": {\"Pb\": 1.0}, \"7\": {\"I\": 1.0}, \"8\": {\"I\": 1.0}, \"9\": {\"I\": 1.0}, \"10\": {\"Cs\": 1.0}, \"11\": {\"Pb\": 1.0}, \"12\": {\"I\": 1.0}, \"13\": {\"I\": 1.0}, \"14\": {\"I\": 1.0}, \"15\": {\"Cs\": 1.0}, \"16\": {\"Pb\": 1.0}, \"17\": {\"I\": 1.0}, \"18\": {\"I\": 1.0}, \"19\": {\"I\": 1.0}, \"20\": {\"Cs\": 1.0}, \"21\": {\"Pb\": 1.0}, \"22\": {\"I\": 1.0}, \"23\": {\"I\": 1.0}, \"24\": {\"I\": 1.0}, \"25\": {\"Cs\": 1.0}, \"26\": {\"Pb\": 1.0}, \"27\": {\"I\": 1.0}, \"28\": {\"I\": 1.0}, \"29\": {\"I\": 1.0}, \"30\": {\"Cs\": 1.0}, \"31\": {\"Ge\": 1.0}, \"32\": {\"I\": 1.0}, \"33\": {\"I\": 1.0}, \"34\": {\"I\": 1.0}, \"35\": {\"Cs\": 1.0}, \"36\": {\"Pb\": 1.0}, \"37\": {\"I\": 1.0}, \"38\": {\"I\": 1.0}, \"39\": {\"I\": 1.0}}" candidate_id=1d853c8e000c9cd1 formula=CsGe0.18Pb0.82I3 config_index=0 rattle_stdev=0.0 method=PBE fidelity=phase2_force energy=-112.90687877367812 stress="-0.0006900917769231399 -1.3116241097813076e-10 1.3116241097813195e-10 -1.3116241097813076e-10 -0.0006900917769231402 1.3116241010100118e-10 1.3116241097813195e-10 1.3116241010100118e-10 -0.0006900917769231546" pbc="T T T"
Cs      12.63011504      12.63011504       0.03642256        0      -0.00660445      -0.00660445       0.00660445
Pb       3.16663440       3.16663440       3.16663440        1       0.00028567       0.00028567       0.00030365
I        3.16663440       3.16663440      12.66447422        2      -0.00000448      -0.00000448       0.03640480
I        3.16663440      12.65728249       3.16663440        3      -0.00000321       0.00679865      -0.00000454
I       12.65728249       3.16663440       3.16663440        4       0.00679865      -0.00000321      -0.00000454
Cs      12.63011504      12.63011504       6.29684624        5      -0.00660267      -0.00660267      -0.00658832
Pb       3.16663440       3.16663440       9.49990320        6       0.00031108       0.00031108      -0.00031108
I        3.16663440       3.16663440       6.33533217        7      -0.00000340      -0.00000340      -0.03640675
I        3.16663440       0.00206337       9.49990320        8      -0.00000448      -0.03640480       0.00000448
I        0.00206337       3.16663440       9.49990320        9      -0.03640480      -0.00000448       0.00000448
Cs      12.63011504       6.36969136       0.03642256       10      -0.00660267       0.00658832       0.00660267
Pb       3.16663440       9.49990320       3.16663440       11      -0.00001406      -0.00032710       0.00032710
I        3.16663440       9.49990320       0.00925510       12      -0.00000321       0.00000454      -0.00679865
I        3.16663440       6.34252390       3.16663440       13      -0.00000224      -0.00681223      -0.00000329
I       12.49792014       9.49990320       3.16663440       14       0.24696530       0.00000486      -0.00000486
Cs      12.63011504       6.36969136       6.29684624       15      -0.00660124       0.00658687      -0.00658687
Pb       3.16663440       9.49990320       9.49990320       16       0.00028567      -0.00030365      -0.00028567
I        3.16663440       9.49990320       6.32401370       17      -0.00000224       0.00000329       0.00681223
I        3.16663440       6.33120543       9.49990320       18      -0.00000340       0.03640675       0.00000340
I       12.65728249       9.49990320       9.49990320       19       0.00679865       0.00000454       0.00000321
Cs       6.36969136      12.63011504       0.03642256       20       0.00658832      -0.00660267       0.00660267
Pb       9.49990320       3.16663440       3.16663440       21      -0.00032710      -0.00001406       0.00032710
I        9.49990320       3.16663440       0.00925510       22       0.00000454      -0.00000321      -0.00679865
I        9.49990320      12.49792014       3.16663440       23       0.00000486       0.24696530      -0.00000486
I        6.34252390       3.16663440       3.16663440       24      -0.00681223      -0.00000224      -0.00000329
Cs       6.36969136      12.63011504       6.29684624       25       0.00658687      -0.00660124      -0.00658687
Pb       9.49990320       3.16663440       9.49990320       26      -0.00030365       0.00028567      -0.00028567
I        9.49990320       3.16663440       6.32401370       27       0.00000329      -0.00000224       0.00681223
I        9.49990320      12.65728249       9.49990320       28       0.00000454       0.00679865       0.00000321
I        6.33120543       3.16663440       9.49990320       29       0.03640675      -0.00000340       0.00000340
Cs       6.36969136       6.36969136       0.03642256       30       0.00658687       0.00658687       0.00660124
Ge       9.49990320       9.49990320       3.16663440       31       0.00003337       0.00003337      -0.00003337
I        9.49990320       9.49990320       0.16861746       32       0.00000486       0.00000486      -0.24696530
I        9.49990320       6.50188626       3.16663440       33       0.00000366      -0.24701461      -0.00000366
I        6.50188626       9.49990320       3.16663440       34      -0.24701461       0.00000366      -0.00000366
Cs       6.36969136       6.36969136       6.29684624       35       0.00658497       0.00658497      -0.00658497
Pb       9.49990320       9.49990320       9.49990320       36      -0.00032710      -0.00032710       0.00001406
I        9.49990320       9.49990320       6.16465134       37       0.00000366       0.00000366       0.24701461
I        9.49990320       6.34252390       9.49990320       38       0.00000329      -0.00681223       0.00000224
I        6.34252390       9.49990320       9.49990320       39      -0.00681223       0.00000329       0.00000224
40
Lattice="12.666537598152596 0.0 0.0 0.0 12.66653759815259 0.0 0.0 -1.6099616284206057e-14 12.666537598152459" Properties=species:S:1:pos:R:3:spacegroup_kinds:I:1:forces:R:3 spacegroup="P 1" unit_cell=conventional occupancy="_JSON {\"0\": {\"Cs\": 1.0}, \"1\": {\"Pb\": 1.0}, \"2\": {\"I\": 1.0}, \"3\": {\"I\": 1.0}, \"4\": {\"I\": 1.0}, \"5\": {\"Cs\": 1.0}, \"6\": {\"Pb\": 1.0}, \"7\": {\"I\": 1.0}, \"8\": {\"I\": 1.0}, \"9\": {\"I\": 1.0}, \"10\": {\"Cs\": 1.0}, \"11\": {\"Pb\": 1.0}, \"12\": {\"I\": 1.0}, \"13\": {\"I\": 1.0}, \"14\": {\"I\": 1.0}, \"15\": {\"Cs\": 1.0}, \"16\": {\"Pb\": 1.0}, \"17\": {\"I\": 1.0}, \"18\": {\"I\": 1.0}, \"19\": {\"I\": 1.0}, \"20\": {\"Cs\": 1.0}, \"21\": {\"Pb\": 1.0}, \"22\": {\"I\": 1.0}, \"23\": {\"I\": 1.0}, \"24\": {\"I\": 1.0}, \"25\": {\"Cs\": 1.0}, \"26\": {\"Pb\": 1.0}, \"27\": {\"I\": 1.0}, \"28\": {\"I\": 1.0}, \"29\": {\"I\": 1.0}, \"30\": {\"Cs\": 1.0}, \"31\": {\"Ge\": 1.0}, \"32\": {\"I\": 1.0}, \"33\": {\"I\": 1.0}, \"34\": {\"I\": 1.0}, \"35\": {\"Cs\": 1.0}, \"36\": {\"Pb\": 1.0}, \"37\": {\"I\": 1.0}, \"38\": {\"I\": 1.0}, \"39\": {\"I\": 1.0}}" candidate_id=1d853c8e000c9cd1 formula=CsGe0.18Pb0.82I3 config_index=1 rattle_stdev=0.08 method=PBE fidelity=phase2_force energy=-112.55119996908402 stress="-0.0020940944510057405 5.572835565225335e-05 -3.457303300467959e-05 5.572835565225335e-05 -0.0015651748935042369 -4.788477175610358e-05 -3.457303300467959e-05 -4.788477175610358e-05 -0.002551684854359628" pbc="T T T"
Cs      12.54319933      12.55842983       0.01191861        0      -0.02594035       0.02575840       0.04572810
Pb       3.05943971       3.07010755       3.11529625        1       0.27467476       0.27583715       0.25934702
I        3.27127005       3.31427123      12.73080342        2      -0.04695089      -0.02182826      -0.04767557
I        3.16477049      12.64059738       3.09330482        3       0.02959250       0.01961786       0.00002886
I       12.57130309       3.15974292       3.26070148        4       0.54320171      -0.00769316       0.01754125
Cs      12.49930770      12.72837056       6.38295714        5       0.02453582       0.01673350      -0.05553049
Pb       3.19821623       3.13561833       9.54697534        6       0.06688777       0.06594964      -0.10164559
I        3.05197049       3.14074843       6.43557095        7       0.03255370       0.02415271      -0.26791268
I        3.10817499       0.11634218       9.57547551        8      -0.02169022      -0.59774203       0.02226411
I       -0.01905685       3.15357734       9.42277462        9       0.09637038       0.00883393       0.02483947
Cs      12.60270325       6.37360368      -0.00354800       10      -0.00951250      -0.02142078       0.03106445
Pb       2.98968204       9.52469015       3.03946230       11       0.17853692      -0.27405327      -0.00435622
I        3.22499077       9.49127110      -0.04275862       12      -0.01738076       0.01948315      -0.06918766
I        3.03118988       6.31304598       3.03940466       13       0.01334725       0.02117064       0.06423670
I       12.61636061       9.53785841       3.23974350       14      -0.10387340      -0.00190189       0.02058837
Cs      12.70695266       6.37645476       6.43422472       15       0.00662912      -0.02468555      -0.03468649
Pb       3.23478582       9.43951237       9.31689285       16       0.21076579       0.09651197       0.31943749
I        3.17537349       9.46389055       6.29097590       17       0.01293518      -0.01019169      -0.15658092
I        3.19215310       6.28791679       9.57579652       18      -0.02402166       0.40254077      -0.03356392
I       12.66939730       9.50605539       9.49515117       19       0.40235915       0.00792100       0.04420565
Cs       6.36408026      12.58482312       0.06130299       20       0.02367816       0.02082268       0.03037880
Pb       9.55783990       3.20795040       3.24871685       21      -0.45150765      -0.18041512      -0.48867951
I        9.54151541       3.09704732       0.12930032       22       0.03670348       0.01594067      -0.44818575
I        9.59322097      12.53727330       3.10805342       23      -0.01820931       0.16706281       0.11455213
I        6.39694839       3.20735415       3.09963150       24      -0.35794784      -0.00531381       0.05023761
Cs       6.42150294      12.63111820       6.42161337       25      -0.01148601      -0.00104184      -0.03503606
Pb       9.58267083       3.19364981       9.39569437       26      -0.19411856       0.25524131       0.35597003
I        9.41041966       3.27139561       6.28255634       27      -0.03441436      -0.02275660       0.45250705
I        9.46845325      12.74071997       9.50588042       28       0.01019190      -0.16431775      -0.00319578
I        6.33836039       3.17094699       9.53337896       29       0.04508584      -0.00183219      -0.00646717
Cs       6.27147295       6.28252803       0.06179251       30       0.01258495      -0.01449975       0.02690250
Ge       9.43747076       9.43141272       3.06104469       31      -0.22282806       0.15836470      -0.01861939
I        9.53620573       9.58004519       0.28171623       32      -0.00609351      -0.02825777      -0.28600046
I        9.48468857       6.50429510       3.01676106       33       0.03423616      -0.11363456       0.04014323
I        6.49254410       9.48970397       3.23880914       34       0.10007848       0.00313392      -0.01984665
Cs       6.26454158       6.36172730       6.30809023       35       0.01141745      -0.00539229      -0.01777590
Pb       9.71020767       9.64036551       9.28905137       36      -0.65515033      -0.32086153       0.15708370
I        9.39697164       9.48616542       6.30868764       37       0.08189120       0.04500641      -0.07297490
I        9.54859885       6.34504595       9.38259022       38       0.00624789       0.16832350       0.06015179
I        6.36727916       9.59128063       9.45903567       39      -0.05197973      -0.00110036       0.03147706
40
Lattice="12.666537598152596 0.0 0.0 0.0 12.66653759815259 0.0 0.0 -1.6099616284206057e-14 12.666537598152459" Properties=species:S:1:pos:R:3:spacegroup_kinds:I:1:forces:R:3 spacegroup="P 1" unit_cell=conventional occupancy="_JSON {\"0\": {\"Cs\": 1.0}, \"1\": {\"Pb\": 1.0}, \"2\": {\"I\": 1.0}, \"3\": {\"I\": 1.0}, \"4\": {\"I\": 1.0}, \"5\": {\"Cs\": 1.0}, \"6\": {\"Pb\": 1.0}, \"7\": {\"I\": 1.0}, \"8\": {\"I\": 1.0}, \"9\": {\"I\": 1.0}, \"10\": {\"Cs\": 1.0}, \"11\": {\"Pb\": 1.0}, \"12\": {\"I\": 1.0}, \"13\": {\"I\": 1.0}, \"14\": {\"I\": 1.0}, \"15\": {\"Cs\": 1.0}, \"16\": {\"Pb\": 1.0}, \"17\": {\"I\": 1.0}, \"18\": {\"I\": 1.0}, \"19\": {\"I\": 1.0}, \"20\": {\"Cs\": 1.0}, \"21\": {\"Pb\": 1.0}, \"22\": {\"I\": 1.0}, \"23\": {\"I\": 1.0}, \"24\": {\"I\": 1.0}, \"25\": {\"Cs\": 1.0}, \"26\": {\"Pb\": 1.0}, \"27\": {\"I\": 1.0}, \"28\": {\"I\": 1.0}, \"29\": {\"I\": 1.0}, \"30\": {\"Cs\": 1.0}, \"31\": {\"Ge\": 1.0}, \"32\": {\"I\": 1.0}, \"33\": {\"I\": 1.0}, \"34\": {\"I\": 1.0}, \"35\": {\"Cs\": 1.0}, \"36\": {\"Pb\": 1.0}, \"37\": {\"I\": 1.0}, \"38\": {\"I\": 1.0}, \"39\": {\"I\": 1.0}}" candidate_id=1d853c8e000c9cd1 formula=CsGe0.18Pb0.82I3 config_index=2 rattle_stdev=0.08 method=PBE fidelity=phase2_force energy=-112.40582508562953 stress="-0.001999725216807118 4.945705857595722e-05 5.512429683010877e-06 4.945705857595722e-05 -0.0021443896758137626 -9.965016241351072e-05 5.512429683010877e-06 -9.965016241351072e-05 -0.0013686447133806645" pbc="T T T"
Cs      12.62109800      12.54398992       0.17922471        0       0.01109120      -0.01402443      -0.05122932
Pb       3.05007573       3.14052874       3.06584268        1       0.72276520       0.26930463       0.13585725
I        3.19670372       3.09638261      12.63647616        2      -0.02935801       0.03096177      -0.02448678
I        3.19036722      12.75335545       3.04111478        3       0.00054215      -0.60455804       0.03342570
I       12.80560479       3.20615134       3.15617749        4      -1.00805875       0.02665904      -0.01517518
Cs      12.59786538      12.55222206       6.25944890        5      -0.02570876      -0.01947738       0.04721993
Pb       3.10920068       3.26434586       9.43772720        6       0.38042182      -0.16895737       0.01899451
I        3.11955235       3.16202489       6.34169856        7       0.02213712      -0.08601114      -0.15487409
I        3.07197831      -0.12183602       9.57288369        8      -0.00095224       0.56388051       0.00357458
I        0.03507703       3.11097288       9.31680145        9      -0.21666930       0.00403735       0.02054673
Cs      12.56713572       6.28741002       0.04388721       10       0.01658784       0.03019134      -0.01564546
Pb       3.12429887       9.56232279       3.15056922       11       0.17890400      -0.20953445       0.06370995
I        3.12818571       9.41708223      -0.03096365       12       0.01047536      -0.05386643       0.39154237
I        3.22982562       6.26852409       3.34343723       13      -0.01687372       0.48957824      -0.04717625
I       12.38590125       9.48077541       3.18402165       14       0.66488725      -0.03971318       0.02148639
Cs      12.60192422       6.37656140       6.30537840       15      -0.01086493       0.01913694       0.01492078
Pb       3.15087190       9.60765791       9.52751712       16       0.00007877      -0.42915947      -0.11053858
I        3.21124595       9.45228039       6.38264027       17      -0.01424299       0.04999681      -0.35540645
I        3.27313461       6.27280279       9.46104274       18      -0.00813139       0.15220340       0.03258869
I       12.74343563       9.29227460       9.51325745       19      -0.16661593      -0.01673230      -0.00448961
Cs       6.45280813      12.48542913       0.09711383       20      -0.01494859       0.02899695      -0.01611497
Pb       9.45989417       2.97909095       3.15800098       21      -0.14317514       0.04716257       0.12343941
I        9.37968018       3.20573669      -0.03499918       22       0.05818435       0.04009976       0.18689628
I        9.58450380      12.42837471       3.16062711       23       0.00955228       0.51571283      -0.01451838
I        6.33395151       3.33454016       3.13939136       24       0.30078394      -0.08512146      -0.00808035
Cs       6.32745895      12.52654570       6.31397416       25       0.03024059      -0.00177167       0.01375862
Pb       9.59000476       3.19875727       9.56115002       26      -0.32750496      -0.06570261      -0.24814276
I        9.39165300       3.21254308       6.30640273       27       0.04344859      -0.04758825      -0.06118165
I        9.55151832      12.57690495       9.65188228       28       0.03359023       0.48253942       0.01786833
I        6.34855429       3.20663203       9.44977591       29       0.09679358      -0.05658815       0.00223918
Cs       6.28946062       6.30718654       0.05276478       30      -0.01446798      -0.03278978       0.00829412
Ge       9.54279056       9.41390340       2.98920602       31      -0.30020538      -0.21825312       0.34262594
I        9.55165762       9.47411633       0.15481232       32       0.00103896      -0.03929129      -0.16993487
I        9.31682945       6.49292275       3.24305950       33       0.09331206      -0.15018616      -0.07822565
I        6.53826531       9.66485739       3.17163124       34      -0.54984477       0.00839031      -0.05517587
Cs       6.36991875       6.33340705       6.32672484       35       0.00878617      -0.00809601      -0.00643753
Pb       9.43485392       9.49177860       9.53556025       36       0.30765704       0.10306423      -0.37308055
I        9.39789291       9.50852974       6.23283029       37       0.06295238       0.05211730       0.23821433
I        9.48735503       6.43762944       9.38212213       38       0.04887621      -0.59096983       0.03645177
I        6.41180717       9.42843204       9.45598555       39      -0.26261198       0.02726997       0.05764783
40
Lattice="12.666537598152596 0.0 0.0 0.0 12.66653759815259 0.0 0.0 -1.6099616284206057e-14 12.666537598152459" Properties=species:S:1:pos:R:3:spacegroup_kinds:I:1:forces:R:3 spacegroup="P 1" unit_cell=conventional occupancy="_JSON {\"0\": {\"Cs\": 1.0}, \"1\": {\"Pb\": 1.0}, \"2\": {\"I\": 1.0}, \"3\": {\"I\": 1.0}, \"4\": {\"I\": 1.0}, \"5\": {\"Cs\": 1.0}, \"6\": {\"Pb\": 1.0}, \"7\": {\"I\": 1.0}, \"8\": {\"I\": 1.0}, \"9\": {\"I\": 1.0}, \"10\": {\"Cs\": 1.0}, \"11\": {\"Pb\": 1.0}, \"12\": {\"I\": 1.0}, \"13\": {\"I\": 1.0}, \"14\": {\"I\": 1.0}, \"15\": {\"Cs\": 1.0}, \"16\": {\"Pb\": 1.0}, \"17\": {\"I\": 1.0}, \"18\": {\"I\": 1.0}, \"19\": {\"I\": 1.0}, \"20\": {\"Cs\": 1.0}, \"21\": {\"Pb\": 1.0}, \"22\": {\"I\": 1.0}, \"23\": {\"I\": 1.0}, \"24\": {\"I\": 1.0}, \"25\": {\"Cs\": 1.0}, \"26\": {\"Pb\": 1.0}, \"27\": {\"I\": 1.0}, \"28\": {\"I\": 1.0}, \"29\": {\"I\": 1.0}, \"30\": {\"Cs\": 1.0}, \"31\": {\"Ge\": 1.0}, \"32\": {\"I\": 1.0}, \"33\": {\"I\": 1.0}, \"34\": {\"I\": 1.0}, \"35\": {\"Cs\": 1.0}, \"36\": {\"Pb\": 1.0}, \"37\": {\"I\": 1.0}, \"38\": {\"I\": 1.0}, \"39\": {\"I\": 1.0}}" candidate_id=1d853c8e000c9cd1 formula=CsGe0.18Pb0.82I3 config_index=3 rattle_stdev=0.08 method=PBE fidelity=phase2_force energy=-112.21308762321357 stress="-0.0023306361723011656 0.00017483998422930956 3.109652555618478e-05 0.00017483998422930956 -0.001988082429462265 5.47440557475835e-07 3.109652555618478e-05 5.47440557475835e-07 -0.0014124521289386272" pbc="T T T"
Cs      12.52443156      12.79145527       0.04022771        0       0.01953489       0.04289040       0.02689154
Pb       3.14762071       3.17336421       3.24339778        1      -0.27347507      -0.28545522      -0.67294231
I        3.11210652       3.20896003      12.60248077        2       0.02381484      -0.00199566      -0.03735844
I        3.27903090      12.63930806       3.06216354        3       0.02723936      -0.18280000      -0.00013386
I       12.60299968       3.03695974       3.06423652        4       0.12834485       0.03238700       0.02757576
Cs      12.61217131      12.56207016       6.23638703        5      -0.04052249       0.00806160      -0.02866655
Pb       3.18768806       2.96221896       9.36628053        6      -0.04874038       0.50103141       0.44762957
I        3.10969558       2.97089235       6.23319739        7      -0.03661073      -0.03322135       0.35544942
I        3.21972420      -0.10024334       9.43667042        8      -0.02249798       0.41246117       0.01664813
I       -0.11812629       3.07147120       9.68123841        9       0.45844773       0.02112575      -0.00207015
Cs      12.59197281       6.44142448      -0.10797250       10       0.00732851      -0.06719412      -0.00360448
Pb       3.12733723       9.40394347       3.10221677       11      -0.07788231       0.31886917       0.05558608
I        3.27909989       9.48147795      -0.04784062       12      -0.01757444      -0.03993462       0.46750132
I        3.15362740       6.28821351       3.28776382       13      -0.00581879       0.20767792       0.02066561
I       12.35811431       9.55258557       3.13910510       14       1.18811306      -0.10101073       0.03800573
Cs      12.56941919       6.38345346       6.24426296       15      -0.04379070       0.00471873       0.00030836
Pb       3.21085004       9.53051186       9.47019997       16      -0.18680695      -0.56998772       0.05954358
I        3.29288592       9.51724700       6.42094103       17       0.00540657       0.01703385      -0.60823733
I        3.22515285       6.38512511       9.45347871       18      -0.01845374      -0.31394058      -0.03390184
I       12.64933533       9.37311401       9.49392588       19      -0.10664601       0.01123206      -0.00037267
Cs       6.46559606      12.60888123      -0.01572141       20      -0.01988594       0.01111813       0.01338948
Pb       9.34818027       3.04341048       3.13520854       21       0.41857312       0.12989852       0.05474994
I        9.46674473       3.22351982       0.06065714       22      -0.04913998      -0.01684033      -0.21107233
I        9.69169010      12.48433755       3.08556370       23      -0.12966137       0.12301041       0.04147695
I        6.30703941       3.23431258       3.20618312       24      -0.18091533      -0.00504519       0.02515704
Cs       6.39198242      12.67188232       6.32225558       25       0.02213702      -0.03542895      -0.00375882
Pb       9.51807411       3.13540716       9.44246179       26      -0.16659691      -0.03098899       0.03230667
I        9.62343209       3.09759879       6.29530749       27       0.00577705       0.00612446       0.10109907
I        9.50660734      12.79162026       9.40555622       28      -0.03129282      -0.95525660       0.04916798
I        6.29930725       3.13276325       9.54465014       29      -0.14506129      -0.03094219      -0.03943268
Cs       6.32351178       6.37539115       0.10579897       30       0.00574748      -0.02770957      -0.02870011
Ge       9.53309592       9.48180442       3.22708185       31      -0.16264786      -0.16170895       0.13776888
I        9.51791359       9.46472296       0.22094380       32       0.02702208      -0.02465647      -0.35857352
I        9.42821334       6.38793036       3.30603313       33       0.07993114      -0.04598674      -0.00935129
I        6.73543231       9.44600518       3.10495246       34      -1.02179359       0.05520921       0.03047905
Cs       6.45413074       6.46134840       6.30649609       35       0.02413365       0.02396880       0.01166144
Pb       9.50090267       9.44394148       9.65000713       36       0.03965504       0.02847660      -0.11927836
I        9.46385053       9.47540446       6.27767069       37       0.01624900       0.02644192       0.13335358
I        9.44761592       6.16119858       9.54833136       38      -0.01640202       0.93052372       0.00153977
I        6.30057846       9.51650238       9.58761537       39       0.30421464       0.01452945       0.00754963
