Cs Sn I  Cs Sn I  Cs Sn Cl I  Cs Sn I  Cl I  Cs Sn I  Cl Cs Sn I  Cs Sn I  Cl I  Cs Sn I 
 1.0000000000000000
    13.1807532440297202    0.0000000000000000    0.0000000000000000
     0.0000000000000000   13.1807532440297202    0.0000000000000000
     0.0000000000000000    0.0000000000000000   13.1807532440297202
 Cs  Sn  I   Cs  Sn  I   Cs  Sn  Cl  I   Cs  Sn  I   Cl  I   Cs  Sn  I   Cl  Cs  Sn  I   Cs  Sn  I   Cl  I   Cs  Sn  I  
   1   1   3   1   1   3   1   1   2   1   1   1   1   1   1   1   1   2   1   1   1   3   1   1   1   1   1   1   1   3
Cartesian
  0.0000000000000000  0.0000000000000000  0.0000000000000000
  3.2951883110074300  3.2951883110074300  3.2951883110074300
  3.2951883110074300  3.2951883110074300  0.0000000000000000
  3.2951883110074300  0.0000000000000000  3.2951883110074300
  0.0000000000000000  3.2951883110074300  3.2951883110074300
  0.0000000000000000  0.0000000000000000  6.5903766220148592
  3.2951883110074300  3.2951883110074300  9.8855649330222910
  3.2951883110074300  3.2951883110074300  6.5903766220148592
  3.2951883110074300  0.0000000000000000  9.8855649330222910
  0.0000000000000000  3.2951883110074300  9.8855649330222910
  0.0000000000000000  6.5903766220148592  0.0000000000000000
  3.2951883110074300  9.8855649330222910  3.2951883110074300
  3.2951883110074300  9.8855649330222910  0.0000000000000000
  3.2951883110074300  6.5903766220148592  3.2951883110074300
  0.0000000000000000  9.8855649330222910  3.2951883110074300
  0.0000000000000000  6.5903766220148592  6.5903766220148592
  3.2951883110074300  9.8855649330222910  9.8855649330222910
  3.2951883110074300  9.8855649330222910  6.5903766220148592
  3.2951883110074300  6.5903766220148592  9.8855649330222910
  0.0000000000000000  9.8855649330222910  9.8855649330222910
  6.5903766220148592  0.0000000000000000  0.0000000000000000
  9.8855649330222910  3.2951883110074300  3.2951883110074300
  9.8855649330222910  3.2951883110074300  0.0000000000000000
  9.8855649330222910  0.0000000000000000  3.2951883110074300
  6.5903766220148592  3.2951883110074300  3.2951883110074300
  6.5903766220148592  0.0000000000000000  6.5903766220148592
  9.8855649330222910  3.2951883110074300  9.8855649330222910
  9.8855649330222910  3.2951883110074300  6.5903766220148592
  9.8855649330222910  0.0000000000000000  9.8855649330222910
  6.5903766220148592  3.2951883110074300  9.8855649330222910
  6.5903766220148592  6.5903766220148592  0.0000000000000000
  9.8855649330222910  9.8855649330222910  3.2951883110074300
  9.8855649330222910  9.8855649330222910  0.0000000000000000
  9.8855649330222910  6.5903766220148592  3.2951883110074300
  6.5903766220148592  9.8855649330222910  3.2951883110074300
  6.5903766220148592  6.5903766220148592  6.5903766220148592
  9.8855649330222910  9.8855649330222910  9.8855649330222910
  9.8855649330222910  9.8855649330222910  6.5903766220148592
  9.8855649330222910  6.5903766220148592  9.8855649330222910
  6.5903766220148592  9.8855649330222910  9.8855649330222910
