Cs Sn Cl Cs Sn Cl Cs Ge Cl Cs Ge Cl Cs Ge Cl Cs Sn Cl Cs Ge Cl Cs Sn Cl
 1.0000000000000000
    11.0599985858950269    0.0000000000000000    0.0000000000000000
     0.0000000000000000   11.0599985858950269    0.0000000000000000
     0.0000000000000000    0.0000000000000000   11.0599985858950269
 Cs  Sn  Cl  Cs  Sn  Cl  Cs  Ge  Cl  Cs  Ge  Cl  Cs  Ge  Cl  Cs  Sn  Cl  Cs  Ge  Cl  Cs  Sn  Cl 
   1   1   3   1   1   3   1   1   3   1   1   3   1   1   3   1   1   3   1   1   3   1   1   3
Cartesian
  0.0000000000000000  0.0000000000000000  0.0000000000000000
  2.7649996464737567  2.7649996464737567  2.7649996464737567
  2.7649996464737567  2.7649996464737567  0.0000000000000000
  2.7649996464737567  0.0000000000000000  2.7649996464737567
  0.0000000000000000  2.7649996464737567  2.7649996464737567
  0.0000000000000000  0.0000000000000000  5.5299992929475126
  2.7649996464737567  2.7649996464737567  8.2949989394212693
  2.7649996464737567  2.7649996464737567  5.5299992929475126
  2.7649996464737567  0.0000000000000000  8.2949989394212693
  0.0000000000000000  2.7649996464737567  8.2949989394212693
  0.0000000000000000  5.5299992929475126  0.0000000000000000
  2.7649996464737567  8.2949989394212693  2.7649996464737567
  2.7649996464737567  8.2949989394212693  0.0000000000000000
  2.7649996464737567  5.5299992929475126  2.7649996464737567
  0.0000000000000000  8.2949989394212693  2.7649996464737567
  0.0000000000000000  5.5299992929475126  5.5299992929475126
  2.7649996464737567  8.2949989394212693  8.2949989394212693
  2.7649996464737567  8.2949989394212693  5.5299992929475126
  2.7649996464737567  5.5299992929475126  8.2949989394212693
  0.0000000000000000  8.2949989394212693  8.2949989394212693
  5.5299992929475126  0.0000000000000000  0.0000000000000000
  8.2949989394212693  2.7649996464737567  2.7649996464737567
  8.2949989394212693  2.7649996464737567  0.0000000000000000
  8.2949989394212693  0.0000000000000000  2.7649996464737567
  5.5299992929475126  2.7649996464737567  2.7649996464737567
  5.5299992929475126  0.0000000000000000  5.5299992929475126
  8.2949989394212693  2.7649996464737567  8.2949989394212693
  8.2949989394212693  2.7649996464737567  5.5299992929475126
  8.2949989394212693  0.0000000000000000  8.2949989394212693
  5.5299992929475126  2.7649996464737567  8.2949989394212693
  5.5299992929475126  5.5299992929475126  0.0000000000000000
  8.2949989394212693  8.2949989394212693  2.7649996464737567
  8.2949989394212693  8.2949989394212693  0.0000000000000000
  8.2949989394212693  5.5299992929475126  2.7649996464737567
  5.5299992929475126  8.2949989394212693  2.7649996464737567
  5.5299992929475126  5.5299992929475126  5.5299992929475126
  8.2949989394212693  8.2949989394212693  8.2949989394212693
  8.2949989394212693  8.2949989394212693  5.5299992929475126
  8.2949989394212693  5.5299992929475126  8.2949989394212693
  5.5299992929475126  8.2949989394212693  8.2949989394212693
