40
Lattice="12.324507993641763 0.0 0.0 0.0 12.322549705500638 0.0 0.0 -2.6607018257561016e-14 12.322549705500773" Properties=species:S:1:pos:R:3:spacegroup_kinds:I:1:forces:R:3 spacegroup="P 1" unit_cell=conventional occupancy="_JSON {\"0\": {\"Rb\": 1.0}, \"1\": {\"Pb\": 1.0}, \"2\": {\"I\": 1.0}, \"3\": {\"I\": 1.0}, \"4\": {\"I\": 1.0}, \"5\": {\"Rb\": 1.0}, \"6\": {\"Pb\": 1.0}, \"7\": {\"I\": 1.0}, \"8\": {\"I\": 1.0}, \"9\": {\"I\": 1.0}, \"10\": {\"Rb\": 1.0}, \"11\": {\"Ge\": 1.0}, \"12\": {\"I\": 1.0}, \"13\": {\"I\": 1.0}, \"14\": {\"I\": 1.0}, \"15\": {\"Rb\": 1.0}, \"16\": {\"Ge\": 1.0}, \"17\": {\"I\": 1.0}, \"18\": {\"I\": 1.0}, \"19\": {\"I\": 1.0}, \"20\": {\"Rb\": 1.0}, \"21\": {\"Ge\": 1.0}, \"22\": {\"I\": 1.0}, \"23\": {\"I\": 1.0}, \"24\": {\"I\": 1.0}, \"25\": {\"Rb\": 1.0}, \"26\": {\"Pb\": 1.0}, \"27\": {\"I\": 1.0}, \"28\": {\"I\": 1.0}, \"29\": {\"I\": 1.0}, \"30\": {\"Rb\": 1.0}, \"31\": {\"Ge\": 1.0}, \"32\": {\"I\": 1.0}, \"33\": {\"I\": 1.0}, \"34\": {\"I\": 1.0}, \"35\": {\"Rb\": 1.0}, \"36\": {\"Pb\": 1.0}, \"37\": {\"I\": 1.0}, \"38\": {\"I\": 1.0}, \"39\": {\"I\": 1.0}}" candidate_id=71979820f87a7961 formula=RbGe0.48Pb0.52I3 config_index=0 rattle_stdev=0.0 method=PBE fidelity=phase2_force energy=-110.31134533574722 stress="-0.0014694616989994681 7.732650561126933e-11 7.732650561126865e-11 7.732650561126933e-11 -0.001635663557607906 -7.599709845508877e-12 7.732650561126865e-11 -7.599709845508877e-12 -0.001635663557607869" pbc="T T T"
Rb      12.32450799      12.21745295       0.10509675        0       0.00000000      -0.01121896       0.01121896
Pb       3.08112700       3.08063743       3.08063743        1       0.00001469       0.00000954       0.00018617
I        3.08112700       3.08063743       0.01775127        2      -0.00000155      -0.00000048      -0.07114518
I        3.08112700      12.16728190       3.08063743        3      -0.00000317       0.20147984      -0.00000246
I       12.17490422       3.08063743       3.08063743        4       0.26370773      -0.00000139      -0.00000244
Rb      12.32450799      12.21745295       6.05617810        5       0.00000047      -0.01121679      -0.01121655
Pb       3.08112700       3.08063743       9.24191228        6       0.00016423      -0.00000485      -0.00014339
I        3.08112700       3.08063743       6.14352358        7      -0.00000153      -0.00000026       0.07115746
I        3.08112700      12.14733318       9.24191228        8      -0.00000201       0.33242710       0.00000103
I        0.00000000       3.08063743       9.24191228        9       0.00000000      -0.00000001       0.00000001
Rb      12.32450799       6.26637161       0.10509675       10      -0.00000047       0.01121655       0.01121679
Ge       3.08112700       9.24191228       3.08063743       11      -0.00000556       0.00000463      -0.00000371
I        3.08112700       9.24191228       0.01067620       12      -0.00000351       0.00000325       0.06061386
I        3.08112700       6.31654265       3.08063743       13      -0.00000346      -0.20151414      -0.00000237
I       12.32450799       9.24191228       3.08063743       14       0.00000000       0.00000308      -0.00000308
Rb      12.32450799       6.26637161       6.05617810       15       0.00000000       0.01121443      -0.01121443
Ge       3.08112700       9.24191228       9.24191228       16      -0.00000561       0.00000694       0.00000491
I        3.08112700       9.24191228       6.15059865       17      -0.00000375       0.00000317      -0.06061610
I        3.08112700       6.33649138       9.24191228       18      -0.00000227      -0.33246801       0.00000108
I        0.14960378       9.24191228       9.24191228       19      -0.26370773       0.00000244       0.00000139
Rb       6.16225400      12.21745295       0.10509675       20       0.00000000      -0.01121744       0.01121744
Ge       9.24338100       3.08063743       3.08063743       21       0.00000561      -0.00000491      -0.00000694
I        9.24338100       3.08063743       0.17521653       22       0.00000201      -0.00000103      -0.33242710
I        9.24338100      12.31187350       3.08063743       23       0.00000351      -0.06061386      -0.00000325
I        6.31185777       3.08063743       3.08063743       24      -0.26373760      -0.00000165      -0.00000255
Rb       6.16225400      12.21745295       6.05617810       25      -0.00000051      -0.01121516      -0.01121516
Pb       9.24338100       3.08063743       9.24191228       26      -0.00016423       0.00014339       0.00000485
I        9.24338100       3.08063743       5.98605832       27       0.00000227      -0.00000108       0.33246801
I        9.24338100      12.30479843       9.24191228       28       0.00000155       0.07114518       0.00000048
I        6.16225400       3.08063743       9.24191228       29       0.00000000      -0.00000013       0.00000013
Rb       6.16225400       6.26637161       0.10509675       30       0.00000051       0.01121516       0.01121516
Ge       9.24338100       9.24191228       3.08063743       31       0.00000556       0.00000371      -0.00000463
I        9.24338100       9.24191228       0.15526780       32       0.00000317       0.00000246      -0.20147984
I        9.24338100       6.17195106       3.08063743       33       0.00000375       0.06061610      -0.00000317
I        6.16225400       9.24191228       3.08063743       34       0.00000000       0.00000332      -0.00000332
Rb       6.16225400       6.26637161       6.05617810       35       0.00000000       0.01121290      -0.01121290
Pb       9.24338100       9.24191228       9.24191228       36      -0.00001469      -0.00018617      -0.00000954
I        9.24338100       9.24191228       6.00600705       37       0.00000346       0.00000237       0.20151414
I        9.24338100       6.17902613       9.24191228       38       0.00000153      -0.07115746       0.00000026
I        6.01265022       9.24191228       9.24191228       39       0.26373760       0.00000255       0.00000165
40
Lattice="12.324507993641763 0.0 0.0 0.0 12.322549705500638 0.0 0.0 -2.6607018257561016e-14 12.322549705500773" Properties=species:S:1:pos:R:3:spacegroup_kinds:I:1:forces:R:3 spacegroup="P 1" unit_cell=conventional occupancy="_JSON {\"0\": {\"Rb\": 1.0}, \"1\": {\"Pb\": 1.0}, \"2\": {\"I\": 1.0}, \"3\": {\"I\": 1.0}, \"4\": {\"I\": 1.0}, \"5\": {\"Rb\": 1.0}, \"6\": {\"Pb\": 1.0}, \"7\": {\"I\": 1.0}, \"8\": {\"I\": 1.0}, \"9\": {\"I\": 1.0}, \"10\": {\"Rb\": 1.0}, \"11\": {\"Ge\": 1.0}, \"12\": {\"I\": 1.0}, \"13\": {\"I\": 1.0}, \"14\": {\"I\": 1.0}, \"15\": {\"Rb\": 1.0}, \"16\": {\"Ge\": 1.0}, \"17\": {\"I\": 1.0}, \"18\": {\"I\": 1.0}, \"19\": {\"I\": 1.0}, \"20\": {\"Rb\": 1.0}, \"21\": {\"Ge\": 1.0}, \"22\": {\"I\": 1.0}, \"23\": {\"I\": 1.0}, \"24\": {\"I\": 1.0}, \"25\": {\"Rb\": 1.0}, \"26\": {\"Pb\": 1.0}, \"27\": {\"I\": 1.0}, \"28\": {\"I\": 1.0}, \"29\": {\"I\": 1.0}, \"30\": {\"Rb\": 1.0}, \"31\": {\"Ge\": 1.0}, \"32\": {\"I\": 1.0}, \"33\": {\"I\": 1.0}, \"34\": {\"I\": 1.0}, \"35\": {\"Rb\": 1.0}, \"36\": {\"Pb\": 1.0}, \"37\": {\"I\": 1.0}, \"38\": {\"I\": 1.0}, \"39\": {\"I\": 1.0}}" candidate_id=71979820f87a7961 formula=RbGe0.48Pb0.52I3 config_index=1 rattle_stdev=0.08 method=PBE fidelity=phase2_force energy=-109.91386882927632 stress="-0.0031962458949301937 4.0262778647209666e-05 -8.020151414133915e-05 4.0262778647209666e-05 -0.002312302661997782 -2.1492309569523282e-05 -8.020151414133915e-05 -2.1492309569523282e-05 -0.004051228648797867" pbc="T T T"
Rb      12.23759228      12.14576774       0.08059280        0      -0.01128128       0.02151805       0.03330800
Pb       2.97393231       2.98411058       3.02929928        1       0.17770371       0.15812466       0.46245723
I        3.18576265       3.22827426       0.08408047        2      -0.00807008       0.03900878      -0.25135182
I        3.07926309      12.15059679       3.00730785        3       0.02981643       0.25292370      -0.00189833
I       12.08892481       3.07374595       3.17470451        4       0.82546669       0.01576159       0.03433335
Rb      12.19370066      12.31570847       6.14228900        5       0.02600219       0.03217671      -0.04272675
Pb       3.11270883       3.04962136       9.28898442        6       0.04442500      -0.10736721      -0.08726300
I        2.96646309       3.05475145       6.24376235        7       0.03296088       0.03736746      -0.30284258
I        3.02266759      12.26161198       9.31748459        8      -0.01596389      -0.10655593       0.01561742
I       -0.02112022       3.06758036       9.16478370        9       0.25700523       0.00266445       0.02679261
Rb      12.29709621       6.27028393       0.06512619       10      -0.00048721      -0.01895143       0.02962414
Ge       2.90417464       9.26669923       2.95346532       11       0.14023027      -0.27062246      -0.26215113
I        3.13948337       9.23328018      -0.04133752       12      -0.05624230       0.03037431       0.28440978
I        2.94568248       6.28706473       2.95340769       13       0.01719206      -0.15745385       0.06586325
I       12.44294846       9.27986750       3.15374653       14      -0.25641170       0.01675613      -0.00294743
Rb      12.40134561       6.27313501       6.19355657       15       0.01978542      -0.02408635      -0.01586974
Ge       3.14927842       9.18152145       9.05890193       16       0.25517372       0.07291770      -0.08097233
I        3.08986609       9.20589963       6.11756085       17       0.01477270      -0.01787171       0.19215892
I        3.10664570       6.29320275       9.31780560       18      -0.00674792       0.09129747      -0.04743126
I        0.16171858       9.24806447       9.23716025       19      -0.05529102       0.01105564       0.02151686
Rb       6.15664290      12.17216103       0.12997718       20       0.00062740       0.01343003       0.03274732
Ge       9.30131770       3.12195343       3.16271988       21      -0.41754868      -0.19380100      -0.53268809
I        9.28499320       3.01105034       0.29526174       22       0.05951690       0.02065338      -0.75978099
I        9.33669877      12.35122666       3.02205645       23      -0.01704918      -0.11789432       0.14746330
I        6.36628226       3.12135717       3.01363453       24      -0.61230727      -0.01080632       0.05478289
Rb       6.21406559      12.21845611       6.18094523       25      -0.01748012      -0.00533340      -0.02678057
Pb       9.32614862       3.10765284       9.13770345       26      -0.31274018       0.30769841       0.16810533
I        9.15389745       3.18539864       5.94460096       27      -0.04292165      -0.02212335       0.87348948
I        9.21193105      12.38823591       9.24788950       28      -0.03565786      -0.14120219       0.02259799
I        6.16940896       3.08495002       9.27538804       29       0.05168239       0.00545842       0.00054386
Rb       6.06403559       6.17920828       0.13046670       30      -0.00695550      -0.01910627       0.04275014
Ge       9.18094855       9.17342180       2.97504771       31      -0.39110672       0.03426181       0.16891825
I        9.27968353       9.32205427       0.26836658       32       0.00344187      -0.01862687      -0.47779305
I        9.22816636       6.17435990       2.93076409       33       0.04434123       0.25055698       0.03562180
I        6.15291184       9.23171305       3.15281217       34       0.45797026      -0.01218013      -0.03230361
Rb       6.05710422       6.25840755       6.06742209       35       0.00273143      -0.00326205      -0.02233170
Pb       9.45368547       9.38237459       9.03106045       36      -0.27684259      -0.45108922       0.53862931
I        9.14044944       9.22817450       6.15004335       37       0.03008081       0.03764739      -0.49283305
I        9.29207665       6.18154817       9.12459930       38      -0.00875883       0.23803008       0.06815991
I        6.03740548       9.33328971       9.20104475       39       0.07587433      -0.00877563       0.01507524
40
Lattice="12.324507993641763 0.0 0.0 0.0 12.322549705500638 0.0 0.0 -2.6607018257561016e-14 12.322549705500773" Properties=species:S:1:pos:R:3:spacegroup_kinds:I:1:forces:R:3 spacegroup="P 1" unit_cell=conventional occupancy="_JSON {\"0\": {\"Rb\": 1.0}, \"1\": {\"Pb\": 1.0}, \"2\": {\"I\": 1.0}, \"3\": {\"I\": 1.0}, \"4\": {\"I\": 1.0}, \"5\": {\"Rb\": 1.0}, \"6\": {\"Pb\": 1.0}, \"7\": {\"I\": 1.0}, \"8\": {\"I\": 1.0}, \"9\": {\"I\": 1.0}, \"10\": {\"Rb\": 1.0}, \"11\": {\"Ge\": 1.0}, \"12\": {\"I\": 1.0}, \"13\": {\"I\": 1.0}, \"14\": {\"I\": 1.0}, \"15\": {\"Rb\": 1.0}, \"16\": {\"Ge\": 1.0}, \"17\": {\"I\": 1.0}, \"18\": {\"I\": 1.0}, \"19\": {\"I\": 1.0}, \"20\": {\"Rb\": 1.0}, \"21\": {\"Ge\": 1.0}, \"22\": {\"I\": 1.0}, \"23\": {\"I\": 1.0}, \"24\": {\"I\": 1.0}, \"25\": {\"Rb\": 1.0}, \"26\": {\"Pb\": 1.0}, \"27\": {\"I\": 1.0}, \"28\": {\"I\": 1.0}, \"29\": {\"I\": 1.0}, \"30\": {\"Rb\": 1.0}, \"31\": {\"Ge\": 1.0}, \"32\": {\"I\": 1.0}, \"33\": {\"I\": 1.0}, \"34\": {\"I\": 1.0}, \"35\": {\"Rb\": 1.0}, \"36\": {\"Pb\": 1.0}, \"37\": {\"I\": 1.0}, \"38\": {\"I\": 1.0}, \"39\": {\"I\": 1.0}}" candidate_id=71979820f87a7961 formula=RbGe0.48Pb0.52I3 config_index=2 rattle_stdev=0.08 method=PBE fidelity=phase2_force energy=-109.94831337584169 stress="-0.002415684502283558 1.1650230475528657e-05 -6.246194343271154e-06 1.1650230475528657e-05 -0.003127410953154269 -0.00013289761872152905 -6.246194343271154e-06 -0.00013289761872152905 -0.0024285387002111795" pbc="T T T"
Rb      12.31549095      12.13132783       0.24789891        0       0.01381925      -0.00934461      -0.02815749
Pb       2.96456833       3.05453176       2.97984571        1       0.43522566       0.22477010       0.30386103
I        3.11119632       3.01038564      -0.01024679        2      -0.00283561       0.00576466      -0.20485566
I        3.10485981      12.26335486       2.95511781        3      -0.02878496      -0.38352881       0.04473236
I       12.32322652       3.12015437       3.07018051        4      -0.55530582       0.03133193      -0.03145172
Rb      12.29225833      12.13955997       6.01878076        5      -0.01834201      -0.01990953       0.02813406
Pb       3.02369328       3.17834889       9.17973628        6       0.52278783       0.18505366       0.07218892
I        3.03404495       3.07602792       6.14988997        7       0.04188843      -0.10382648      -0.17416267
I        2.98647091      12.02343378       9.31489277        8       0.00354464       0.85389862       0.00050650
I        0.03301366       3.02497591       9.05881053        9      -0.22053628      -0.03117020      -0.02891370
Rb      12.26152867       6.18409027       0.11256140       10       0.02560622       0.02088474      -0.00286689
Ge       3.03879147       9.30433187       3.06457225       11       0.22118408      -0.19965022      -0.00998479
I        3.04267831       9.15909131      -0.02954255       12       0.02198888      -0.03790741       0.38453239
I        3.14431821       6.24254284       3.25744025       13      -0.01050468       0.28511892      -0.06914992
I       12.21248910       9.22278449       3.09802468       14       0.32279252      -0.01991851       0.01224286
Rb      12.29631717       6.27324165       6.06471026       15       0.00302201       0.01604816       0.01560837
Ge       3.06536450       9.34966699       9.26952620       16      -0.08124757      -0.46811022      -0.06337518
I        3.12573855       9.19428947       6.20922522       17      -0.03308534       0.10629589      -0.32396312
I        3.18762721       6.27808875       9.20305182       18       0.00642164      -0.44822687       0.03042184
I        0.23575691       9.03428369       9.25526653       19      -0.36494361      -0.00803329      -0.01415925
Rb       6.24537077      12.07276704       0.16578803       20      -0.01684574       0.02463592      -0.01651974
Ge       9.20337197       2.89309397       3.07200401       21      -0.24496204       0.00786401       0.14632013
I        9.12315798       3.11973972       0.13096225       22       0.09219257       0.03897615      -0.20723357
I        9.32798160      12.24232807       3.07463014       23      -0.00416575       0.29095008      -0.01933299
I        6.30328538       3.24854319       3.05339439       24       0.11583987      -0.14466258      -0.00742665
Rb       6.12002159      12.11388361       6.07330602       25       0.02030489      -0.02243858       0.01618150
Pb       9.33348256       3.11276029       9.30315910       26      -0.44698476      -0.08995531      -0.05636266
I        9.13513080       3.12654611       5.96844735       27       0.06419357      -0.06959781       0.17882804
I        9.29499611      12.22442089       9.39389136       28       0.05165708       0.72139980       0.04245882
I        6.17960286       3.12063506       9.19178499       29       0.07538734      -0.06656826      -0.01996105
Rb       6.08202326       6.20386679       0.12143897       30      -0.02869906      -0.03370964       0.00405401
Ge       9.28626836       9.15591248       2.90320905       31      -0.17458417      -0.31667975       0.55726801
I        9.29513541       9.21612542       0.14146267       32       0.01094521      -0.03874955      -0.16318061
I        9.06030725       6.16298755       3.15706253       33       0.13208207       0.29260077      -0.09554401
I        6.19863305       9.40686648       3.08563426       34      -0.32386142      -0.00592582      -0.05998692
Rb       6.16248139       6.23008730       6.08605670       35       0.00189051      -0.00589765       0.00858667
Pb       9.17833172       9.23378768       9.27756934       36       0.07681667       0.15013890      -0.43409000
I        9.14137070       9.25053882       6.07418600       37       0.05849468       0.06920432       0.09786192
I        9.23083283       6.27413167       9.12413121       38       0.06538170      -0.84697732      -0.00132690
I        6.08193349       9.17044112       9.19799463       39       0.14636437       0.05869522       0.07206003
40
Lattice="12.324507993641763 0.0 0.0 0.0 12.322549705500638 0.0 0.0 -2.6607018257561016e-14 12.322549705500773" Properties=species:S:1:pos:R:3:spacegroup_kinds:I:1:forces:R:3 spacegroup="P 1" unit_cell=conventional occupancy="_JSON {\"0\": {\"Rb\": 1.0}, \"1\": {\"Pb\": 1.0}, \"2\": {\"I\": 1.0}, \"3\": {\"I\": 1.0}, \"4\": {\"I\": 1.0}, \"5\": {\"Rb\": 1.0}, \"6\": {\"Pb\": 1.0}, \"7\": {\"I\": 1.0}, \"8\": {\"I\": 1.0}, \"9\": {\"I\": 1.0}, \"10\": {\"Rb\": 1.0}, \"11\": {\"Ge\": 1.0}, \"12\": {\"I\": 1.0}, \"13\": {\"I\": 1.0}, \"14\": {\"I\": 1.0}, \"15\": {\"Rb\": 1.0}, \"16\": {\"Ge\": 1.0}, \"17\": {\"I\": 1.0}, \"18\": {\"I\": 1.0}, \"19\": {\"I\": 1.0}, \"20\": {\"Rb\": 1.0}, \"21\": {\"Ge\": 1.0}, \"22\": {\"I\": 1.0}, \"23\": {\"I\": 1.0}, \"24\": {\"I\": 1.0}, \"25\": {\"Rb\": 1.0}, \"26\": {\"Pb\": 1.0}, \"27\": {\"I\": 1.0}, \"28\": {\"I\": 1.0}, \"29\": {\"I\": 1.0}, \"30\": {\"Rb\": 1.0}, \"31\": {\"Ge\": 1.0}, \"32\": {\"I\": 1.0}, \"33\": {\"I\": 1.0}, \"34\": {\"I\": 1.0}, \"35\": {\"Rb\": 1.0}, \"36\": {\"Pb\": 1.0}, \"37\": {\"I\": 1.0}, \"38\": {\"I\": 1.0}, \"39\": {\"I\": 1.0}}" candidate_id=71979820f87a7961 formula=RbGe0.48Pb0.52I3 config_index=3 rattle_stdev=0.08 method=PBE fidelity=phase2_force energy=-109.56393846039765 stress="-0.002761415404010234 0.00010956849522047943 -2.3336351236810322e-05 0.00010956849522047943 -0.0033866458378488183 -7.074761917025182e-05 -2.3336351236810322e-05 -7.074761917025182e-05 -0.0025928241567216744" pbc="T T T"
Rb      12.21882451      12.37879318       0.10890191        0       0.01517921       0.06484935       0.03146726
Pb       3.06211330       3.08736724       3.15740081        1      -0.26486414      -0.21194042      -1.01813954
I        3.02659912       3.12296306      -0.04424218        2       0.02199813       0.02058251      -0.09570071
I        3.19352349      12.14930747       2.97616657        3       0.02377025      -0.01230114       0.01316089
I       12.12062140       2.95096276       2.97823954        4       0.46723669       0.06123470       0.02331433
Rb      12.30656426      12.14940807       5.99571889        5      -0.03480897       0.01051134      -0.02847343
Pb       3.10218066       2.87622198       9.10828961        6      -0.13012226       0.25396995       0.52664245
I        3.02418818       2.88489538       6.04138879        7      -0.05043013      -0.07312335       0.66171013
I        3.13421680      12.04502646       9.17867950        8      -0.06334819       0.95790330       0.02467634
I       -0.12018966       2.98547423       9.42324749        9       0.70997922       0.02249943       0.06415179
Rb      12.28636577       6.33810473      -0.03929831       10       0.01990577      -0.05230552      -0.02023208
Ge       3.04182983       9.14595255       3.01621980       11      -0.10395056       0.31965683      -0.15291899
I        3.19359249       9.22348703      -0.04641952       12      -0.06674065      -0.06610027       0.57516721
I        3.06812000       6.26223226       3.20176684       13      -0.00541958       0.03957296       0.00985712
I       12.18470217       9.29459465       3.05310813       14       0.83217195      -0.08509032       0.03836138
Rb      12.26381214       6.28013371       6.00359482       15      -0.04521779       0.01349629      -0.00386271
Ge       3.12534264       9.27252094       9.21220905       16      -0.11806100      -0.65330622      -0.11921800
I        3.20737852       9.25925608       6.24752598       17      -0.02217048       0.01672338      -0.34734627
I        3.13964544       6.39041107       9.19548779       18      -0.00948898      -0.61954082      -0.02651683
I        0.14165661       9.11512309       9.23593497       19      -0.41035966       0.02317261       0.01362661
Rb       6.25815871      12.19621914       0.05295278       20      -0.02763619       0.00552298       0.01469722
Ge       9.09165807       2.95741351       3.04921157       21       0.38883391       0.14312732       0.03224028
I        9.21022253       3.13752285       0.22661856       22      -0.08188820      -0.01479128      -0.49303160
I        9.43516790      12.29829092       2.99956673       23      -0.16063767      -0.20793634       0.03336677
I        6.27637328       3.14831560       3.12018615       24      -0.39985122      -0.05152420       0.03858620
Rb       6.18454506      12.25922023       6.08158743       25       0.01421655      -0.03556638      -0.00412777
Pb       9.26155190       3.04941019       9.18447087       26      -0.29064492      -0.01771779      -0.12612385
I        9.36690989       3.01160182       5.95735212       27      -0.00889334      -0.02477771       0.49877386
I        9.25008514      12.43913620       9.14756530       28      -0.04171154      -1.24964010       0.03708691
I        6.13035583       3.04676628       9.28665923       29      -0.16547126      -0.01515711      -0.01508790
Rb       6.11607442       6.27207140       0.17447316       30      -0.00305381      -0.02166592      -0.02212040
Ge       9.27657371       9.22381350       3.14108488       31      -0.21700447      -0.12768232       0.14326538
I        9.26139139       9.20673204       0.20759414       32       0.03219035      -0.02251183      -0.23818312
I        9.17169113       6.05799516       3.22003616       33       0.08380750       0.26400904      -0.00937884
I        6.39580005       9.18801426       3.01895549       34      -0.55809401       0.03719679       0.04115038
Rb       6.24669338       6.35802865       6.06582794       35       0.02422310       0.03453230       0.00270444
Pb       9.24438047       9.18595056       9.39201621       36       0.09483525       0.06027664      -0.19670110
I        9.20732832       9.21741354       6.11902640       37       0.01265531       0.02187701       0.06133709
I        9.19109371       5.99770080       9.29034044       38      -0.02570893       1.17411193       0.02050376
I        5.97070478       9.25851146       9.32962445       39       0.57236170       0.00972659       0.01039409
