Cs Sn I  Cs Sn I  Cs Sn Cl I  Cs Sn I  Cs Sn I  Cl Cs Sn I  Cs Sn I  Cl I  Cs Sn I 
 1.0000000000000000
    13.3510245569394392    0.0000000000000000    0.0000000000000000
     0.0000000000000000   13.3510245569394392    0.0000000000000000
     0.0000000000000000    0.0000000000000000   13.3510245569394392
 Cs  Sn  I   Cs  Sn  I   Cs  Sn  Cl  I   Cs  Sn  I   Cs  Sn  I   Cl  Cs  Sn  I   Cs  Sn  I   Cl  I   Cs  Sn  I  
   1   1   3   1   1   3   1   1   1   2   1   1   3   1   1   2   1   1   1   3   1   1   1   1   1   1   1   3
Cartesian
  0.0000000000000000  0.0000000000000000  0.0000000000000000
  3.3377561392348598  3.3377561392348598  3.3377561392348598
  3.3377561392348598  3.3377561392348598  0.0000000000000000
  3.3377561392348598  0.0000000000000000  3.3377561392348598
  0.0000000000000000  3.3377561392348598  3.3377561392348598
  0.0000000000000000  0.0000000000000000  6.6755122784697187
  3.3377561392348598  3.3377561392348598 10.0132684177045803
  3.3377561392348598  3.3377561392348598  6.6755122784697187
  3.3377561392348598  0.0000000000000000 10.0132684177045803
  0.0000000000000000  3.3377561392348598 10.0132684177045803
  0.0000000000000000  6.6755122784697187  0.0000000000000000
  3.3377561392348598 10.0132684177045803  3.3377561392348598
  3.3377561392348598 10.0132684177045803  0.0000000000000000
  3.3377561392348598  6.6755122784697187  3.3377561392348598
  0.0000000000000000 10.0132684177045803  3.3377561392348598
  0.0000000000000000  6.6755122784697187  6.6755122784697187
  3.3377561392348598 10.0132684177045803 10.0132684177045803
  3.3377561392348598 10.0132684177045803  6.6755122784697187
  3.3377561392348598  6.6755122784697187 10.0132684177045803
  0.0000000000000000 10.0132684177045803 10.0132684177045803
  6.6755122784697187  0.0000000000000000  0.0000000000000000
 10.0132684177045803  3.3377561392348598  3.3377561392348598
 10.0132684177045803  3.3377561392348598  0.0000000000000000
 10.0132684177045803  0.0000000000000000  3.3377561392348598
  6.6755122784697187  3.3377561392348598  3.3377561392348598
  6.6755122784697187  0.0000000000000000  6.6755122784697187
 10.0132684177045803  3.3377561392348598 10.0132684177045803
 10.0132684177045803  3.3377561392348598  6.6755122784697187
 10.0132684177045803  0.0000000000000000 10.0132684177045803
  6.6755122784697187  3.3377561392348598 10.0132684177045803
  6.6755122784697187  6.6755122784697187  0.0000000000000000
 10.0132684177045803 10.0132684177045803  3.3377561392348598
 10.0132684177045803 10.0132684177045803  0.0000000000000000
 10.0132684177045803  6.6755122784697187  3.3377561392348598
  6.6755122784697187 10.0132684177045803  3.3377561392348598
  6.6755122784697187  6.6755122784697187  6.6755122784697187
 10.0132684177045803 10.0132684177045803 10.0132684177045803
 10.0132684177045803 10.0132684177045803  6.6755122784697187
 10.0132684177045803  6.6755122784697187 10.0132684177045803
  6.6755122784697187 10.0132684177045803 10.0132684177045803
