40
Lattice="12.669622897398682 0.0 0.0 0.000632837841261182 12.52177068578952 0.0 -0.000447831570920835 0.0006403327780620336 12.669622873302444" Properties=species:S:1:pos:R:3:spacegroup_kinds:I:1:forces:R:3 spacegroup="P 1" unit_cell=conventional occupancy="_JSON {\"0\": {\"Cs\": 1.0}, \"1\": {\"Pb\": 1.0}, \"2\": {\"I\": 1.0}, \"3\": {\"I\": 1.0}, \"4\": {\"I\": 1.0}, \"5\": {\"Cs\": 1.0}, \"6\": {\"Pb\": 1.0}, \"7\": {\"I\": 1.0}, \"8\": {\"I\": 1.0}, \"9\": {\"I\": 1.0}, \"10\": {\"Cs\": 1.0}, \"11\": {\"Pb\": 1.0}, \"12\": {\"Br\": 1.0}, \"13\": {\"Br\": 1.0}, \"14\": {\"I\": 1.0}, \"15\": {\"Cs\": 1.0}, \"16\": {\"Pb\": 1.0}, \"17\": {\"I\": 1.0}, \"18\": {\"Br\": 1.0}, \"19\": {\"I\": 1.0}, \"20\": {\"Cs\": 1.0}, \"21\": {\"Pb\": 1.0}, \"22\": {\"I\": 1.0}, \"23\": {\"I\": 1.0}, \"24\": {\"Br\": 1.0}, \"25\": {\"Cs\": 1.0}, \"26\": {\"Pb\": 1.0}, \"27\": {\"I\": 1.0}, \"28\": {\"I\": 1.0}, \"29\": {\"I\": 1.0}, \"30\": {\"Cs\": 1.0}, \"31\": {\"Pb\": 1.0}, \"32\": {\"I\": 1.0}, \"33\": {\"Br\": 1.0}, \"34\": {\"I\": 1.0}, \"35\": {\"Cs\": 1.0}, \"36\": {\"Pb\": 1.0}, \"37\": {\"I\": 1.0}, \"38\": {\"I\": 1.0}, \"39\": {\"I\": 1.0}}" candidate_id=56a2d7db641b783f formula=FAPbBr0.2I0.83 config_index=0 rattle_stdev=0.0 method=PBE fidelity=phase2_force energy=-116.10977340002596 stress="-0.0004240304034022392 -1.8419461234414436e-05 1.1334774803286775e-05 -1.8419461234414436e-05 0.0006161686166009155 -1.8475131231584612e-05 1.1334774803286775e-05 -1.8475131231584612e-05 -0.0004239324050900507" pbc="T T T"
Cs       0.04021725      12.49690109       0.01797060        0       0.00781076      -0.01767836      -0.00587690
Pb       3.27913461       3.25286740       3.16051467        1       0.01322577       0.02709442      -0.00418472
I        3.26005598       3.31624215       0.00793160        2      -0.00121572       0.00289152      -0.01668272
I        3.23664437       0.00015658       3.09805757        3      -0.00138733       0.00000375       0.00138595
I        0.00267652       3.28237069       3.17696733        4      -0.00402619      -0.01347797       0.00218587
Cs       0.01840339       0.00031922       6.31618479        5      -0.00499144       0.00000126       0.00500381
Pb       3.17354841       3.25081416       9.50872137        6       0.00608277       0.01525044       0.00694742
I        3.25804834       3.27804077       6.32639542        7      -0.00155839      -0.00194726       0.01551590
I        3.15314891      12.51940847       9.57762903        8      -0.00093813      -0.01185423       0.00129883
I        0.00647787       3.18923418       9.49119820        9      -0.00897393      -0.00764562      -0.00477679
Cs       0.03264360       6.26994753       0.03394848       10       0.01636620       0.00878909       0.00075938
Pb       3.17465721       9.26921746       3.05572950       11       0.00482013      -0.02709554      -0.01375465
Br       3.15994002       9.31245029       0.00643771       12      -0.00435414      -0.02572555      -0.00309835
Br       3.21423214       6.26104307       3.12078541       13       0.01377892      -0.00000362      -0.01377965
I        0.00877445       9.24420515       3.07670514       14      -0.01550859       0.00194898       0.00155771
Cs       0.03588714       6.26120370       6.29901807       15       0.00410240      -0.00000065      -0.00408827
Pb       3.16721092       9.27849590       9.61483926       16      -0.00312392      -0.02639073       0.01331182
I        3.15808724       9.23988060       6.33218850       17      -0.00218860       0.01347883       0.00402372
Br       3.16282378       6.25445671       9.54678898       18      -0.00614218       0.03150217       0.01539262
I        0.01063310       9.32019664       9.59863887       19      -0.01663299       0.00602951       0.00346242
Cs       6.29851301       0.00000183       0.03629716       20      -0.00437657       0.00000057       0.00439566
Pb       9.38964703       3.24392082       3.16772957       21      -0.01281161       0.02639431       0.00377596
I        9.40412476       3.21249026       0.01125762       22      -0.00329791      -0.00867059      -0.01723759
I        9.42669297       0.00300709       3.18195669       23      -0.00129798       0.01185760       0.00093392
Br       6.32842369       3.20948120       3.17534184       24       0.00308858       0.02572584       0.00434069
Cs       6.31661959       0.02518867       6.29522513       25       0.00589370       0.01767765      -0.00779229
Pb       9.49779436       3.14095818       9.50389238       26      -0.00952692       0.01367630      -0.00135560
I        9.40573374       3.20237881       6.32431007       27      -0.00346370      -0.00602867       0.01664036
I        9.51903137       0.00047938       9.48506769       28       0.00502835      -0.00000096      -0.00502400
I        6.32817356       3.19815857       9.49124028       29       0.00990895      -0.01258886      -0.00437895
Cs       6.30543483       6.26088684       0.02969198       30      -0.01146370      -0.00000032       0.01147945
Pb       9.49606979       9.27159687       3.16109120       31      -0.00750765      -0.01525422      -0.00545175
I        9.51366505       9.32409214       0.00646401       32       0.00437539       0.01258667      -0.00990352
Br       9.45785000       6.26795679       3.17196628       33      -0.01539283      -0.03150354       0.00613041
I        6.32723640       9.20568434       3.07492278       34       0.01670042      -0.00289597       0.00121676
Cs       6.30095616       6.25214340       6.30248351       35      -0.00074337      -0.00878922      -0.01635129
Pb       9.50068005       9.38177331       9.50646275       36       0.00080794      -0.01367586       0.00894952
I        9.51348413       9.33333603       6.32815924       37       0.00478220       0.00764639       0.00898527
I        9.51113142       6.26136514       9.49328377       38       0.00828541       0.00000054      -0.00828948
I        6.32368497       9.30976621       9.60047152       39       0.01726581       0.00867080       0.00329766
40
Lattice="12.669622897398682 0.0 0.0 0.000632837841261182 12.52177068578952 0.0 -0.000447831570920835 0.0006403327780620336 12.669622873302444" Properties=species:S:1:pos:R:3:spacegroup_kinds:I:1:forces:R:3 spacegroup="P 1" unit_cell=conventional occupancy="_JSON {\"0\": {\"Cs\": 1.0}, \"1\": {\"Pb\": 1.0}, \"2\": {\"I\": 1.0}, \"3\": {\"I\": 1.0}, \"4\": {\"I\": 1.0}, \"5\": {\"Cs\": 1.0}, \"6\": {\"Pb\": 1.0}, \"7\": {\"I\": 1.0}, \"8\": {\"I\": 1.0}, \"9\": {\"I\": 1.0}, \"10\": {\"Cs\": 1.0}, \"11\": {\"Pb\": 1.0}, \"12\": {\"Br\": 1.0}, \"13\": {\"Br\": 1.0}, \"14\": {\"I\": 1.0}, \"15\": {\"Cs\": 1.0}, \"16\": {\"Pb\": 1.0}, \"17\": {\"I\": 1.0}, \"18\": {\"Br\": 1.0}, \"19\": {\"I\": 1.0}, \"20\": {\"Cs\": 1.0}, \"21\": {\"Pb\": 1.0}, \"22\": {\"I\": 1.0}, \"23\": {\"I\": 1.0}, \"24\": {\"Br\": 1.0}, \"25\": {\"Cs\": 1.0}, \"26\": {\"Pb\": 1.0}, \"27\": {\"I\": 1.0}, \"28\": {\"I\": 1.0}, \"29\": {\"I\": 1.0}, \"30\": {\"Cs\": 1.0}, \"31\": {\"Pb\": 1.0}, \"32\": {\"I\": 1.0}, \"33\": {\"Br\": 1.0}, \"34\": {\"I\": 1.0}, \"35\": {\"Cs\": 1.0}, \"36\": {\"Pb\": 1.0}, \"37\": {\"I\": 1.0}, \"38\": {\"I\": 1.0}, \"39\": {\"I\": 1.0}}" candidate_id=56a2d7db641b783f formula=FAPbBr0.2I0.83 config_index=1 rattle_stdev=0.08 method=PBE fidelity=phase2_force energy=-115.50019212829955 stress="-0.0020942296701208685 -3.80359288449193e-05 -1.0743767510470764e-05 -3.80359288449193e-05 -0.00034720724335852445 -0.0001411812650275047 -1.0743767510470764e-05 -0.0001411812650275047 -0.0027041549724066347" pbc="T T T"
Cs      -0.04669846      12.42521588      -0.00653335        0      -0.02623988       0.01559838       0.02688472
Pb       3.17193992       3.15634056       3.10917652        1       0.20162471       0.25441895       0.25464781
I        3.36469163       3.46387899       0.07426079        2      -0.08202041      -0.06899662      -0.10294111
I        3.23478046      -0.01652854       3.02472799        3      -0.00702407       0.02584488      -0.00315305
I       -0.08330289       3.27547921       3.27103442        4       0.37945028      -0.01427056       0.01271107
Cs      -0.11240395       0.09857474       6.40229569        5       0.02786145       0.04497453      -0.03972313
Pb       3.20513024       3.21979809       9.55579351        6       0.05896142      -0.01445479      -0.08019170
I        3.14338444       3.25215480       6.42663419        7       0.02798225       0.00897682      -0.20606859
I        3.09468950      12.63368728       9.65320134        8      -0.01295252      -0.40116985       0.00600253
I       -0.01464235       3.17617711       9.41406962        9       0.13076568      -0.00460601       0.01158588
Cs       0.00523182       6.27385986      -0.00602208       10       0.00408983      -0.02552461       0.03021768
Pb       2.99770485       9.29400441       2.92855740       11       0.93816272      -0.25062242      -0.15629699
Br       3.21829639       9.30381819      -0.04557601       12      -0.06434292      -0.00605576       0.01180169
Br       3.07878762       6.23156515       2.99355567       13       0.00443113       0.04003124       0.04885545
I        0.12721492       9.28216037       3.14981424       14      -0.96330961       0.01192115       0.06169221
Cs       0.11272476       6.26796711       6.43639654       15       0.02263193      -0.04144484      -0.01902498
Pb       3.23536234       9.21810508       9.43182892       16       0.18020155       0.03120151       0.19851905
I        3.16682634       9.20386795       6.29915071       17      -0.00379465       0.00572775       0.00761990
Br       3.18834248       6.21116808       9.62268230       18      -0.02808373       0.37196347      -0.03217677
I        0.02274790       9.32634883       9.59388684       19       0.32305448       0.01534906       0.02860851
Cs       6.29290191      -0.04529009       0.06117759       20       0.01893183       0.01500441       0.02622644
Pb       9.44758374       3.28523682       3.24981202       21      -0.31821167      -0.17287077      -0.50714162
I        9.44573697       3.14290317       0.13130283       22       0.03777281       0.00479073      -0.47974001
I        9.52001074       0.04236025       3.12337571       23       0.00369780      -0.11975158       0.10381894
Br       6.38284818       3.25020095       3.10833894       24      -0.25310965       0.01199726       0.06086910
Cs       6.36843118       0.02619183       6.41999226       25      -0.01636215       0.01812389      -0.02903525
Pb       9.58056199       3.16797359       9.39968355       26      -0.20904780       0.29237501       0.35382847
I        9.31625020       3.30714002       6.28285271       27      -0.03276190      -0.04340605       0.47039070
I        9.48758143       0.08391686       9.49104491       28       0.00285133      -0.19425639      -0.01687387
I        6.33532853       3.20247116       9.52471604       29       0.02026259      -0.01626831      -0.00949745
Cs       6.20721643       6.17372352       0.05506193       30       0.04747971       0.03370947       0.04975224
Pb       9.43363735       9.20310639       3.05550149       31      -0.11756733       0.16712295       0.31039077
I        9.54996758       9.40423413       0.11956278       32       0.02903334       0.01144578      -0.46645713
Br       9.44263537       6.27036563       3.02209295       33       0.02936065       0.06728908       0.01223192
I        6.31789424       9.19548512       3.14709752       34       0.15420222       0.00499516       0.02861546
Cs       6.19580638       6.24417934       6.31372750       35      -0.00560415      -0.02525651      -0.02664397
Pb       9.71098452       9.52223561       9.29561093       36      -0.49400646      -0.31615421       0.99332023
I        9.41055257       9.31959826       6.47219554       37      -0.01263264       0.02405083      -1.02416603
I        9.55982707       6.26388719       9.37597079       38       0.00616366       0.22718302       0.07107234
I        6.34844023       9.40114364       9.55960399       39      -0.00442801       0.01236082       0.02168974
40
Lattice="12.669622897398682 0.0 0.0 0.000632837841261182 12.52177068578952 0.0 -0.000447831570920835 0.0006403327780620336 12.669622873302444" Properties=species:S:1:pos:R:3:spacegroup_kinds:I:1:forces:R:3 spacegroup="P 1" unit_cell=conventional occupancy="_JSON {\"0\": {\"Cs\": 1.0}, \"1\": {\"Pb\": 1.0}, \"2\": {\"I\": 1.0}, \"3\": {\"I\": 1.0}, \"4\": {\"I\": 1.0}, \"5\": {\"Cs\": 1.0}, \"6\": {\"Pb\": 1.0}, \"7\": {\"I\": 1.0}, \"8\": {\"I\": 1.0}, \"9\": {\"I\": 1.0}, \"10\": {\"Cs\": 1.0}, \"11\": {\"Pb\": 1.0}, \"12\": {\"Br\": 1.0}, \"13\": {\"Br\": 1.0}, \"14\": {\"I\": 1.0}, \"15\": {\"Cs\": 1.0}, \"16\": {\"Pb\": 1.0}, \"17\": {\"I\": 1.0}, \"18\": {\"Br\": 1.0}, \"19\": {\"I\": 1.0}, \"20\": {\"Cs\": 1.0}, \"21\": {\"Pb\": 1.0}, \"22\": {\"I\": 1.0}, \"23\": {\"I\": 1.0}, \"24\": {\"Br\": 1.0}, \"25\": {\"Cs\": 1.0}, \"26\": {\"Pb\": 1.0}, \"27\": {\"I\": 1.0}, \"28\": {\"I\": 1.0}, \"29\": {\"I\": 1.0}, \"30\": {\"Cs\": 1.0}, \"31\": {\"Pb\": 1.0}, \"32\": {\"I\": 1.0}, \"33\": {\"Br\": 1.0}, \"34\": {\"I\": 1.0}, \"35\": {\"Cs\": 1.0}, \"36\": {\"Pb\": 1.0}, \"37\": {\"I\": 1.0}, \"38\": {\"I\": 1.0}, \"39\": {\"I\": 1.0}}" candidate_id=56a2d7db641b783f formula=FAPbBr0.2I0.83 config_index=2 rattle_stdev=0.08 method=PBE fidelity=phase2_force energy=-115.62132791786698 stress="-0.001496485308218333 -2.8091272934451535e-05 1.4559016662533367e-05 -2.8091272934451535e-05 -0.0006288769396892191 -2.056266570137371e-05 1.4559016662533367e-05 -2.056266570137371e-05 -0.0012301953185799347" pbc="T T T"
Cs       0.03120021      12.41077597       0.16077275        0       0.02609752      -0.02235214      -0.06526636
Pb       3.16257595       3.22676174       3.05972295        1       0.48172698       0.27745835       0.22065193
I        3.29012530       3.24599036      -0.02006646        2      -0.03456549       0.02821607      -0.08103353
I        3.26037718       0.09622953       2.97253795        3      -0.03177203      -0.53514319       0.03116687
I        0.15099882       3.32188763       3.16651042        4      -0.66684029      -0.01625112      -0.02698776
Cs      -0.01384627      -0.07757376       6.27878745        5      -0.01568856      -0.01010168       0.05640687
Pb       3.11611469       3.34852562       9.44654537        6       0.40639911      -0.04805700       0.00084212
I        3.21096629       3.27343126       6.33276181        7       0.01043010      -0.08210499      -0.09206444
I        3.05849282      12.39550907       9.65060952        8       0.00767825       0.36679104       0.00045109
I        0.03949153       3.13357266       9.30809645        9      -0.18538466      -0.00391013       0.00993563
Cs      -0.03033572       6.18766620       0.04141313       10       0.03746658       0.02701330      -0.03209394
Pb       3.13232168       9.33163705       3.03966433       11       0.23453799      -0.22630851       0.05018296
Br       3.12149133       9.22962932      -0.03378104       12       0.00486617      -0.02826201       0.33142635
Br       3.27742336       6.18704326       3.29758824       13      -0.01872732       0.43115115      -0.08550481
I       -0.10324444       9.22507736       3.09409239       14       0.58971514       0.00656792       0.03622866
Cs       0.00769631       6.26807374       6.30755023       15       0.00746760       0.00915969       0.01686109
Pb       3.15144842       9.38625061       9.64245318       16       0.03331693      -0.29852465      -0.07872668
I        3.20269880       9.19225778       6.39081508       17      -0.03024625       0.09001068      -0.28237474
Br       3.26932400       6.19605408       9.50792852       18      -0.02646244       0.04415003       0.03204992
I        0.09678623       9.11256804       9.61199313       19      -0.19844934      -0.01768557      -0.00211312
Cs       6.38162978      -0.14468407       0.09698844       20      -0.02545260       0.02970261      -0.03773774
Pb       9.34963801       3.05637737       3.15909615       21      -0.24233507       0.36201725       0.13413397
I        9.28390175       3.25159255      -0.03299667       22       0.05353912       0.02318855       0.16221148
I        9.51129357      -0.06653833       3.17594940       23       0.01884419       0.11046346      -0.00984189
Br       6.31985130       3.37738696       3.14809880       24       0.32909758      -0.10890441      -0.01913641
Cs       6.27438718      -0.07838068       6.31235305       25       0.01819679       0.00926158       0.02325431
Pb       9.58789593       3.17308105       9.56513920       26      -0.33807537      -0.05441710      -0.24079661
I        9.29748354       3.24828749       6.30669910       27       0.04771170      -0.07213085      -0.03906144
I        9.57064649      -0.07989816       9.63704678       28       0.04023502       0.54065707       0.01858187
I        6.34552243       3.23815620       9.44111299       29       0.05824328      -0.07059625       0.00271468
Cs       6.22520410       6.19838203       0.04603420       30      -0.02624727      -0.02883922       0.02665384
Pb       9.53895715       9.18559708       2.98366282       31      -0.43217855      -0.22938381       0.62309466
I        9.56541947       9.29830528      -0.00734113       32       0.02152022      -0.01216734      -0.03640095
Br       9.27477625       6.25899328       3.24839139       33       0.07878382      -0.08227388      -0.06072104
I        6.36361545       9.37063854       3.07991962       34      -0.37222659       0.04695762      -0.03005296
Cs       6.30118355       6.21585909       6.33236211       35      -0.00311107      -0.02190834      -0.04147594
Pb       9.43563077       9.37364871       9.54211981       36       0.24590620       0.11151965      -0.37980502
I        9.41147384       9.34196258       6.39633819       37       0.04955945       0.08677585      -0.21461770
I        9.49858325       6.35647068       9.37550270       38       0.06351603      -0.67474249       0.01769395
I        6.39296824       9.23829505       9.55655387       39      -0.21604372       0.04254777       0.05905331
40
Lattice="12.669622897398682 0.0 0.0 0.000632837841261182 12.52177068578952 0.0 -0.000447831570920835 0.0006403327780620336 12.669622873302444" Properties=species:S:1:pos:R:3:spacegroup_kinds:I:1:forces:R:3 spacegroup="P 1" unit_cell=conventional occupancy="_JSON {\"0\": {\"Cs\": 1.0}, \"1\": {\"Pb\": 1.0}, \"2\": {\"I\": 1.0}, \"3\": {\"I\": 1.0}, \"4\": {\"I\": 1.0}, \"5\": {\"Cs\": 1.0}, \"6\": {\"Pb\": 1.0}, \"7\": {\"I\": 1.0}, \"8\": {\"I\": 1.0}, \"9\": {\"I\": 1.0}, \"10\": {\"Cs\": 1.0}, \"11\": {\"Pb\": 1.0}, \"12\": {\"Br\": 1.0}, \"13\": {\"Br\": 1.0}, \"14\": {\"I\": 1.0}, \"15\": {\"Cs\": 1.0}, \"16\": {\"Pb\": 1.0}, \"17\": {\"I\": 1.0}, \"18\": {\"Br\": 1.0}, \"19\": {\"I\": 1.0}, \"20\": {\"Cs\": 1.0}, \"21\": {\"Pb\": 1.0}, \"22\": {\"I\": 1.0}, \"23\": {\"I\": 1.0}, \"24\": {\"Br\": 1.0}, \"25\": {\"Cs\": 1.0}, \"26\": {\"Pb\": 1.0}, \"27\": {\"I\": 1.0}, \"28\": {\"I\": 1.0}, \"29\": {\"I\": 1.0}, \"30\": {\"Cs\": 1.0}, \"31\": {\"Pb\": 1.0}, \"32\": {\"I\": 1.0}, \"33\": {\"Br\": 1.0}, \"34\": {\"I\": 1.0}, \"35\": {\"Cs\": 1.0}, \"36\": {\"Pb\": 1.0}, \"37\": {\"I\": 1.0}, \"38\": {\"I\": 1.0}, \"39\": {\"I\": 1.0}}" candidate_id=56a2d7db641b783f formula=FAPbBr0.2I0.83 config_index=3 rattle_stdev=0.08 method=PBE fidelity=phase2_force energy=-115.41316696262183 stress="-0.0016564116197718209 8.378728872210359e-05 2.2796605967957412e-05 8.378728872210359e-05 -0.0005985166585711845 6.383828566542097e-05 2.2796605967957412e-05 6.383828566542097e-05 -0.0011802364326852766" pbc="T T T"
Cs      -0.06546623      12.65824132       0.02177575        0       0.01887605       0.05061047       0.02381353
Pb       3.26012092       3.25959722       3.23727805        1      -0.21350319      -0.22798944      -0.72733538
I        3.20552810       3.35856778      -0.05406186        2       0.00527484      -0.01154338      -0.08268286
I        3.34904086      -0.01781786       2.99358672        3       0.00593302      -0.17529187       0.01508481
I       -0.05160630       3.15269603       3.07456945        4       0.13051777       0.03005542       0.03956259
Cs       0.00045965      -0.06772566       6.25572558        5      -0.03454894       0.02264861      -0.01296666
Pb       3.19460207       3.04639871       9.37509870        6      -0.03899329       0.37486592       0.46118912
I        3.20110953       3.08229872       6.22426063        7      -0.02764345      -0.02708256       0.43293920
I        3.20623871      12.41710175       9.51439625        8      -0.03069391       0.41383973      -0.00345113
I       -0.11371180       3.09407098       9.67253341        9       0.48839777       0.01097648      -0.00593878
Cs      -0.00549862       6.34168066      -0.11044658       10       0.03390675      -0.08152627      -0.01261112
Pb       3.13536004       9.17325773       2.99131188       11       0.09144861       0.23773416      -0.01600680
Br       3.27240551       9.29402504      -0.05065801       12      -0.04288438      -0.07203450       0.42189242
Br       3.20122514       6.20673268       3.24191483       13      -0.00432458       0.23465425       0.00574869
I       -0.13103137       9.29688752       3.04917584       14       1.07148580      -0.04235462      -0.00450505
Cs      -0.02480871       6.27496580       6.24643479       15      -0.02795169      -0.01743047      -0.00064264
Pb       3.21142656       9.30910457       9.58513603       16      -0.17857817      -0.53729649       0.00833590
I        3.28433876       9.25722440       6.42911584       17      -0.02665329       0.02501803      -0.42656257
Br       3.22134223       6.30837640       9.50036449       18      -0.02290366      -0.20761923      -0.02803542
I        0.00268593       9.19340744       9.59266156       19      -0.12359547       0.02329007      -0.00909938
Cs       6.39441771      -0.02123198      -0.01584681       20      -0.03416824       0.01581558       0.00536768
Pb       9.23792410       3.12069690       3.13630371       21       0.24611757       0.29228887       0.05379377
I        9.37096630       3.26937568       0.06265965       22      -0.04125377      -0.03219894      -0.20601352
I        9.61847987      -0.01057549       3.10088600       23      -0.06212198      -0.21138296       0.01262078
Br       6.29293920       3.27715938       3.21489056       24      -0.08794536      -0.01245710       0.03166294
Cs       6.33891065       0.06695594       6.32063446       25       0.01626696      -0.00961196       0.00034445
Pb       9.51596527       3.10973094       9.44645097       26      -0.17270085      -0.03064759       0.03395044
I        9.52926263       3.13334320       6.29560386       27       0.00589585      -0.00508737       0.10667595
I        9.52573552       0.13481715       9.39072071       28      -0.02302712      -1.09700258       0.04283568
I        6.29627539       3.16428742       9.53598723       29      -0.17259901      -0.03820019      -0.05351543
Cs       6.25925526       6.26658663       0.09906839       30      -0.02059395      -0.04452900      -0.04193433
Pb       9.52926251       9.25349809       3.22153865       31      -0.12174166      -0.18450079       0.23661744
I        9.53167544       9.28891190       0.05879035       32       0.02527612       0.00964026       0.02847926
Br       9.38616014       6.15400090       3.31136501       33       0.04237947       0.16097961       0.01989909
I        6.56078245       9.15178632       3.01324084       34      -1.07083360       0.02128736      -0.00329954
Cs       6.38539554       6.34380044       6.31213335       35       0.02097760      -0.01143998       0.00116072
Pb       9.50167952       9.32581159       9.65656668       36       0.04042379       0.00094060      -0.26449386
I        9.47743146       9.30883729       6.44117859       37       0.00685279       0.01540410      -0.09854659
I        9.45884414       6.08003982       9.54171193       38      -0.01531716       1.10839634      -0.00243704
I        6.28173953       9.32636539       9.68818369       39       0.33365906       0.01671600       0.01545961
