Cs Sn I  Cs Pb I  Cs Sn I  Cs Sn I  Cs Sn I  Cs Pb I  Cs Sn I  Cs Sn I 
 1.0000000000000000
    13.5316196288544859    0.0000000000000000    0.0000000000000000
     0.0000000000000000   13.5316196288544859    0.0000000000000000
     0.0000000000000000    0.0000000000000000   13.5316196288544859
 Cs  Sn  I   Cs  Pb  I   Cs  Sn  I   Cs  Sn  I   Cs  Sn  I   Cs  Pb  I   Cs  Sn  I   Cs  Sn  I  
   1   1   3   1   1   3   1   1   3   1   1   3   1   1   3   1   1   3   1   1   3   1   1   3
Cartesian
  0.0000000000000000  0.0000000000000000  0.0000000000000000
  3.3829049072136215  3.3829049072136215  3.3829049072136215
  3.3829049072136215  3.3829049072136215  0.0000000000000000
  3.3829049072136215  0.0000000000000000  3.3829049072136215
  0.0000000000000000  3.3829049072136215  3.3829049072136215
  0.0000000000000000  0.0000000000000000  6.7658098144272421
  3.3829049072136215  3.3829049072136215 10.1487147216408644
  3.3829049072136215  3.3829049072136215  6.7658098144272421
  3.3829049072136215  0.0000000000000000 10.1487147216408644
  0.0000000000000000  3.3829049072136215 10.1487147216408644
  0.0000000000000000  6.7658098144272421  0.0000000000000000
  3.3829049072136215 10.1487147216408644  3.3829049072136215
  3.3829049072136215 10.1487147216408644  0.0000000000000000
  3.3829049072136215  6.7658098144272421  3.3829049072136215
  0.0000000000000000 10.1487147216408644  3.3829049072136215
  0.0000000000000000  6.7658098144272421  6.7658098144272421
  3.3829049072136215 10.1487147216408644 10.1487147216408644
  3.3829049072136215 10.1487147216408644  6.7658098144272421
  3.3829049072136215  6.7658098144272421 10.1487147216408644
  0.0000000000000000 10.1487147216408644 10.1487147216408644
  6.7658098144272421  0.0000000000000000  0.0000000000000000
 10.1487147216408644  3.3829049072136215  3.3829049072136215
 10.1487147216408644  3.3829049072136215  0.0000000000000000
 10.1487147216408644  0.0000000000000000  3.3829049072136215
  6.7658098144272421  3.3829049072136215  3.3829049072136215
  6.7658098144272421  0.0000000000000000  6.7658098144272421
 10.1487147216408644  3.3829049072136215 10.1487147216408644
 10.1487147216408644  3.3829049072136215  6.7658098144272421
 10.1487147216408644  0.0000000000000000 10.1487147216408644
  6.7658098144272421  3.3829049072136215 10.1487147216408644
  6.7658098144272421  6.7658098144272421  0.0000000000000000
 10.1487147216408644 10.1487147216408644  3.3829049072136215
 10.1487147216408644 10.1487147216408644  0.0000000000000000
 10.1487147216408644  6.7658098144272421  3.3829049072136215
  6.7658098144272421 10.1487147216408644  3.3829049072136215
  6.7658098144272421  6.7658098144272421  6.7658098144272421
 10.1487147216408644 10.1487147216408644 10.1487147216408644
 10.1487147216408644 10.1487147216408644  6.7658098144272421
 10.1487147216408644  6.7658098144272421 10.1487147216408644
  6.7658098144272421 10.1487147216408644 10.1487147216408644
