40
Lattice="12.289838839335077 0.0 0.0 0.0 12.290914263173457 0.0 0.0 3.622813691557366e-14 12.289838839335152" Properties=species:S:1:pos:R:3:spacegroup_kinds:I:1:forces:R:3 spacegroup="P 1" unit_cell=conventional occupancy="_JSON {\"0\": {\"Cs\": 1.0}, \"1\": {\"Pb\": 1.0}, \"2\": {\"I\": 1.0}, \"3\": {\"I\": 1.0}, \"4\": {\"I\": 1.0}, \"5\": {\"Cs\": 1.0}, \"6\": {\"Pb\": 1.0}, \"7\": {\"I\": 1.0}, \"8\": {\"I\": 1.0}, \"9\": {\"I\": 1.0}, \"10\": {\"Cs\": 1.0}, \"11\": {\"Ge\": 1.0}, \"12\": {\"I\": 1.0}, \"13\": {\"I\": 1.0}, \"14\": {\"I\": 1.0}, \"15\": {\"Cs\": 1.0}, \"16\": {\"Ge\": 1.0}, \"17\": {\"I\": 1.0}, \"18\": {\"I\": 1.0}, \"19\": {\"I\": 1.0}, \"20\": {\"Cs\": 1.0}, \"21\": {\"Ge\": 1.0}, \"22\": {\"I\": 1.0}, \"23\": {\"I\": 1.0}, \"24\": {\"I\": 1.0}, \"25\": {\"Cs\": 1.0}, \"26\": {\"Pb\": 1.0}, \"27\": {\"I\": 1.0}, \"28\": {\"I\": 1.0}, \"29\": {\"I\": 1.0}, \"30\": {\"Cs\": 1.0}, \"31\": {\"Ge\": 1.0}, \"32\": {\"I\": 1.0}, \"33\": {\"I\": 1.0}, \"34\": {\"I\": 1.0}, \"35\": {\"Cs\": 1.0}, \"36\": {\"Ge\": 1.0}, \"37\": {\"I\": 1.0}, \"38\": {\"I\": 1.0}, \"39\": {\"I\": 1.0}}" candidate_id=baf524cdcf88de89 formula=MAGe0.59Pb0.41I3 config_index=0 rattle_stdev=0.0 method=PBE fidelity=phase2_force energy=-111.85260009487375 stress="-0.0016081505228118904 2.377317557024895e-11 -1.5186065264271685e-10 2.377317557024895e-11 -0.001010304643104832 -2.377317259206045e-11 -1.5186065264271685e-10 -2.377317259206045e-11 -0.0016081505228118696" pbc="T T T"
Cs      12.25039469      12.17531504       0.03944415        0       0.00066645       0.00229523      -0.00066645
Pb       3.07245971       3.07272857       3.07245971        1       0.00000787      -0.00000038       0.00016136
I        3.07245971       3.07272857       0.01113515        2      -0.00000066      -0.00000074      -0.04539600
I        3.07245971      12.13291397       3.07245971        3      -0.00000120       0.21359508      -0.00000162
I       12.13445756       3.07272857       3.07245971        4       0.28087728      -0.00000172      -0.00000170
Cs      12.25039469      12.17531504       6.10547527        5       0.00066741       0.00229684       0.00067007
Pb       3.07245971       3.07272857       9.21737913        6       0.00013415      -0.00001148      -0.00013415
I        3.07245971       3.07272857       6.13378427        7      -0.00000106      -0.00000107       0.04540374
I        3.07245971      12.11733023       9.21737913        8      -0.00000125       0.27846735       0.00000125
I       12.27870369       3.07272857       9.21737913        9       0.04539600      -0.00000074       0.00000066
Cs      12.25039469       6.26105636       0.03944415       10       0.00066691      -0.00229518      -0.00066691
Ge       3.07245971       9.21818570       3.07245971       11      -0.00000379       0.00000319      -0.00000273
I        3.07245971       9.21818570       0.00410880       12      -0.00000188       0.00000246       0.01230842
I        3.07245971       6.30345742       3.07245971       13      -0.00000129      -0.21362714      -0.00000182
I       12.28757896       9.21818570       3.07245971       14      -0.05269459       0.00000216      -0.00000189
Cs      12.25039469       6.26105636       6.10547527       15       0.00066772      -0.00229702       0.00067067
Ge       3.07245971       9.21818570       9.21737913       16      -0.00000248       0.00000326       0.00000248
I        3.07245971       9.21818570       6.14081062       17      -0.00000186       0.00000273      -0.01230853
I        3.07245971       6.31904116       9.21737913       18      -0.00000156      -0.27850455       0.00000156
I       12.28573004       9.21818570       9.21737913       19      -0.01230842       0.00000246       0.00000188
Cs       6.18436357      12.17531504       0.03944415       20      -0.00067007       0.00229684      -0.00066741
Ge       9.21737913       3.07272857       3.07245971       21       0.00000270      -0.00000508      -0.00000270
I        9.21737913       3.07272857       0.15538128       22       0.00000170      -0.00000172      -0.28087728
I        9.21737913      12.28339731       3.07245971       23       0.00000195      -0.11449920      -0.00000195
I        6.30030070       3.07272857       3.07245971       24      -0.28090836      -0.00000178      -0.00000199
Cs       6.18436357      12.17531504       6.10547527       25      -0.00067102       0.00229852       0.00067102
Pb       9.21737913       3.07272857       9.21737913       26      -0.00016136      -0.00000038      -0.00000787
I        9.21737913       3.07272857       5.98953814       27       0.00000199      -0.00000178       0.28090836
I        9.21737913      12.13291397       9.21737913       28       0.00000162       0.21359508       0.00000120
I        6.15605457       3.07272857       9.21737913       29      -0.04540374      -0.00000107       0.00000106
Cs       6.18436357       6.26105636       0.03944415       30      -0.00067067      -0.00229702      -0.00066772
Ge       9.21737913       9.21818570       3.07245971       31       0.00000209       0.00000158      -0.00000209
I        9.21737913       9.21818570       0.00225988       32       0.00000189       0.00000216       0.05269459
I        9.21737913       6.15297409       3.07245971       33       0.00000215       0.11450003      -0.00000215
I        6.14717930       9.21818570       3.07245971       34       0.05269453       0.00000230      -0.00000182
Cs       6.18436357       6.26105636       6.10547527       35      -0.00067144      -0.00229835       0.00067144
Ge       9.21737913       9.21818570       9.21737913       36       0.00000273       0.00000319       0.00000379
I        9.21737913       9.21818570       6.14265954       37       0.00000182       0.00000230      -0.05269453
I        9.21737913       6.30345742       9.21737913       38       0.00000182      -0.21362714       0.00000129
I        6.14902822       9.21818570       9.21737913       39       0.01230853       0.00000273       0.00000186
40
Lattice="12.289838839335077 0.0 0.0 0.0 12.290914263173457 0.0 0.0 3.622813691557366e-14 12.289838839335152" Properties=species:S:1:pos:R:3:spacegroup_kinds:I:1:forces:R:3 spacegroup="P 1" unit_cell=conventional occupancy="_JSON {\"0\": {\"Cs\": 1.0}, \"1\": {\"Pb\": 1.0}, \"2\": {\"I\": 1.0}, \"3\": {\"I\": 1.0}, \"4\": {\"I\": 1.0}, \"5\": {\"Cs\": 1.0}, \"6\": {\"Pb\": 1.0}, \"7\": {\"I\": 1.0}, \"8\": {\"I\": 1.0}, \"9\": {\"I\": 1.0}, \"10\": {\"Cs\": 1.0}, \"11\": {\"Ge\": 1.0}, \"12\": {\"I\": 1.0}, \"13\": {\"I\": 1.0}, \"14\": {\"I\": 1.0}, \"15\": {\"Cs\": 1.0}, \"16\": {\"Ge\": 1.0}, \"17\": {\"I\": 1.0}, \"18\": {\"I\": 1.0}, \"19\": {\"I\": 1.0}, \"20\": {\"Cs\": 1.0}, \"21\": {\"Ge\": 1.0}, \"22\": {\"I\": 1.0}, \"23\": {\"I\": 1.0}, \"24\": {\"I\": 1.0}, \"25\": {\"Cs\": 1.0}, \"26\": {\"Pb\": 1.0}, \"27\": {\"I\": 1.0}, \"28\": {\"I\": 1.0}, \"29\": {\"I\": 1.0}, \"30\": {\"Cs\": 1.0}, \"31\": {\"Ge\": 1.0}, \"32\": {\"I\": 1.0}, \"33\": {\"I\": 1.0}, \"34\": {\"I\": 1.0}, \"35\": {\"Cs\": 1.0}, \"36\": {\"Ge\": 1.0}, \"37\": {\"I\": 1.0}, \"38\": {\"I\": 1.0}, \"39\": {\"I\": 1.0}}" candidate_id=baf524cdcf88de89 formula=MAGe0.59Pb0.41I3 config_index=1 rattle_stdev=0.08 method=PBE fidelity=phase2_force energy=-111.57471035320373 stress="-0.003438098519417423 -3.142489856440175e-05 8.976508855088321e-05 -3.142489856440175e-05 -0.0017425597957254333 4.8754541006940426e-05 8.976508855088321e-05 4.8754541006940426e-05 -0.003650408639668574" pbc="T T T"
Cs      12.16347898      12.10362983       0.01494020        0       0.01952811       0.05484033       0.02724848
Pb       2.96526502       2.97620172       3.02112156        1       0.18320811       0.16459144       0.47686350
I        3.17709536       3.22036540       0.07746435        2      -0.02430203       0.02331196      -0.22185112
I        3.07059580      12.11622886       2.99913013        3       0.03072194       0.26572088       0.01923005
I       12.04847815       3.06583709       3.16652679        4       0.86691125       0.02077947       0.02770229
Cs      12.11958735      12.27357056       6.19158617        5       0.05286776       0.01916846      -0.05114181
Pb       3.10404154       3.04171250       9.26445127        6       0.03913090      -0.10350186      -0.08274613
I        2.95779580       3.04684259       6.23402304        7       0.03613070       0.03663748      -0.33265438
I        3.01400030      12.23160904       9.29295144        8      -0.01644752      -0.15873206       0.00329448
I       12.25758347       3.05967150       9.14025055        9       0.32039330       0.00741383       0.04575820
Cs      12.22298290       6.26496868      -0.00052641       10      -0.01133528      -0.02652627       0.01952582
Ge       2.89550735       9.24297265       2.94528761       11       0.14272286      -0.28161713      -0.27046318
I        3.13081608       9.20955360      -0.04790492       12      -0.07308399       0.02768361       0.24698442
I        2.93701519       6.27397950       2.94522997       13       0.03091667      -0.17021330       0.08343115
I       12.40601943       9.25614091       3.14556881       14      -0.28631063       0.01212844       0.00198295
Cs      12.32723231       6.26781976       6.24285374       15       0.00641324      -0.03900734      -0.04850754
Ge       3.14061113       9.15779487       9.03436878       16       0.36666189       0.09389145      -0.06178084
I        3.08119881       9.18217305       6.10777282       17       0.01136426       0.00534345       0.24087416
I        3.09797841       6.27575253       9.29327245       18      -0.02114448       0.14515817      -0.05368125
I       12.29784484       9.22433789       9.21262710       19      -0.03759886       0.04709160      -0.01854838
Cs       6.17875248      12.13002312       0.06432458       20       0.00960242       0.03330170       0.02393435
Ge       9.27531583       3.11404457       3.15454216       21      -0.44440688      -0.20932853      -0.53574083
I        9.25899134       3.00314148       0.27542649       22       0.04868169       0.02353079      -0.71526695
I        9.31069690      12.32275047       3.01387873       23      -0.04145842      -0.16896998       0.15230502
I        6.35472519       3.11344831       3.00545681       24      -0.63166663      -0.01977872       0.06180364
Cs       6.23617516      12.17631820       6.23024239       25      -0.05094391       0.03222851      -0.05551149
Pb       9.30014676       3.09974398       9.11317030       26      -0.36064568       0.27772721       0.22578050
I        9.12789559       3.17748978       5.94808078       27      -0.03419241      -0.01780950       0.79641943
I        9.18592919      12.21635145       9.22335635       28       0.02611084       0.02750190       0.00035084
I        6.16320953       3.07704115       9.25085489       29       0.01803374       0.00126961       0.00607562
Cs       6.08614517       6.17389303       0.06481410       30       0.03939744       0.00932996       0.01805591
Ge       9.15494669       9.14969521       2.96687000       31      -0.38938345       0.06876378      -0.34414453
I        9.25368166       9.29832768       0.11535866       32      -0.03482872      -0.07790626       0.27135752
I        9.20216450       6.15538293       2.92258637       33       0.04160875       0.31644357       0.06967300
I        6.13783715       9.20798647       3.14463445       34       0.52792145      -0.01080326      -0.01608171
Cs       6.07921380       6.25309230       6.11671925       35       0.00218469      -0.03068527      -0.01717342
Ge       9.42768360       9.35864800       9.00652730       36      -0.12247007      -0.33961904       0.12504172
I        9.11444757       9.20444792       6.28669583       37       0.13087206       0.08432642      -0.25966867
I        9.26607478       6.30597947       9.10006616       38      -0.01295174      -0.09529354       0.09947433
I        6.17378348       9.30956312       9.17651160       39      -0.35619383      -0.05187641       0.03722897
40
Lattice="12.289838839335077 0.0 0.0 0.0 12.290914263173457 0.0 0.0 3.622813691557366e-14 12.289838839335152" Properties=species:S:1:pos:R:3:spacegroup_kinds:I:1:forces:R:3 spacegroup="P 1" unit_cell=conventional occupancy="_JSON {\"0\": {\"Cs\": 1.0}, \"1\": {\"Pb\": 1.0}, \"2\": {\"I\": 1.0}, \"3\": {\"I\": 1.0}, \"4\": {\"I\": 1.0}, \"5\": {\"Cs\": 1.0}, \"6\": {\"Pb\": 1.0}, \"7\": {\"I\": 1.0}, \"8\": {\"I\": 1.0}, \"9\": {\"I\": 1.0}, \"10\": {\"Cs\": 1.0}, \"11\": {\"Ge\": 1.0}, \"12\": {\"I\": 1.0}, \"13\": {\"I\": 1.0}, \"14\": {\"I\": 1.0}, \"15\": {\"Cs\": 1.0}, \"16\": {\"Ge\": 1.0}, \"17\": {\"I\": 1.0}, \"18\": {\"I\": 1.0}, \"19\": {\"I\": 1.0}, \"20\": {\"Cs\": 1.0}, \"21\": {\"Ge\": 1.0}, \"22\": {\"I\": 1.0}, \"23\": {\"I\": 1.0}, \"24\": {\"I\": 1.0}, \"25\": {\"Cs\": 1.0}, \"26\": {\"Pb\": 1.0}, \"27\": {\"I\": 1.0}, \"28\": {\"I\": 1.0}, \"29\": {\"I\": 1.0}, \"30\": {\"Cs\": 1.0}, \"31\": {\"Ge\": 1.0}, \"32\": {\"I\": 1.0}, \"33\": {\"I\": 1.0}, \"34\": {\"I\": 1.0}, \"35\": {\"Cs\": 1.0}, \"36\": {\"Ge\": 1.0}, \"37\": {\"I\": 1.0}, \"38\": {\"I\": 1.0}, \"39\": {\"I\": 1.0}}" candidate_id=baf524cdcf88de89 formula=MAGe0.59Pb0.41I3 config_index=2 rattle_stdev=0.08 method=PBE fidelity=phase2_force energy=-111.49619174056801 stress="-0.0025633238817540944 7.300991113733988e-05 7.65705910679214e-05 7.300991113733988e-05 -0.0027292236550713615 -2.6258079408831224e-05 7.65705910679214e-05 -2.6258079408831224e-05 -0.002528796538235289" pbc="T T T"
Cs      12.24137764      12.08918992       0.18224631        0       0.02238500       0.01659338      -0.08158627
Pb       2.95590105       3.04662290       2.97166799        1       0.43524169       0.23066413       0.30210203
I        3.10252903       3.00247678      -0.01686291        2       0.00103739      -0.00177957      -0.18334424
I        3.09619253      12.22898693       2.94694009        3      -0.02056330      -0.38650736       0.05885975
I       12.28277986       3.11224551       3.06200280        4      -0.54888610       0.02542403      -0.02303721
Cs      12.21814503      12.09742206       6.06807792        5      -0.01247396      -0.00779560       0.05802954
Pb       3.01502599       3.17044003       9.15520313        6       0.52424088       0.16601226       0.08531485
I        3.02537766       3.06811906       6.14015066        7       0.04614544      -0.10248360      -0.20262816
I        2.97780363      11.99343084       9.29035962        8       0.01241947       0.81231947      -0.00108058
I       12.31171735       3.01706705       9.03427738        9      -0.16473912      -0.03912232      -0.01328347
Cs      12.18741536       6.17877502       0.04690880       10       0.03496210       0.01215574      -0.01322967
Ge       3.03012418       9.28060529       3.05639453       11       0.22524710      -0.20316189      -0.00769300
I        3.03401102       9.13536473      -0.03610995       12       0.01921719      -0.03503239       0.34756679
I        3.13565093       6.22945761       3.24926254       13      -0.01426424       0.28670253      -0.08095826
I       12.17556006       9.19905791       3.08984696       14       0.26899993      -0.03493297       0.01355079
Cs      12.22220386       6.26792640       6.11400742       15       0.00474726       0.00172276       0.01006353
Ge       3.05669721       9.32594041       9.24499305       16      -0.27260740      -0.49377468      -0.07176296
I        3.11707126       9.17056288       6.19943719       17      -0.03611159       0.09474409      -0.28162797
I        3.17895992       6.26063853       9.17851867       18      -0.01369661      -0.38819757       0.03372154
I       12.37188317       9.01055710       9.23073338       19       0.11066415       0.07021155      -0.00662194
Cs       6.26748034      12.03062913       0.10013543       20      -0.03240799       0.07283437      -0.05664719
Ge       9.17737010       2.88518511       3.06382629       21      -0.23952258       0.01564228       0.15553071
I        9.09715612       3.11183086       0.11112700       22       0.09444205       0.01771044      -0.14337962
I        9.30197973      12.21385188       3.06645242       23      -0.03224394       0.24278527       0.00065893
I        6.29172830       3.24063433       3.04521668       24       0.11492243      -0.16324097      -0.00264919
Cs       6.14213116      12.07174569       6.12260319       25       0.02265790       0.04019127       0.03197725
Pb       9.30748070       3.10485143       9.27862595       26      -0.47910071      -0.05551965      -0.08750030
I        9.10912893       3.11863725       5.97192717       27       0.07096781      -0.07572041       0.13386411
I        9.26899425      12.05253643       9.36935821       28       0.04640790       0.68569723      -0.01272014
I        6.17340344       3.11272620       9.16725184       29       0.04026975      -0.07332988      -0.01200465
Cs       6.10413284       6.19855154       0.05578637       30      -0.01811520      -0.01977677      -0.00871031
Ge       9.26026649       9.13218590       2.89503133       31      -0.17907099      -0.32692185       0.12142253
I        9.26913355       9.19239883      -0.01154525       32      -0.00061557      -0.06846784       0.30612570
I        9.03430539       6.14401058       3.14888481       33       0.15273491       0.34854436      -0.09333261
I        6.18355836       9.38313989       3.07745655       34      -0.28002277      -0.06008425      -0.03064379
Cs       6.18459097       6.22477205       6.13535387       35      -0.01474943      -0.01391522       0.00532559
Ge       9.15232985       9.21006110       9.25303619       36      -0.10706882       0.09331328      -0.46215161
I        9.11536884       9.22681224       6.21083849       37       0.09304476       0.07810677       0.03967871
I        9.20483096       6.39856296       9.09959806       38       0.05745168      -0.83396663       0.06403965
I        6.21831149       9.14671454       9.17346148       39       0.06228023       0.07523330       0.10589566
40
Lattice="12.289838839335077 0.0 0.0 0.0 12.290914263173457 0.0 0.0 3.622813691557366e-14 12.289838839335152" Properties=species:S:1:pos:R:3:spacegroup_kinds:I:1:forces:R:3 spacegroup="P 1" unit_cell=conventional occupancy="_JSON {\"0\": {\"Cs\": 1.0}, \"1\": {\"Pb\": 1.0}, \"2\": {\"I\": 1.0}, \"3\": {\"I\": 1.0}, \"4\": {\"I\": 1.0}, \"5\": {\"Cs\": 1.0}, \"6\": {\"Pb\": 1.0}, \"7\": {\"I\": 1.0}, \"8\": {\"I\": 1.0}, \"9\": {\"I\": 1.0}, \"10\": {\"Cs\": 1.0}, \"11\": {\"Ge\": 1.0}, \"12\": {\"I\": 1.0}, \"13\": {\"I\": 1.0}, \"14\": {\"I\": 1.0}, \"15\": {\"Cs\": 1.0}, \"16\": {\"Ge\": 1.0}, \"17\": {\"I\": 1.0}, \"18\": {\"I\": 1.0}, \"19\": {\"I\": 1.0}, \"20\": {\"Cs\": 1.0}, \"21\": {\"Ge\": 1.0}, \"22\": {\"I\": 1.0}, \"23\": {\"I\": 1.0}, \"24\": {\"I\": 1.0}, \"25\": {\"Cs\": 1.0}, \"26\": {\"Pb\": 1.0}, \"27\": {\"I\": 1.0}, \"28\": {\"I\": 1.0}, \"29\": {\"I\": 1.0}, \"30\": {\"Cs\": 1.0}, \"31\": {\"Ge\": 1.0}, \"32\": {\"I\": 1.0}, \"33\": {\"I\": 1.0}, \"34\": {\"I\": 1.0}, \"35\": {\"Cs\": 1.0}, \"36\": {\"Ge\": 1.0}, \"37\": {\"I\": 1.0}, \"38\": {\"I\": 1.0}, \"39\": {\"I\": 1.0}}" candidate_id=baf524cdcf88de89 formula=MAGe0.59Pb0.41I3 config_index=3 rattle_stdev=0.08 method=PBE fidelity=phase2_force energy=-111.19582179569798 stress="-0.002964827208952211 7.853231155520954e-05 -3.093759676432365e-05 7.853231155520954e-05 -0.002438008423086754 -4.1208908091811e-05 -3.093759676432365e-05 -4.1208908091811e-05 -0.0026858800132990453" pbc="T T T"
Cs      12.14471120      12.33665527       0.04324931        0       0.05470688       0.01689646      -0.00409892
Pb       3.05344602       3.07945838       3.14922309        1      -0.27026027      -0.21413849      -1.02352475
I        3.01793183       3.11505420      -0.05085831        2       0.02185889       0.01568309      -0.08615806
I        3.18485621      12.11493953       2.96798885        3       0.01360681      -0.01185455       0.01835943
I       12.08017474       2.94305390       2.97006183        4       0.48371276       0.08266662       0.03764748
Cs      12.23245095      12.10727016       6.04501606        5      -0.01757813       0.02152858       0.00302177
Pb       3.09351337       2.86831312       9.08375646        6      -0.12586072       0.27802515       0.54068802
I        3.01552089       2.87698652       6.03164948        7      -0.04947856      -0.05446566       0.62988106
I        3.12554951      12.01502351       9.15414635        8      -0.05661223       0.90108936       0.03975749
I       12.15851402       2.97756537       9.39871434        9       0.77366463       0.03203339       0.03452944
Cs      12.21225246       6.33278948      -0.10495091       10       0.03373885      -0.08799929       0.02141694
Ge       3.03316254       9.12222597       3.00804208       11      -0.10475000       0.32042956      -0.16027813
I        3.18492520       9.19976044      -0.05298692       12      -0.07687928      -0.04749620       0.53892578
I        3.05945271       6.24914703       3.19358913       13      -0.00188715       0.03897266      -0.00042890
I       12.14777313       9.27086807       3.04493041       14       0.78823904      -0.09057173       0.01695792
Cs      12.18969884       6.27481846       6.05289199       15      -0.02400039      -0.01280784       0.02030002
Ge       3.11667535       9.24879436       9.18767590       16       0.02620647      -0.67501879      -0.10701284
I        3.19871123       9.23552950       6.23773795       17      -0.03865061       0.01384293      -0.30574219
I        3.13097816       6.37296085       9.17095464       18      -0.02311547      -0.56930597      -0.02059641
I       12.27778287       9.09139651       9.21140182       19      -0.22612045       0.06551330       0.01361996
Cs       6.28026828      12.15408122      -0.01269982       20      -0.03074827       0.03212714       0.01513726
Ge       9.06565620       2.94950465       3.04103385       21       0.40172928       0.15016307       0.01463526
I        9.18422066       3.12961399       0.20678331       22      -0.08062253      -0.00910490      -0.43574677
I        9.40916603      12.26981472       2.99138901       23      -0.19529354      -0.26600223       0.04950585
I        6.26481620       3.14040674       3.11200843       24      -0.42877533      -0.05768933       0.03661801
Cs       6.20665463      12.21708231       6.13088460       25       0.02799180      -0.03263999      -0.01302923
Pb       9.23555004       3.04150133       9.15993772       26      -0.33949258      -0.04964690      -0.10313283
I        9.34090802       3.00369296       5.96083193       27      -0.01837788      -0.02060312       0.45006393
I        9.22408328      12.26725174       9.12303215       28      -0.02079006      -0.65422680       0.07614385
I        6.12415640       3.03885742       9.26212608       29      -0.20994666      -0.00573558      -0.01747843
Cs       6.13818400       6.26675615       0.10882056       30       0.00281443      -0.04976420      -0.04745808
Ge       9.25057185       9.20008692       3.13290716       31      -0.22846062      -0.13237110       0.13072362
I        9.23538952       9.18300545       0.05458622       32       0.01922318       0.00277323      -0.11100193
I        9.14568927       6.03901819       3.21185844       33       0.09952183       0.31067679      -0.04048654
I        6.38072535       9.16428768       3.01077777       34      -0.50138421       0.05708689       0.04675035
Cs       6.26880296       6.35271340       6.11512511       35      -0.00461099      -0.00930893       0.03609626
Ge       9.21837860       9.16222398       9.36748306       36       0.13044680      -0.00262069      -0.13058355
I        9.18132646       9.19368695       6.25567889       37       0.02169160       0.02037919      -0.17036771
I        9.16509185       6.12213210       9.26580729       38      -0.01533608       0.68825001       0.01273845
I        6.10708278       9.23478488       9.30509130       39       0.19065310       0.00209623      -0.00692879
