Cs Sn I  Cs Sn I  Cs Ge I  Cs Ge I  Cs Ge I  Cs Sn I  Cs Ge I  Cs Ge I 
 1.0000000000000000
    12.3262854096438943    0.0000000000000000    0.0000000000000000
     0.0000000000000000   12.3262854096438943    0.0000000000000000
     0.0000000000000000    0.0000000000000000   12.3262854096438943
 Cs  Sn  I   Cs  Sn  I   Cs  Ge  I   Cs  Ge  I   Cs  Ge  I   Cs  Sn  I   Cs  Ge  I   Cs  Ge  I  
   1   1   3   1   1   3   1   1   3   1   1   3   1   1   3   1   1   3   1   1   3   1   1   3
Cartesian
  0.0000000000000000  0.0000000000000000  0.0000000000000000
  3.0815713524109736  3.0815713524109736  3.0815713524109736
  3.0815713524109736  3.0815713524109736  0.0000000000000000
  3.0815713524109736  0.0000000000000000  3.0815713524109736
  0.0000000000000000  3.0815713524109736  3.0815713524109736
  0.0000000000000000  0.0000000000000000  6.1631427048219463
  3.0815713524109736  3.0815713524109736  9.2447140572329207
  3.0815713524109736  3.0815713524109736  6.1631427048219463
  3.0815713524109736  0.0000000000000000  9.2447140572329207
  0.0000000000000000  3.0815713524109736  9.2447140572329207
  0.0000000000000000  6.1631427048219463  0.0000000000000000
  3.0815713524109736  9.2447140572329207  3.0815713524109736
  3.0815713524109736  9.2447140572329207  0.0000000000000000
  3.0815713524109736  6.1631427048219463  3.0815713524109736
  0.0000000000000000  9.2447140572329207  3.0815713524109736
  0.0000000000000000  6.1631427048219463  6.1631427048219463
  3.0815713524109736  9.2447140572329207  9.2447140572329207
  3.0815713524109736  9.2447140572329207  6.1631427048219463
  3.0815713524109736  6.1631427048219463  9.2447140572329207
  0.0000000000000000  9.2447140572329207  9.2447140572329207
  6.1631427048219463  0.0000000000000000  0.0000000000000000
  9.2447140572329207  3.0815713524109736  3.0815713524109736
  9.2447140572329207  3.0815713524109736  0.0000000000000000
  9.2447140572329207  0.0000000000000000  3.0815713524109736
  6.1631427048219463  3.0815713524109736  3.0815713524109736
  6.1631427048219463  0.0000000000000000  6.1631427048219463
  9.2447140572329207  3.0815713524109736  9.2447140572329207
  9.2447140572329207  3.0815713524109736  6.1631427048219463
  9.2447140572329207  0.0000000000000000  9.2447140572329207
  6.1631427048219463  3.0815713524109736  9.2447140572329207
  6.1631427048219463  6.1631427048219463  0.0000000000000000
  9.2447140572329207  9.2447140572329207  3.0815713524109736
  9.2447140572329207  9.2447140572329207  0.0000000000000000
  9.2447140572329207  6.1631427048219463  3.0815713524109736
  6.1631427048219463  9.2447140572329207  3.0815713524109736
  6.1631427048219463  6.1631427048219463  6.1631427048219463
  9.2447140572329207  9.2447140572329207  9.2447140572329207
  9.2447140572329207  9.2447140572329207  6.1631427048219463
  9.2447140572329207  6.1631427048219463  9.2447140572329207
  6.1631427048219463  9.2447140572329207  9.2447140572329207
