Cs Pb I  Br Cl Cs Pb Cl Cs Pb Cl I  Cs Pb Br Cl Br Cs Pb Cl Br Cl Cs Pb Cl I  Cl Cs Pb Br Cl Cs Pb Br Cl
 1.0000000000000000
    12.3449530286672218    0.0000000000000000    0.0000000000000000
     0.0000000000000000   12.3449530286672218    0.0000000000000000
     0.0000000000000000    0.0000000000000000   12.3449530286672218
 Cs  Pb  I   Br  Cl  Cs  Pb  Cl  Cs  Pb  Cl  I   Cs  Pb  Br  Cl  Br  Cs  Pb  Cl  Br  Cl  Cs  Pb  Cl  I   Cl  Cs  Pb  Br  Cl  Cs  Pb  Br  Cl 
   1   1   1   1   1   1   1   3   1   1   2   1   1   1   1   1   1   1   1   1   1   1   1   1   1   1   1   1   1   1   2   1   1   1   2
Cartesian
  0.0000000000000000  0.0000000000000000  0.0000000000000000
  3.0862382571668054  3.0862382571668054  3.0862382571668054
  3.0862382571668054  3.0862382571668054  0.0000000000000000
  3.0862382571668054  0.0000000000000000  3.0862382571668054
  0.0000000000000000  3.0862382571668054  3.0862382571668054
  0.0000000000000000  0.0000000000000000  6.1724765143336100
  3.0862382571668054  3.0862382571668054  9.2587147715004168
  3.0862382571668054  3.0862382571668054  6.1724765143336100
  3.0862382571668054  0.0000000000000000  9.2587147715004168
  0.0000000000000000  3.0862382571668054  9.2587147715004168
  0.0000000000000000  6.1724765143336100  0.0000000000000000
  3.0862382571668054  9.2587147715004168  3.0862382571668054
  3.0862382571668054  9.2587147715004168  0.0000000000000000
  3.0862382571668054  6.1724765143336100  3.0862382571668054
  0.0000000000000000  9.2587147715004168  3.0862382571668054
  0.0000000000000000  6.1724765143336100  6.1724765143336100
  3.0862382571668054  9.2587147715004168  9.2587147715004168
  3.0862382571668054  9.2587147715004168  6.1724765143336100
  3.0862382571668054  6.1724765143336100  9.2587147715004168
  0.0000000000000000  9.2587147715004168  9.2587147715004168
  6.1724765143336100  0.0000000000000000  0.0000000000000000
  9.2587147715004168  3.0862382571668054  3.0862382571668054
  9.2587147715004168  3.0862382571668054  0.0000000000000000
  9.2587147715004168  0.0000000000000000  3.0862382571668054
  6.1724765143336100  3.0862382571668054  3.0862382571668054
  6.1724765143336100  0.0000000000000000  6.1724765143336100
  9.2587147715004168  3.0862382571668054  9.2587147715004168
  9.2587147715004168  3.0862382571668054  6.1724765143336100
  9.2587147715004168  0.0000000000000000  9.2587147715004168
  6.1724765143336100  3.0862382571668054  9.2587147715004168
  6.1724765143336100  6.1724765143336100  0.0000000000000000
  9.2587147715004168  9.2587147715004168  3.0862382571668054
  9.2587147715004168  9.2587147715004168  0.0000000000000000
  9.2587147715004168  6.1724765143336100  3.0862382571668054
  6.1724765143336100  9.2587147715004168  3.0862382571668054
  6.1724765143336100  6.1724765143336100  6.1724765143336100
  9.2587147715004168  9.2587147715004168  9.2587147715004168
  9.2587147715004168  9.2587147715004168  6.1724765143336100
  9.2587147715004168  6.1724765143336100  9.2587147715004168
  6.1724765143336100  9.2587147715004168  9.2587147715004168
