Cs Sn Br Cs Sn Br Cs Ge Br Cs Ge Br Cs Ge Br Cs Sn Br Cs Ge Br Cs Sn Br
 1.0000000000000000
    11.7546602877326904    0.0000000000000000    0.0000000000000000
     0.0000000000000000   11.7546602877326904    0.0000000000000000
     0.0000000000000000    0.0000000000000000   11.7546602877326904
 Cs  Sn  Br  Cs  Sn  Br  Cs  Ge  Br  Cs  Ge  Br  Cs  Ge  Br  Cs  Sn  Br  Cs  Ge  Br  Cs  Sn  Br 
   1   1   3   1   1   3   1   1   3   1   1   3   1   1   3   1   1   3   1   1   3   1   1   3
Cartesian
  0.0000000000000000  0.0000000000000000  0.0000000000000000
  2.9386650719331726  2.9386650719331726  2.9386650719331726
  2.9386650719331726  2.9386650719331726  0.0000000000000000
  2.9386650719331726  0.0000000000000000  2.9386650719331726
  0.0000000000000000  2.9386650719331726  2.9386650719331726
  0.0000000000000000  0.0000000000000000  5.8773301438663443
  2.9386650719331726  2.9386650719331726  8.8159952157995178
  2.9386650719331726  2.9386650719331726  5.8773301438663443
  2.9386650719331726  0.0000000000000000  8.8159952157995178
  0.0000000000000000  2.9386650719331726  8.8159952157995178
  0.0000000000000000  5.8773301438663443  0.0000000000000000
  2.9386650719331726  8.8159952157995178  2.9386650719331726
  2.9386650719331726  8.8159952157995178  0.0000000000000000
  2.9386650719331726  5.8773301438663443  2.9386650719331726
  0.0000000000000000  8.8159952157995178  2.9386650719331726
  0.0000000000000000  5.8773301438663443  5.8773301438663443
  2.9386650719331726  8.8159952157995178  8.8159952157995178
  2.9386650719331726  8.8159952157995178  5.8773301438663443
  2.9386650719331726  5.8773301438663443  8.8159952157995178
  0.0000000000000000  8.8159952157995178  8.8159952157995178
  5.8773301438663443  0.0000000000000000  0.0000000000000000
  8.8159952157995178  2.9386650719331726  2.9386650719331726
  8.8159952157995178  2.9386650719331726  0.0000000000000000
  8.8159952157995178  0.0000000000000000  2.9386650719331726
  5.8773301438663443  2.9386650719331726  2.9386650719331726
  5.8773301438663443  0.0000000000000000  5.8773301438663443
  8.8159952157995178  2.9386650719331726  8.8159952157995178
  8.8159952157995178  2.9386650719331726  5.8773301438663443
  8.8159952157995178  0.0000000000000000  8.8159952157995178
  5.8773301438663443  2.9386650719331726  8.8159952157995178
  5.8773301438663443  5.8773301438663443  0.0000000000000000
  8.8159952157995178  8.8159952157995178  2.9386650719331726
  8.8159952157995178  8.8159952157995178  0.0000000000000000
  8.8159952157995178  5.8773301438663443  2.9386650719331726
  5.8773301438663443  8.8159952157995178  2.9386650719331726
  5.8773301438663443  5.8773301438663443  5.8773301438663443
  8.8159952157995178  8.8159952157995178  8.8159952157995178
  8.8159952157995178  8.8159952157995178  5.8773301438663443
  8.8159952157995178  5.8773301438663443  8.8159952157995178
  5.8773301438663443  8.8159952157995178  8.8159952157995178
