Cs Sn I  Cl Cs Sn Cl Cs Sn Cl I  Cs Sn I  Cl I  Cs Sn Cl Cs Sn Cl I  Cl Cs Sn I  Cl Cs Sn Cl
 1.0000000000000000
    12.3500441974917621    0.0000000000000000    0.0000000000000000
     0.0000000000000000   12.3500441974917621    0.0000000000000000
     0.0000000000000000    0.0000000000000000   12.3500441974917621
 Cs  Sn  I   Cl  Cs  Sn  Cl  Cs  Sn  Cl  I   Cs  Sn  I   Cl  I   Cs  Sn  Cl  Cs  Sn  Cl  I   Cl  Cs  Sn  I   Cl  Cs  Sn  Cl 
   1   1   1   2   1   1   3   1   1   2   1   1   1   1   1   1   1   1   3   1   1   1   1   1   1   1   1   2   1   1   3
Cartesian
  0.0000000000000000  0.0000000000000000  0.0000000000000000
  3.0875110493729405  3.0875110493729405  3.0875110493729405
  3.0875110493729405  3.0875110493729405  0.0000000000000000
  3.0875110493729405  0.0000000000000000  3.0875110493729405
  0.0000000000000000  3.0875110493729405  3.0875110493729405
  0.0000000000000000  0.0000000000000000  6.1750220987458802
  3.0875110493729405  3.0875110493729405  9.2625331481188216
  3.0875110493729405  3.0875110493729405  6.1750220987458802
  3.0875110493729405  0.0000000000000000  9.2625331481188216
  0.0000000000000000  3.0875110493729405  9.2625331481188216
  0.0000000000000000  6.1750220987458802  0.0000000000000000
  3.0875110493729405  9.2625331481188216  3.0875110493729405
  3.0875110493729405  9.2625331481188216  0.0000000000000000
  3.0875110493729405  6.1750220987458802  3.0875110493729405
  0.0000000000000000  9.2625331481188216  3.0875110493729405
  0.0000000000000000  6.1750220987458802  6.1750220987458802
  3.0875110493729405  9.2625331481188216  9.2625331481188216
  3.0875110493729405  9.2625331481188216  6.1750220987458802
  3.0875110493729405  6.1750220987458802  9.2625331481188216
  0.0000000000000000  9.2625331481188216  9.2625331481188216
  6.1750220987458802  0.0000000000000000  0.0000000000000000
  9.2625331481188216  3.0875110493729405  3.0875110493729405
  9.2625331481188216  3.0875110493729405  0.0000000000000000
  9.2625331481188216  0.0000000000000000  3.0875110493729405
  6.1750220987458802  3.0875110493729405  3.0875110493729405
  6.1750220987458802  0.0000000000000000  6.1750220987458802
  9.2625331481188216  3.0875110493729405  9.2625331481188216
  9.2625331481188216  3.0875110493729405  6.1750220987458802
  9.2625331481188216  0.0000000000000000  9.2625331481188216
  6.1750220987458802  3.0875110493729405  9.2625331481188216
  6.1750220987458802  6.1750220987458802  0.0000000000000000
  9.2625331481188216  9.2625331481188216  3.0875110493729405
  9.2625331481188216  9.2625331481188216  0.0000000000000000
  9.2625331481188216  6.1750220987458802  3.0875110493729405
  6.1750220987458802  9.2625331481188216  3.0875110493729405
  6.1750220987458802  6.1750220987458802  6.1750220987458802
  9.2625331481188216  9.2625331481188216  9.2625331481188216
  9.2625331481188216  9.2625331481188216  6.1750220987458802
  9.2625331481188216  6.1750220987458802  9.2625331481188216
  6.1750220987458802  9.2625331481188216  9.2625331481188216
