Cs Pb Cl Cs Pb Cl Cs Pb Cl Cs Sn Cl Cs Pb Cl Cs Pb Cl Cs Sn Cl Cs Pb Cl
 1.0000000000000000
    11.9899854245115733    0.0000000000000000    0.0000000000000000
     0.0000000000000000   11.9899854245115733    0.0000000000000000
     0.0000000000000000    0.0000000000000000   11.9899854245115733
 Cs  Pb  Cl  Cs  Pb  Cl  Cs  Pb  Cl  Cs  Sn  Cl  Cs  Pb  Cl  Cs  Pb  Cl  Cs  Sn  Cl  Cs  Pb  Cl 
   1   1   3   1   1   3   1   1   3   1   1   3   1   1   3   1   1   3   1   1   3   1   1   3
Cartesian
  0.0000000000000000  0.0000000000000000  0.0000000000000000
  2.9974963561278933  2.9974963561278933  2.9974963561278933
  2.9974963561278933  2.9974963561278933  0.0000000000000000
  2.9974963561278933  0.0000000000000000  2.9974963561278933
  0.0000000000000000  2.9974963561278933  2.9974963561278933
  0.0000000000000000  0.0000000000000000  5.9949927122557858
  2.9974963561278933  2.9974963561278933  8.9924890683836800
  2.9974963561278933  2.9974963561278933  5.9949927122557858
  2.9974963561278933  0.0000000000000000  8.9924890683836800
  0.0000000000000000  2.9974963561278933  8.9924890683836800
  0.0000000000000000  5.9949927122557858  0.0000000000000000
  2.9974963561278933  8.9924890683836800  2.9974963561278933
  2.9974963561278933  8.9924890683836800  0.0000000000000000
  2.9974963561278933  5.9949927122557858  2.9974963561278933
  0.0000000000000000  8.9924890683836800  2.9974963561278933
  0.0000000000000000  5.9949927122557858  5.9949927122557858
  2.9974963561278933  8.9924890683836800  8.9924890683836800
  2.9974963561278933  8.9924890683836800  5.9949927122557858
  2.9974963561278933  5.9949927122557858  8.9924890683836800
  0.0000000000000000  8.9924890683836800  8.9924890683836800
  5.9949927122557858  0.0000000000000000  0.0000000000000000
  8.9924890683836800  2.9974963561278933  2.9974963561278933
  8.9924890683836800  2.9974963561278933  0.0000000000000000
  8.9924890683836800  0.0000000000000000  2.9974963561278933
  5.9949927122557858  2.9974963561278933  2.9974963561278933
  5.9949927122557858  0.0000000000000000  5.9949927122557858
  8.9924890683836800  2.9974963561278933  8.9924890683836800
  8.9924890683836800  2.9974963561278933  5.9949927122557858
  8.9924890683836800  0.0000000000000000  8.9924890683836800
  5.9949927122557858  2.9974963561278933  8.9924890683836800
  5.9949927122557858  5.9949927122557858  0.0000000000000000
  8.9924890683836800  8.9924890683836800  2.9974963561278933
  8.9924890683836800  8.9924890683836800  0.0000000000000000
  8.9924890683836800  5.9949927122557858  2.9974963561278933
  5.9949927122557858  8.9924890683836800  2.9974963561278933
  5.9949927122557858  5.9949927122557858  5.9949927122557858
  8.9924890683836800  8.9924890683836800  8.9924890683836800
  8.9924890683836800  8.9924890683836800  5.9949927122557858
  8.9924890683836800  5.9949927122557858  8.9924890683836800
  5.9949927122557858  8.9924890683836800  8.9924890683836800
