K  Sn I  K  Sn I  K  Ge I  K  Ge I  K  Ge I  K  Sn I  K  Ge I  K  Ge I 
 1.0000000000000000
    12.4668582377437822    0.0000000000000000    0.0000000000000000
     0.0000000000000000   12.4668582377437822    0.0000000000000000
     0.0000000000000000    0.0000000000000000   12.4668582377437822
 K   Sn  I   K   Sn  I   K   Ge  I   K   Ge  I   K   Ge  I   K   Sn  I   K   Ge  I   K   Ge  I  
   1   1   3   1   1   3   1   1   3   1   1   3   1   1   3   1   1   3   1   1   3   1   1   3
Cartesian
  0.0000000000000000  0.0000000000000000  0.0000000000000000
  3.1167145594359456  3.1167145594359456  3.1167145594359456
  3.1167145594359456  3.1167145594359456  0.0000000000000000
  3.1167145594359456  0.0000000000000000  3.1167145594359456
  0.0000000000000000  3.1167145594359456  3.1167145594359456
  0.0000000000000000  0.0000000000000000  6.2334291188718902
  3.1167145594359456  3.1167145594359456  9.3501436783078375
  3.1167145594359456  3.1167145594359456  6.2334291188718902
  3.1167145594359456  0.0000000000000000  9.3501436783078375
  0.0000000000000000  3.1167145594359456  9.3501436783078375
  0.0000000000000000  6.2334291188718902  0.0000000000000000
  3.1167145594359456  9.3501436783078375  3.1167145594359456
  3.1167145594359456  9.3501436783078375  0.0000000000000000
  3.1167145594359456  6.2334291188718902  3.1167145594359456
  0.0000000000000000  9.3501436783078375  3.1167145594359456
  0.0000000000000000  6.2334291188718902  6.2334291188718902
  3.1167145594359456  9.3501436783078375  9.3501436783078375
  3.1167145594359456  9.3501436783078375  6.2334291188718902
  3.1167145594359456  6.2334291188718902  9.3501436783078375
  0.0000000000000000  9.3501436783078375  9.3501436783078375
  6.2334291188718902  0.0000000000000000  0.0000000000000000
  9.3501436783078375  3.1167145594359456  3.1167145594359456
  9.3501436783078375  3.1167145594359456  0.0000000000000000
  9.3501436783078375  0.0000000000000000  3.1167145594359456
  6.2334291188718902  3.1167145594359456  3.1167145594359456
  6.2334291188718902  0.0000000000000000  6.2334291188718902
  9.3501436783078375  3.1167145594359456  9.3501436783078375
  9.3501436783078375  3.1167145594359456  6.2334291188718902
  9.3501436783078375  0.0000000000000000  9.3501436783078375
  6.2334291188718902  3.1167145594359456  9.3501436783078375
  6.2334291188718902  6.2334291188718902  0.0000000000000000
  9.3501436783078375  9.3501436783078375  3.1167145594359456
  9.3501436783078375  9.3501436783078375  0.0000000000000000
  9.3501436783078375  6.2334291188718902  3.1167145594359456
  6.2334291188718902  9.3501436783078375  3.1167145594359456
  6.2334291188718902  6.2334291188718902  6.2334291188718902
  9.3501436783078375  9.3501436783078375  9.3501436783078375
  9.3501436783078375  9.3501436783078375  6.2334291188718902
  9.3501436783078375  6.2334291188718902  9.3501436783078375
  6.2334291188718902  9.3501436783078375  9.3501436783078375
