40
Lattice="12.222261507380377 0.0 0.0 0.02780125952779005 12.222229888394391 0.0 -0.0006181273169747896 0.0006195349375667754 12.345278098006377" Properties=species:S:1:pos:R:3:spacegroup_kinds:I:1:forces:R:3 spacegroup="P 1" unit_cell=conventional occupancy="_JSON {\"0\": {\"Cs\": 1.0}, \"1\": {\"Sn\": 1.0}, \"2\": {\"I\": 1.0}, \"3\": {\"I\": 1.0}, \"4\": {\"I\": 1.0}, \"5\": {\"Cs\": 1.0}, \"6\": {\"Sn\": 1.0}, \"7\": {\"I\": 1.0}, \"8\": {\"I\": 1.0}, \"9\": {\"I\": 1.0}, \"10\": {\"Cs\": 1.0}, \"11\": {\"Sn\": 1.0}, \"12\": {\"Cl\": 1.0}, \"13\": {\"Cl\": 1.0}, \"14\": {\"I\": 1.0}, \"15\": {\"Cs\": 1.0}, \"16\": {\"Sn\": 1.0}, \"17\": {\"I\": 1.0}, \"18\": {\"Cl\": 1.0}, \"19\": {\"I\": 1.0}, \"20\": {\"Cs\": 1.0}, \"21\": {\"Sn\": 1.0}, \"22\": {\"I\": 1.0}, \"23\": {\"I\": 1.0}, \"24\": {\"Cl\": 1.0}, \"25\": {\"Cs\": 1.0}, \"26\": {\"Sn\": 1.0}, \"27\": {\"I\": 1.0}, \"28\": {\"I\": 1.0}, \"29\": {\"I\": 1.0}, \"30\": {\"Cs\": 1.0}, \"31\": {\"Sn\": 1.0}, \"32\": {\"I\": 1.0}, \"33\": {\"Cl\": 1.0}, \"34\": {\"Cl\": 1.0}, \"35\": {\"Cs\": 1.0}, \"36\": {\"Sn\": 1.0}, \"37\": {\"I\": 1.0}, \"38\": {\"I\": 1.0}, \"39\": {\"Cl\": 1.0}}" candidate_id=f35b405ac549ff6e formula=CsSnCl0.28I0.723 config_index=0 rattle_stdev=0.0 method=PBE fidelity=phase2_force energy=-119.84158161767621 stress="0.0006410114115407821 -9.393124316561683e-05 -1.8706975880618018e-05 -9.393124316561683e-05 0.0006414387323967715 1.874957604374716e-05 -1.8706975880618018e-05 1.874957604374716e-05 -0.002604094591577109" pbc="T T T"
Cs      12.21954922       0.00271847       0.12457544        0       0.00042992      -0.00043090      -0.00064959
Sn       3.28438841       3.37577135       3.07712149        1      -0.18183926      -0.03631661      -0.00179560
I        3.15031005       3.20857923       0.03343466        2      -0.00313620      -0.00278194      -0.12451794
I        3.26844619      12.06426081       2.98292067        3       0.02478187       0.05745883      -0.03014123
I        0.06034147       3.25174867       3.09116660        4       0.02497867       0.03485180      -0.00200317
Cs       0.05534363      12.19462480       6.03200851        5      -0.00403643       0.00404562      -0.01111156
Sn       3.07301732       3.40277366       9.26892615        6       0.00992912      -0.14774909       0.03137430
I        3.13682497       3.23070548       6.14532445        7       0.00244225       0.00059141       0.11723411
I        3.20204579      12.03570638       9.40912087        8       0.02798814       0.07313666       0.02775230
I        0.02600188       3.11317346       9.25093579        9      -0.15705275      -0.01982679      -0.00092298
Cs      12.23562951       6.12415772       0.02424390       10       0.00803825      -0.00518675      -0.01329726
Sn       3.24610218       8.99660015       2.96551899       11      -0.11799147       0.11826016       0.11052550
Cl       3.29704686       8.94553945      12.21209347       12       0.04000289      -0.04009399      -0.03821084
Cl       3.31078032       6.00882522       3.02963508       13       0.04956784      -0.06220385      -0.01361452
I        0.17839863       8.98123402       2.98292067       14      -0.05751505      -0.02465111      -0.03014123
Cs       0.02146090       6.17100324       6.14604460       15       0.00690646      -0.00538407       0.00731420
Sn       3.20662338       9.03616885       9.58857649       16      -0.06717067       0.06732364      -0.09956896
I        3.22241417       9.02034209       5.98711901       17       0.03739480      -0.03747996       0.06353375
Cl       3.10442036       5.96531762       9.34973906       18      -0.00248965       0.08549235       0.00161324
I        0.20710401       9.04756930       9.40912087       19      -0.07320014      -0.02782171       0.02775230
Cs       6.09808922       0.00056229       0.02424390       20       0.00516845      -0.00805003      -0.01329726
Sn       8.88561953       3.34424029       3.08227930       21       0.07440158      -0.07457101      -0.00045313
I        9.05228069       3.17719960       0.04645616       22       0.01563248      -0.01566808      -0.22434447
I        8.99818525      12.16928514       3.09116660       23      -0.03490853      -0.02489933      -0.00200317
Cl       6.15531058       3.38133448       3.08227494       24       0.02689163       0.03037074       0.00779782
Cs       6.07902668      12.21480586       6.14604460       25       0.00536834      -0.00691869       0.00731420
Sn       9.15131214       3.07794263       9.25387074       26      -0.04849664       0.04860708      -0.00212640
I        9.06549351       3.16395669       6.12090918       27       0.01380265      -0.01383408       0.22443306
I        9.13683822      12.20330943       9.25093579       28       0.02018397       0.15700724      -0.00092298
I        6.07931507       3.12618604       9.25248222       29       0.17335516      -0.03110044      -0.00975611
Cs       6.05137970       6.18493435       0.17995005       30      -0.00472373       0.00473449       0.01520021
Sn       8.86682935       8.94552865       3.07712149       31       0.03673013       0.18175618      -0.00179560
I        9.03432601       9.07922635       0.03343466       32       0.00278906       0.00312986      -0.12451794
Cl       8.85473591       6.07462656       3.08227494       33      -0.03043183      -0.02682248       0.00779782
Cl       6.23372225       8.92512606       3.02963508       34       0.06209094      -0.04970920      -0.01361452
Cs       6.11281926       6.12335488       5.98962938       35       0.00648774      -0.00650251      -0.02740423
Sn       8.84030789       9.15696061       9.26892615       36       0.14772612      -0.01026517       0.03137430
I        9.01223049       9.09276173       6.14532445       37      -0.00059697      -0.00244090       0.11723411
I        9.11005655       6.15004150       9.25248222       38       0.03070604      -0.17342545      -0.00975611
Cl       6.27769914       9.13138651       9.34973906       39      -0.08548647       0.00268411       0.00161324
40
Lattice="12.222261507380377 0.0 0.0 0.02780125952779005 12.222229888394391 0.0 -0.0006181273169747896 0.0006195349375667754 12.345278098006377" Properties=species:S:1:pos:R:3:spacegroup_kinds:I:1:forces:R:3 spacegroup="P 1" unit_cell=conventional occupancy="_JSON {\"0\": {\"Cs\": 1.0}, \"1\": {\"Sn\": 1.0}, \"2\": {\"I\": 1.0}, \"3\": {\"I\": 1.0}, \"4\": {\"I\": 1.0}, \"5\": {\"Cs\": 1.0}, \"6\": {\"Sn\": 1.0}, \"7\": {\"I\": 1.0}, \"8\": {\"I\": 1.0}, \"9\": {\"I\": 1.0}, \"10\": {\"Cs\": 1.0}, \"11\": {\"Sn\": 1.0}, \"12\": {\"Cl\": 1.0}, \"13\": {\"Cl\": 1.0}, \"14\": {\"I\": 1.0}, \"15\": {\"Cs\": 1.0}, \"16\": {\"Sn\": 1.0}, \"17\": {\"I\": 1.0}, \"18\": {\"Cl\": 1.0}, \"19\": {\"I\": 1.0}, \"20\": {\"Cs\": 1.0}, \"21\": {\"Sn\": 1.0}, \"22\": {\"I\": 1.0}, \"23\": {\"I\": 1.0}, \"24\": {\"Cl\": 1.0}, \"25\": {\"Cs\": 1.0}, \"26\": {\"Sn\": 1.0}, \"27\": {\"I\": 1.0}, \"28\": {\"I\": 1.0}, \"29\": {\"I\": 1.0}, \"30\": {\"Cs\": 1.0}, \"31\": {\"Sn\": 1.0}, \"32\": {\"I\": 1.0}, \"33\": {\"Cl\": 1.0}, \"34\": {\"Cl\": 1.0}, \"35\": {\"Cs\": 1.0}, \"36\": {\"Sn\": 1.0}, \"37\": {\"I\": 1.0}, \"38\": {\"I\": 1.0}, \"39\": {\"Cl\": 1.0}}" candidate_id=f35b405ac549ff6e formula=CsSnCl0.28I0.723 config_index=1 rattle_stdev=0.08 method=PBE fidelity=phase2_force energy=-119.20536908045518 stress="-0.0002596613065569141 -0.00021238358400879745 -0.0001441198620165454 -0.00021238358400879745 0.00032296021705612043 -7.804980567439422e-05 -0.0001441198620165454 -7.804980567439422e-05 -0.004294056899896164" pbc="T T T"
Cs      12.13263351      -0.06896674       0.10007149        0      -0.00639544       0.03489885       0.01105537
Sn       3.17719372       3.27924450       3.02578334        1      -0.02966737       0.25017427       0.32727509
I        3.25494570       3.35621607       0.09976385        2      -0.11127744      -0.13891966      -0.22936478
I        3.26658229      12.04757569       2.90959110        3      -0.01238180       0.21220925      -0.01030216
I       -0.02563794       3.24485719       3.18523368        4       0.28160803       0.02431634      -0.03190747
Cs      -0.07546371      12.29288032       6.11811941        5       0.04962844       0.02673892      -0.03708074
Sn       3.10459915       3.37175760       9.31599829        6       0.05684797      -0.42495748      -0.14456748
I        3.02216107       3.20481951       6.24556322        7       0.06092071       0.02891207      -0.03057133
I        3.14358638      12.14998519       9.48469318        8       0.03168505      -0.31944795      -0.03361993
I        0.00488166       3.10011639       9.17380721        9      -0.02366630      -0.02872725       0.02540939
Cs      12.20821772       6.12807005      -0.01572666       10      -0.00328157      -0.03211288       0.00298620
Sn       3.06914981       9.02138710       2.83834689       11       1.00410177      -0.12625300       0.03973239
Cl       3.35540323       8.93690735      12.16007975       12      -0.00467516      -0.06703482      -0.24545721
Cl       3.17533580       5.97934730       2.90240534       13       0.02965499      -0.19839710       0.08100081
I        0.29683910       9.01918923       3.05602978       14      -1.14525026      -0.02177180      -0.02620453
Cs       0.09829852       6.17776664       6.28342307       15       0.03185617      -0.02042927      -0.00031958
Sn       3.27477480       8.97577802       9.40556614       16       0.08371378       0.41827857       0.25655856
I        3.23115327       8.98432944       5.95408122       17       0.01958542      -0.00869381       0.15141456
Cl       3.12993906       5.92202898       9.42563238       18      -0.01972354       0.45308019      -0.04415358
I        0.21921882       9.05372149       9.40436884       19      -0.05653512      -0.02975614      -0.01467705
Cs       6.09247812      -0.04472963       0.04912432       20       0.00719914      -0.00800410      -0.02900841
Sn       8.94355624       3.38555629       3.16436176       21      -0.16451301      -0.28155158      -0.69260481
I        9.09389290       3.10761252       0.16650137       22       0.05624815       0.00365985      -0.62973882
I        9.09150302      12.20863830       3.03258562       23      -0.04550368      -0.08228195       0.14024811
Cl       6.20973506       3.42205423       3.01527204       24      -0.14714296       0.00966334       0.08478411
Cs       6.13083827      12.21580902       6.27081172       25      -0.07119391      -0.01738767      -0.00948011
Sn       9.23407977       3.10495805       9.14966191       26      -0.23427629       0.35318550       0.30311418
I        8.97600997       3.26871790       6.07945182       27       0.01540538      -0.08545205       0.79368141
I        9.10538827      12.28674691       9.25691301       28       0.02920184      -0.00472851      -0.03283920
I        6.08647003       3.13049863       9.28595798       29       0.14610036      -0.00481936      -0.01620009
Cs       5.95316129       6.09777103       0.20532000       30       0.07696186       0.07804669       0.03539136
Sn       8.80439690       8.87703816       2.97153177       31      -0.02436844       0.27892126       0.40977747
I        9.07062854       9.15936834       0.14653343       32       0.00415953      -0.05418226      -0.52357491
Cl       8.83952128       6.07703540       2.93240160       33       0.00720335       0.14430359       0.02437109
Cl       6.22438009       8.91492683       3.10180982       34       0.22149104      -0.06250761      -0.08912170
Cs       6.00766948       6.11539082       6.00087337       35      -0.01670239      -0.01678766      -0.04885693
Sn       9.05061237       9.29742291       9.05807433       36      -0.31536403      -0.41042015       1.00847207
I        8.90929893       9.07902395       6.28936074       37       0.03312499       0.06121703      -0.84626418
I        9.15875220       6.15256355       9.13516925       38       0.02499414       0.02757917       0.09894760
Cl       6.30245440       9.22276394       9.30887153       39       0.17031424       0.03293323      -0.03353154
40
Lattice="12.222261507380377 0.0 0.0 0.02780125952779005 12.222229888394391 0.0 -0.0006181273169747896 0.0006195349375667754 12.345278098006377" Properties=species:S:1:pos:R:3:spacegroup_kinds:I:1:forces:R:3 spacegroup="P 1" unit_cell=conventional occupancy="_JSON {\"0\": {\"Cs\": 1.0}, \"1\": {\"Sn\": 1.0}, \"2\": {\"I\": 1.0}, \"3\": {\"I\": 1.0}, \"4\": {\"I\": 1.0}, \"5\": {\"Cs\": 1.0}, \"6\": {\"Sn\": 1.0}, \"7\": {\"I\": 1.0}, \"8\": {\"I\": 1.0}, \"9\": {\"I\": 1.0}, \"10\": {\"Cs\": 1.0}, \"11\": {\"Sn\": 1.0}, \"12\": {\"Cl\": 1.0}, \"13\": {\"Cl\": 1.0}, \"14\": {\"I\": 1.0}, \"15\": {\"Cs\": 1.0}, \"16\": {\"Sn\": 1.0}, \"17\": {\"I\": 1.0}, \"18\": {\"Cl\": 1.0}, \"19\": {\"I\": 1.0}, \"20\": {\"Cs\": 1.0}, \"21\": {\"Sn\": 1.0}, \"22\": {\"I\": 1.0}, \"23\": {\"I\": 1.0}, \"24\": {\"Cl\": 1.0}, \"25\": {\"Cs\": 1.0}, \"26\": {\"Sn\": 1.0}, \"27\": {\"I\": 1.0}, \"28\": {\"I\": 1.0}, \"29\": {\"I\": 1.0}, \"30\": {\"Cs\": 1.0}, \"31\": {\"Sn\": 1.0}, \"32\": {\"I\": 1.0}, \"33\": {\"Cl\": 1.0}, \"34\": {\"Cl\": 1.0}, \"35\": {\"Cs\": 1.0}, \"36\": {\"Sn\": 1.0}, \"37\": {\"I\": 1.0}, \"38\": {\"I\": 1.0}, \"39\": {\"Cl\": 1.0}}" candidate_id=f35b405ac549ff6e formula=CsSnCl0.28I0.723 config_index=2 rattle_stdev=0.08 method=PBE fidelity=phase2_force energy=-119.16311707522024 stress="-0.001572594455084233 -0.0002314981793105184 1.0967458975933927e-06 -0.0002314981793105184 -0.002244713635769254 9.56166427715703e-05 1.0967458975933927e-06 9.56166427715703e-05 -0.003826524388949816" pbc="T T T"
Cs      12.21053217      -0.08340665       0.26737759        0      -0.00441496       0.00539775      -0.04605080
Sn       3.16782974       3.34966568       2.97632977        1       0.34586231      -0.04725348       0.34856663
I        3.18037937       3.13832744       0.00543659        2      -0.04746062       0.04811285      -0.20722645
I        3.29217901      12.16033376       2.85740106        3      -0.03816554      -0.29729174       0.05651090
I        0.20866376       3.29126562       3.08070969        4      -0.56354649       0.01439842      -0.04791672
Cs       0.02309397      12.11673182       5.99461116        5      -0.02716318      -0.00629641       0.02063222
Sn       3.01558360       3.50048513       9.20675015        6       0.49060800      -0.92021265      -0.02592614
I        3.08974292       3.22609598       6.15169084        7       0.01807883      -0.07088829       0.02808144
I        3.10738971      11.91180699       9.48210136        8       0.01053942       1.07101256       0.03773341
I        0.05901554       3.05751194       9.06783404        9      -0.34232936      -0.01405751       0.03600751
Cs      12.17265019       6.04187639       0.03170854       10       0.01482823       0.01470657      -0.03179393
Sn       3.20376664       9.05901974       2.94945382       11      -0.01335350       0.02185000       0.29217524
Cl       3.25859817       8.86271848      12.17187472       12       0.05474292      -0.00952410       0.44556407
Cl       3.37397153       5.93482541       3.20643790       13      -0.05208514       0.28334819      -0.16136144
I        0.06637973       8.96210623       3.00030793       14       0.23743850      -0.00053654      -0.02030205
Cs      -0.00672992       6.17787328       6.15457675       15      -0.00653742       0.00857826       0.00373639
Sn       3.19086088       9.14392356       9.61619040       16       0.14480989      -0.95680973      -0.41715946
I        3.26702573       8.97271928       6.04574559       17      -0.03430496       0.08186427      -0.27652996
Cl       3.21092058       5.90691499       9.31087860       18      -0.03349147       0.79619189       0.02330347
I        0.29325715       8.83994070       9.42247513       19      -0.34590158       0.00415477       0.02220082
Cs       6.18120599      -0.14412362       0.08493517       20      -0.00995955       0.04115374      -0.03643907
Sn       8.84561051       3.15669684       3.07364589       21      -0.26236229       0.25191642       0.15605494
I        8.93205768       3.21630190       0.00220188       22       0.09911672       0.01938849      -0.09277874
I        9.08278585      12.09973971       3.08515931       23      -0.01729905       0.20854666      -0.02648147
Cl       6.14673818       3.54924024       3.05503190       24       0.37210448      -0.23742425      -0.02838865
Cs       6.03679427      12.11123652       6.16317252       25       0.03418721       0.00481069       0.00962873
Sn       9.24141371       3.11006550       9.31511757       26      -0.43238458      -0.04857558      -0.18949517
I        8.95724332       3.20986537       6.10329821       27       0.07460032      -0.08762784       0.13827243
I        9.18845334      12.12293188       9.40291487       28       0.05965228       0.67303392       0.00620055
I        6.09666393       3.16618367       9.20235494       29       0.15925851      -0.10805547      -0.00172445
Cs       5.97114896       6.12242954       0.19629227       30       0.00252340      -0.02837691       0.04971116
Sn       8.90971671       8.85952885       2.89969311       31      -0.13245592      -0.08132039       0.86030282
I        9.08608043       9.05343949       0.01962952       32       0.00975031      -0.04714037      -0.19308447
Cl       8.67166216       6.06566305       3.15870004       33       0.13179046       0.00224565      -0.11671493
Cl       6.27010130       9.09008025       3.03463191       34      -0.12520605      -0.03192256      -0.15177283
Cs       6.11304665       6.08707058       6.01950798       35       0.00580484      -0.02137578      -0.06577257
Sn       8.77525861       9.14883601       9.30458321       36       0.89907774       0.13011131      -0.44015806
I        8.91022020       9.10138827       6.21350340       37       0.05856881       0.09190625      -0.09636360
I        9.09750838       6.24514704       9.13470115       38       0.13892789      -0.83059973       0.04692115
Cl       6.34698240       9.05991535       9.30582142       39      -0.85490675       0.05728554       0.08353423
40
Lattice="12.222261507380377 0.0 0.0 0.02780125952779005 12.222229888394391 0.0 -0.0006181273169747896 0.0006195349375667754 12.345278098006377" Properties=species:S:1:pos:R:3:spacegroup_kinds:I:1:forces:R:3 spacegroup="P 1" unit_cell=conventional occupancy="_JSON {\"0\": {\"Cs\": 1.0}, \"1\": {\"Sn\": 1.0}, \"2\": {\"I\": 1.0}, \"3\": {\"I\": 1.0}, \"4\": {\"I\": 1.0}, \"5\": {\"Cs\": 1.0}, \"6\": {\"Sn\": 1.0}, \"7\": {\"I\": 1.0}, \"8\": {\"I\": 1.0}, \"9\": {\"I\": 1.0}, \"10\": {\"Cs\": 1.0}, \"11\": {\"Sn\": 1.0}, \"12\": {\"Cl\": 1.0}, \"13\": {\"Cl\": 1.0}, \"14\": {\"I\": 1.0}, \"15\": {\"Cs\": 1.0}, \"16\": {\"Sn\": 1.0}, \"17\": {\"I\": 1.0}, \"18\": {\"Cl\": 1.0}, \"19\": {\"I\": 1.0}, \"20\": {\"Cs\": 1.0}, \"21\": {\"Sn\": 1.0}, \"22\": {\"I\": 1.0}, \"23\": {\"I\": 1.0}, \"24\": {\"Cl\": 1.0}, \"25\": {\"Cs\": 1.0}, \"26\": {\"Sn\": 1.0}, \"27\": {\"I\": 1.0}, \"28\": {\"I\": 1.0}, \"29\": {\"I\": 1.0}, \"30\": {\"Cs\": 1.0}, \"31\": {\"Sn\": 1.0}, \"32\": {\"I\": 1.0}, \"33\": {\"Cl\": 1.0}, \"34\": {\"Cl\": 1.0}, \"35\": {\"Cs\": 1.0}, \"36\": {\"Sn\": 1.0}, \"37\": {\"I\": 1.0}, \"38\": {\"I\": 1.0}, \"39\": {\"Cl\": 1.0}}" candidate_id=f35b405ac549ff6e formula=CsSnCl0.28I0.723 config_index=3 rattle_stdev=0.08 method=PBE fidelity=phase2_force energy=-119.16947302279802 stress="-0.0006947391797314581 0.00011479995777354495 0.00019636254003198511 0.00011479995777354495 6.718773502623647e-05 0.00037070842154479926 0.00019636254003198511 0.00037070842154479926 -0.0028956748453361995" pbc="T T T"
Cs      12.11386573       0.16405870       0.12838059        0       0.03679975       0.02327184       0.01962522
Sn       3.26537471       3.38250116       3.15388487        1      -0.37116235      -0.41336415      -0.76880588
I        3.09578217       3.25090486      -0.02855880        2       0.02212880      -0.01170150      -0.16652199
I        3.38084269      12.04628637       2.87844982        3       0.00955413      -0.24021150      -0.00758789
I        0.00605865       3.12207401       2.98876872        4       0.17365806       0.09684140       0.07037380
Cs       0.03739989      12.12657992       5.97154930        5      -0.02186839       0.00514986      -0.02993782
Sn       3.09407098       3.19835822       9.13530348        6      -0.05471761       0.59442887       0.54887309
I        3.07988616       3.03496343       6.04318966        7      -0.02055715      -0.04371199       0.49179506
I        3.25513559      11.93339967       9.34588809        8      -0.01934969       0.81452039       0.00473761
I       -0.09418779       3.01801026       9.43227100        9       0.28477685       0.00414762      -0.01684740
Cs      12.19748728       6.19589084      -0.12015116       10       0.04351769      -0.09876401       0.00363231
Sn       3.20680501       8.90064042       2.90110137       11      -0.31950098       0.51369110       0.36755806
Cl       3.40951235       8.92711420      12.15499775       12       0.01821136      -0.04346869       0.37333088
Cl       3.29777331       5.95451483       3.15076449       13       0.02192216       0.30120105       0.02680146
I        0.03859280       9.03391638       2.95539137       14       0.65130456      -0.08408200       0.00173857
Cs      -0.03923495       6.18476534       6.09346132       15      -0.00071220      -0.00264117       0.02091818
Sn       3.25083902       9.06677751       9.55887326       16      -0.10574059      -0.76555756      -0.28693963
I        3.34866569       9.03768589       6.08404635       17      -0.03187008      -0.04071086      -0.42420468
Cl       3.16293881       6.01923731       9.30331458       18      -0.01818924      -0.57121504      -0.09431837
I        0.19915685       8.92078010       9.40314356       19      -0.13367887       0.07004252      -0.01042865
Cs       6.19399393      -0.02067152      -0.02790007       20      -0.04058463       0.00748375      -0.02816169
Sn       8.73389661       3.22101637       3.05085344       21       0.45261483       0.12285760       0.11833760
I        9.01912223       3.23408503       0.09785819       22      -0.03177775      -0.02993699      -0.41719321
I        9.18997216      12.15570255       3.01009591       23      -0.15811325      -0.15376069       0.04741065
Cl       6.11982608       3.44901266       3.12182366       24      -0.22238399      -0.03840788       0.03517271
Cs       6.10131774      12.25657314       6.17145393       25       0.01787340      -0.04502669       0.00918427
Sn       9.16948305       3.04671539       9.19642933       26      -0.12855274      -0.03669541      -0.03181659
I        9.18902241       3.09492108       6.09220297       27       0.01673932      -0.00934177       0.36730018
I        9.14354236      12.33764719       9.15658881       28      -0.02738403      -0.86266779       0.05488703
I        6.04741690       3.09231490       9.29722917       29      -0.00888240      -0.04820697      -0.05815048
Cs       6.00520012       6.19063414       0.24932646       30      -0.01174764      -0.04301762      -0.06453620
Sn       8.90002207       8.92742986       3.13756894       31       0.83596501       0.02472087       0.17602128
I        9.05233640       9.04404611       0.08576100       32       0.03657883      -0.00274528      -0.07793657
Cl       8.78304605       5.96067066       3.22167367       33       0.02805405       0.10191555      -0.01832151
Cl       6.46726830       8.87122804       2.96795314       34      -1.14692543      -0.00912513      -0.00832603
Cs       6.19725864       6.21501192       5.99927923       35      -0.00989874      -0.05473555       0.01867729
Sn       8.84130737       9.10099889       9.41903008       36       0.11450167       0.00775479      -0.25521617
I        8.97617782       9.06826298       6.25834380       37       0.00797887       0.03301682      -0.00856207
I        9.05776927       5.96871618       9.30091038       38      -0.01985121       0.92856893      -0.01504633
Cl       6.23575370       9.14798570       9.43745123       39       0.14239053      -0.00400808       0.03271541
