40
Lattice="12.131666209157158 0.0 0.0 0.03256891489003738 12.060063101727781 0.0 -0.0033917053100854743 0.013282070974214003 12.206978468645353" Properties=species:S:1:pos:R:3:spacegroup_kinds:I:1:forces:R:3 spacegroup="P 1" unit_cell=conventional candidate_id=cf4c229c54b5adae formula=FASnBr0.25Cl0.25I0.53 config_index=0 rattle_stdev=0.0 method=PBE fidelity=phase2_force energy=-122.54792280951158 stress="0.000597902997280695 1.8083228439845158e-05 -2.4605672676560015e-05 1.8083228439845158e-05 0.001086343522243473 2.5446928029162875e-05 -2.4605672676560015e-05 2.5446928029162875e-05 -0.0011508584230123181" pbc="T T T"
Cs       0.02897816       0.05914855       0.02234482        0      -0.00435202      -0.00926453      -0.00993904
Sn       3.21466631       3.31565316       3.12338762        1      -0.09093252      -0.07186965      -0.01813559
I        3.15277109       3.09344898      12.13022330        2       0.00915143       0.01963399       0.00180127
I        3.20135854      11.93196820       3.00941301        3      -0.00569406       0.13094929      -0.03246475
I        0.14443967       3.20002406       3.13249080        4      -0.05865383       0.03066913      -0.00007707
Cs       0.04539465       0.04008440       6.06277285        5      -0.02424788      -0.01161652      -0.00328227
Sn       3.16064150       3.22533287       9.01265027        6       0.00804747      -0.05789514       0.01593748
Br       3.13636887       3.29945598       6.01389974        7       0.03977064      -0.02180213       0.03637350
Br       3.24006575      11.75050025       9.34784234        8       0.04853645       0.12729066       0.04809011
I        0.02080243       3.10763013       9.02168514        9       0.00762919      -0.00800316      -0.00262857
Cs       0.02760497       6.01731117      12.17011043       10      -0.00867297       0.00335713      -0.00697604
Sn       3.18844094       8.88368875       2.82151779       11       0.01611476       0.02927604       0.07288863
Cl       3.27572978       8.82278600       0.18616128       12       0.01203950      -0.03089478       0.02233315
Cl       3.25892553       5.95227521       3.02093672       13       0.02983532      -0.08735500      -0.01625561
I        0.03569047       8.87028084       2.99202491       14      -0.04959509      -0.03268511      -0.01799955
Cs       0.04255197       6.03546278       6.13675507       15       0.00492582       0.00777516       0.01150903
Sn       3.21651053       9.00885684       9.31142086       16      -0.11048702       0.01211378      -0.09307130
I        3.19872060       9.02064280       6.28875790       17       0.01785631      -0.03054851      -0.07037913
Cl       3.21429994       5.77887267       9.05507976       18      -0.00672547       0.02067558       0.02538195
I        0.15859260       8.98532842       9.29009997       19      -0.03734186      -0.02102344       0.03874526
Cs       6.03863426      12.04631298      12.16873405       20       0.00659510      -0.02480974      -0.01220955
Sn       8.81643620       3.19418460       3.15433507       21       0.08521172      -0.08761971      -0.00610233
I        8.93509861       3.15662864       0.02326231       22      -0.00622732       0.01707436      -0.02564839
I        8.91873251       0.13165990       3.13727135       23      -0.01066189      -0.05308936       0.00281976
Cl       6.17209489       3.28031146       3.25683858       24       0.02812976       0.01595091       0.01870755
Cs       5.99332884       0.10702995       6.09607581       25       0.02204508       0.00713501       0.00732369
Sn       8.96253788       3.16171853       9.01904105       26      -0.00474082      -0.01478873       0.02555882
Br       8.93968982       3.16795513       6.11702142       27      -0.00670307       0.03811826       0.01804876
I        8.95849203       0.02673129       9.08136828       28      -0.01187364      -0.00670238       0.00029019
Br       6.08890969       3.16098095       9.05211478       29      -0.03282568      -0.02274191      -0.04933515
Cs       5.96538561       6.11835174      12.17653337       30       0.00454491       0.01196149      -0.00196276
Sn       8.98694907       8.74320321       3.04298145       31      -0.03871247       0.13036346      -0.00498500
I        8.99267312       8.91201091      12.19581073       32       0.00644035       0.00885031       0.01087801
Cl       8.85798485       6.12287770       3.10547415       33       0.00431788       0.00393430       0.00919100
Br       6.07951045       8.87962552       2.97889806       34       0.04366620      -0.03201410      -0.01514174
Cs       6.04552225       5.94814444       6.04478554       35       0.00632885       0.00009315      -0.00421145
Sn       8.81202194       8.94763959       9.14240617       36       0.12743984       0.00926006      -0.00042266
I        8.97400011       8.92558201       6.09118416       37       0.01358944       0.00121079       0.00422139
Br       8.95300750       6.05020637       9.10391153       38      -0.00401989       0.00234169      -0.01760648
Cl       6.20067899       8.94021544       9.20892539       39      -0.01740697      -0.01498871       0.04208362
40
Lattice="12.131666209157158 0.0 0.0 0.03256891489003738 12.060063101727781 0.0 -0.0033917053100854743 0.013282070974214003 12.206978468645353" Properties=species:S:1:pos:R:3:spacegroup_kinds:I:1:forces:R:3 spacegroup="P 1" unit_cell=conventional candidate_id=cf4c229c54b5adae formula=FASnBr0.25Cl0.25I0.53 config_index=1 rattle_stdev=0.08 method=PBE fidelity=phase2_force energy=-121.9354666242359 stress="0.0003211693465817693 -0.0002331118925119976 -0.0001343245648741867 -0.0002331118925119976 0.0005842841350454502 8.693757473790962e-05 -0.0001343245648741867 8.693757473790962e-05 -0.004362969377333564" pbc="T T T"
Cs      -0.05793755      -0.01253666      -0.00215912        0      -0.00968604       0.03213839       0.00773453
Sn       3.10747161       3.21912632       3.07204948        1       0.03755625       0.23206997       0.14253568
I        3.25740674       3.24108582      12.19655249        2      -0.13148659      -0.13208058       0.04643826
I        3.19949463      11.91528308       2.93608343        3      -0.02826923       0.27799724      -0.00889402
I        0.05846026       3.19313258       3.22655789        4       0.16870950       0.02484167      -0.03936172
Cs      -0.08541269       0.13833992       6.14888375        5       0.03638326      -0.00389704      -0.05432367
Sn       3.19222333       3.19431681       9.05972242        6       0.10335313      -0.31782461      -0.14985714
Br       3.02170496       3.27357001       6.11413851        7       0.09844904      -0.00990230      -0.03446074
Br       3.18160634      11.86477906       9.42341465        8       0.06448784      -0.31961373      -0.08385672
I       -0.00031779       3.09457307       8.94455656        9       0.07346588      -0.01246819       0.06585267
Cs       0.00019318       6.02122349      12.13013987       10      -0.02434609      -0.03476162       0.01980206
Sn       3.01148858       8.90847570       2.69434569       11       0.79411658      -0.23395779       0.14987207
Cl       3.33408615       8.81415390       0.13414756       12      -0.10795053      -0.01644277      -0.10326458
Cl       3.12348101       5.92279728       2.89370698       13       0.01190200      -0.20061957       0.05427179
I        0.15413094       8.90823605       3.06513402       14      -0.74316224      -0.02666651      -0.01109498
Cs       0.11938959       6.04222618       6.27413354       15       0.02641534      -0.00531001      -0.02712343
Sn       3.28466195       8.94846601       9.12841051       16       0.12585202       0.43372776       0.49031869
I        3.20745970       8.98463015       6.25572011       17      -0.00356654       0.01935321      -0.38262757
Cl       3.23981864       5.73558404       9.13097308       18      -0.03199523       0.36575458      -0.03124314
I        0.17070740       8.99148061       9.28534794       19      -0.04653690      -0.02783458      -0.01111210
Cs       6.03302316      12.00102106      12.19361448       20       0.00441444      -0.02102489      -0.02216123
Sn       8.87437291       3.23550060       3.23641753       21      -0.11690012      -0.24441188      -0.54232255
I        8.97671082       3.08704156       0.14330752       22       0.03910840       0.07180599      -0.36275472
I        9.01205028       0.17101306       3.07869038       23      -0.02856841      -0.11554783       0.15087452
Cl       6.22651938       3.32103121       3.18983568       24      -0.12630269       0.00830159       0.07279505
Cs       6.04514043       0.10803311       6.22084294       25      -0.04508089       0.00480951      -0.03509005
Sn       9.04530551       3.18873395       8.91483222       26      -0.18683506       0.29873789       0.35767280
Br       8.85020628       3.27271634       6.07556406       27       0.01225509      -0.01782857       0.39670830
I        8.92704209       0.11016877       9.08734549       28       0.03573234      -0.18124277      -0.03372544
Br       6.09606466       3.16529354       9.08559054       29      -0.07818636      -0.01927943      -0.06948899
Cs       5.86716720       6.03118842      12.20190332       30       0.11846032       0.08795129       0.02451678
Sn       8.92451663       8.67471273       2.93739173       31      -0.22483173       0.46007501       0.33331394
I        9.02897566       8.99215290      12.30890950       32       0.01376593      -0.01394176      -0.42966994
Cl       8.84277022       6.12528654       2.95560081       33       0.01265294      -0.14834227      -0.00852958
Br       6.07016829       8.86942629       3.05107281       34       0.30781932      -0.06038562      -0.00905377
Cs       5.94037248       5.94018038       6.05602953       35      -0.00291367      -0.02967703      -0.02448872
Sn       9.02232641       9.08810189       8.93155435       36      -0.23632255      -0.24699556       1.45975053
I        8.87106855       8.91184423       6.23522046       37      -0.00206793       0.01377752      -1.33988975
Br       9.00170316       6.05272841       8.98659856       38       0.04403519       0.09002538       0.03980006
Cl       6.22543425       9.03159286       9.16805786       39       0.04616179       0.01506142       0.00473650
40
Lattice="12.131666209157158 0.0 0.0 0.03256891489003738 12.060063101727781 0.0 -0.0033917053100854743 0.013282070974214003 12.206978468645353" Properties=species:S:1:pos:R:3:spacegroup_kinds:I:1:forces:R:3 spacegroup="P 1" unit_cell=conventional candidate_id=cf4c229c54b5adae formula=FASnBr0.25Cl0.25I0.53 config_index=2 rattle_stdev=0.08 method=PBE fidelity=phase2_force energy=-121.75505587598978 stress="-0.002399838357327894 3.278901594816562e-06 3.1208736352290344e-05 3.278901594816562e-06 -0.003146789708404038 0.00017800092052430342 3.1208736352290344e-05 0.00017800092052430342 -0.002514890429442755" pbc="T T T"
Cs       0.01996111      -0.02697657       0.16514698        0       0.00022693      -0.00427117      -0.06417935
Sn       3.09810764       3.28954750       3.02259590        1       0.97623155      -0.02666809       0.18230911
I        3.18284041       3.02319719      12.10222524        2      -0.06681132       0.07064107       0.02134501
I        3.22509136      12.02804115       2.88389339        3      -0.06915272      -0.27024806       0.01829839
I        0.29276197       3.23954100       3.12203389        4      -1.16466335       0.01556448      -0.03617709
Cs       0.01314499      -0.03780858       6.02537551        5      -0.03246483      -0.03474320       0.03053978
Sn       3.10320778       3.32304434       8.95047427        6       0.40532855      -0.93893092      -0.09882034
Br       3.08928681       3.29484648       6.02026613        7       0.03296902      -0.08897906       0.00348008
Br       3.14540967      11.62660086       9.42082284        8       0.00691018       1.53936749       0.08367226
I        0.05381609       3.05196861       8.83858339        9      -0.17384939       0.01767849       0.07188955
Cs      -0.03537435       5.93502983      12.17757507       10       0.01808709       0.01427999      -0.03707870
Sn       3.14610540       8.94610834       2.80545262       11       0.28433089      -0.06536310       0.03603323
Cl       3.23728109       8.73996503       0.14594253       12       0.00067127       0.00297729       0.30371703
Cl       3.32211675       5.87827540       3.19773954       13      -0.05515909       0.31450036      -0.13704249
I       -0.07632843       8.85115305       3.00941216       14       0.46065918      -0.01931632      -0.01503115
Cs       0.01436115       6.04233282       6.14528722       15      -0.00700466       0.03765835       0.00804693
Sn       3.20074804       9.11661155       9.33903477       16       0.02791150      -1.49140862       0.00358960
I        3.24333215       8.97301999       6.34738448       17      -0.02728979       0.06279572      -0.39666558
Cl       3.32080015       5.72047004       9.01621930       18      -0.05232496       0.85793957       0.06452073
I        0.24474574       8.77769982       9.30345423       19      -0.23459871       0.02090256       0.04519085
Cs       6.12175103      11.90162707      12.22942533       20      -0.02005056       0.02489956      -0.01812605
Sn       8.77642718       3.00664115       3.14570166       21      -0.18008209       0.54514227       0.16648004
I        8.81487560       3.19573093      -0.02099197       22       0.08308176       0.01423938       0.06807793
I        9.00333311       0.06211447       3.13126407       23      -0.03295143      -0.19424329      -0.01275974
Cl       6.16352250       3.44821722       3.22959554       24       0.35574211      -0.25232275      -0.04485495
Cs       5.95109643       0.00346061       6.11320374       25       0.05576636       0.02096756       0.00739863
Sn       9.05263944       3.19384140       9.08028787       26      -0.43899840      -0.07840002      -0.18151745
Br       8.83143962       3.21386381       6.09941045       27       0.07758784      -0.07242235      -0.04234811
I        9.01010715      -0.05364626       9.23334736       28       0.01184200       0.46347910      -0.00884574
Br       6.10625856       3.20097858       9.00198750       29       0.09044051      -0.08794935      -0.01986705
Cs       5.88515487       6.05584693      12.19287559       30      -0.00133316      -0.01490936       0.02794059
Sn       9.02983643       8.65720341       2.86555307       31      -0.46034206       0.05226977       0.83597976
I        9.04442754       8.88622405      12.18200559       32       0.03081764      -0.05709919       0.00798117
Cl       8.67491111       6.11391419       3.18189925       33       0.13996475      -0.04286453      -0.12472421
Br       6.11588950       9.04457972       2.98389490       34      -0.32220405       0.01570718      -0.10321789
Cs       6.04574965       5.91186013       6.07466414       35       0.01027479      -0.01350533      -0.04251508
Sn       8.74697266       8.93951499       9.17806323       36       0.69658269       0.07368870      -0.53731239
I        8.87198982       8.93420855       6.15936311       37       0.07008490       0.10073442      -0.24528592
Br       8.94045934       6.14531191       8.98613046       38       0.08143536      -0.55017543       0.06161529
Cl       6.26996226       8.86874427       9.16500774       39      -0.57331284       0.03753001       0.12415343
40
Lattice="12.131666209157158 0.0 0.0 0.03256891489003738 12.060063101727781 0.0 -0.0033917053100854743 0.013282070974214003 12.206978468645353" Properties=species:S:1:pos:R:3:spacegroup_kinds:I:1:forces:R:3 spacegroup="P 1" unit_cell=conventional candidate_id=cf4c229c54b5adae formula=FASnBr0.25Cl0.25I0.53 config_index=3 rattle_stdev=0.08 method=PBE fidelity=phase2_force energy=-121.66234836955773 stress="-0.0007793016048552009 0.0003529407349938626 -4.596544984403162e-05 0.0003529407349938626 -6.549001251567105e-05 0.00018198774348199883 -4.596544984403162e-05 0.00018198774348199883 -0.002482272977692595" pbc="T T T"
Cs      -0.07670533       0.22048878       0.02614998        0       0.01926159       0.02606504       0.01880527
Sn       3.19565261       3.32238298       3.20015100        1      -0.29800944      -0.47310766      -0.73247947
I        3.09824321       3.13577462      12.06822984        2       0.04405730      -0.03303033      -0.18652905
I        3.31375504      11.91399376       2.90494216        3      -0.01729515      -0.17582554       0.00345826
I        0.09015685       3.07034940       3.03009292        4       0.11924272       0.11627154       0.07094681
Cs       0.02745092      -0.02796049       6.00231364        5      -0.04451469       0.01040650      -0.01619952
Sn       3.18169517       3.02091743       8.87902760        6       0.07063860       0.82624899       0.63897832
Br       3.07943005       3.10371393       5.91176495        7       0.01505681      -0.02289111       0.47194340
Br       3.29315556      11.64819354       9.28460957        8       0.02587701       1.10230006       0.07658198
I       -0.09938723       3.01246694       9.20302035        9       0.36740205       0.03354502      -0.08218715
Cs      -0.01053726       6.08904429      12.02571537       10       0.02102668      -0.11598689       0.00988564
Sn       3.14914377       8.78772902       2.75710017       11       0.09412783       0.45105544      -0.00067258
Cl       3.38819527       8.80436075       0.12906556       12      -0.06106386      -0.08454994       0.38221197
Cl       3.24591853       5.89796481       3.14206613       13       0.00666639       0.26113684       0.02698636
I       -0.10411536       8.92296321       2.96449561       14       0.95542484      -0.04268812      -0.03249472
Cs      -0.01814388       6.04922488       6.08417179       15      -0.01682529      -0.02772677       0.03300031
Sn       3.26072617       9.03946550       9.28171763       16      -0.13150105      -0.98068829       0.23887905
I        3.32497212       9.03798660       6.38568523       17      -0.01670970      -0.02362896      -0.69974208
Cl       3.27281838       5.83279236       9.00865527       18      -0.05743814      -0.72579613      -0.10574441
I        0.15064543       8.85853923       9.28412266       19      -0.15504959       0.06833772      -0.02705301
Cs       6.13453897      12.02507916      12.11659008       20      -0.04068420       0.00149707      -0.01141045
Sn       8.66471327       3.07096068       3.12290921       21       0.68593854       0.41057660      -0.00475298
I        8.90194014       3.21351406       0.07466434       22      -0.05385187      -0.02489691      -0.16600602
I        9.11051941       0.11807731       3.05620066       23      -0.11980720      -0.46457764       0.01731994
Cl       6.13661040       3.34798963       3.29638730       24      -0.39775765      -0.06427691       0.06355275
Cs       6.01561990       0.14879723       6.12148515       25       0.03758138      -0.04076809      -0.01493745
Sn       8.98070879       3.13049130       8.96159964       26      -0.04524539      -0.09781523       0.05456199
Br       9.06321871       3.09891952       6.08831521       27      -0.03124710       0.04943906       0.11744773
I        8.96519618       0.16106905       8.98702130       28      -0.03768629      -0.89905778       0.08609484
Br       6.05701152       3.12710981       9.09686173       29      -0.30934546      -0.09417502      -0.12227768
Cs       5.91920603       6.12405153      12.24590978       30       0.00187464      -0.04744025      -0.06827048
Sn       9.02014179       8.72510443       3.10342890       31      -0.17122819      -0.21048997       0.23376896
I        9.01068351       8.87683067      12.24813707       32       0.04401491       0.01504232       0.12797540
Cl       8.78629499       6.00892181       3.24487288       33       0.11136108       0.26926227      -0.00014632
Br       6.31305649       8.82572750       2.91721612       34      -0.93305626       0.03563570       0.00221715
Cs       6.12996163       6.03980148       6.05443539       35      -0.00718277      -0.02314130       0.02882872
Sn       8.81302141       8.89167787       9.29251010       36       0.11039603       0.02784424      -0.38574556
I        8.93794744       8.90108326       6.20420351       37       0.04104149       0.03460698      -0.12900744
Br       8.90072022       5.86888104       9.15233969       38      -0.01063196       0.94895632       0.00470992
Cl       6.15873355       8.95681462       9.29663756       39       0.18769457      -0.01482372       0.08489363
