Cs Sn I  Cs Sn I  Cs Ge I  Cs Ge I  Cs Ge I  Cs Sn I  Cs Ge I  Cs Ge I 
 1.0000000000000000
    12.3367505900054564    0.0000000000000000    0.0000000000000000
     0.0000000000000000   12.3367505900054564    0.0000000000000000
     0.0000000000000000    0.0000000000000000   12.3367505900054564
 Cs  Sn  I   Cs  Sn  I   Cs  Ge  I   Cs  Ge  I   Cs  Ge  I   Cs  Sn  I   Cs  Ge  I   Cs  Ge  I  
   1   1   3   1   1   3   1   1   3   1   1   3   1   1   3   1   1   3   1   1   3   1   1   3
Cartesian
  0.0000000000000000  0.0000000000000000  0.0000000000000000
  3.0841876475013641  3.0841876475013641  3.0841876475013641
  3.0841876475013641  3.0841876475013641  0.0000000000000000
  3.0841876475013641  0.0000000000000000  3.0841876475013641
  0.0000000000000000  3.0841876475013641  3.0841876475013641
  0.0000000000000000  0.0000000000000000  6.1683752950027273
  3.0841876475013641  3.0841876475013641  9.2525629425040918
  3.0841876475013641  3.0841876475013641  6.1683752950027273
  3.0841876475013641  0.0000000000000000  9.2525629425040918
  0.0000000000000000  3.0841876475013641  9.2525629425040918
  0.0000000000000000  6.1683752950027273  0.0000000000000000
  3.0841876475013641  9.2525629425040918  3.0841876475013641
  3.0841876475013641  9.2525629425040918  0.0000000000000000
  3.0841876475013641  6.1683752950027273  3.0841876475013641
  0.0000000000000000  9.2525629425040918  3.0841876475013641
  0.0000000000000000  6.1683752950027273  6.1683752950027273
  3.0841876475013641  9.2525629425040918  9.2525629425040918
  3.0841876475013641  9.2525629425040918  6.1683752950027273
  3.0841876475013641  6.1683752950027273  9.2525629425040918
  0.0000000000000000  9.2525629425040918  9.2525629425040918
  6.1683752950027273  0.0000000000000000  0.0000000000000000
  9.2525629425040918  3.0841876475013641  3.0841876475013641
  9.2525629425040918  3.0841876475013641  0.0000000000000000
  9.2525629425040918  0.0000000000000000  3.0841876475013641
  6.1683752950027273  3.0841876475013641  3.0841876475013641
  6.1683752950027273  0.0000000000000000  6.1683752950027273
  9.2525629425040918  3.0841876475013641  9.2525629425040918
  9.2525629425040918  3.0841876475013641  6.1683752950027273
  9.2525629425040918  0.0000000000000000  9.2525629425040918
  6.1683752950027273  3.0841876475013641  9.2525629425040918
  6.1683752950027273  6.1683752950027273  0.0000000000000000
  9.2525629425040918  9.2525629425040918  3.0841876475013641
  9.2525629425040918  9.2525629425040918  0.0000000000000000
  9.2525629425040918  6.1683752950027273  3.0841876475013641
  6.1683752950027273  9.2525629425040918  3.0841876475013641
  6.1683752950027273  6.1683752950027273  6.1683752950027273
  9.2525629425040918  9.2525629425040918  9.2525629425040918
  9.2525629425040918  9.2525629425040918  6.1683752950027273
  9.2525629425040918  6.1683752950027273  9.2525629425040918
  6.1683752950027273  9.2525629425040918  9.2525629425040918
