Rb Pb I  Rb Pb I  Rb Pb I  Rb Ge I  Rb Pb I  Rb Pb I  Rb Ge I  Rb Pb I 
 1.0000000000000000
    13.1379025730898142    0.0000000000000000    0.0000000000000000
     0.0000000000000000   13.1379025730898142    0.0000000000000000
     0.0000000000000000    0.0000000000000000   13.1379025730898142
 Rb  Pb  I   Rb  Pb  I   Rb  Pb  I   Rb  Ge  I   Rb  Pb  I   Rb  Pb  I   Rb  Ge  I   Rb  Pb  I  
   1   1   3   1   1   3   1   1   3   1   1   3   1   1   3   1   1   3   1   1   3   1   1   3
Cartesian
  0.0000000000000000  0.0000000000000000  0.0000000000000000
  3.2844756432724536  3.2844756432724536  3.2844756432724536
  3.2844756432724536  3.2844756432724536  0.0000000000000000
  3.2844756432724536  0.0000000000000000  3.2844756432724536
  0.0000000000000000  3.2844756432724536  3.2844756432724536
  0.0000000000000000  0.0000000000000000  6.5689512865449062
  3.2844756432724536  3.2844756432724536  9.8534269298173598
  3.2844756432724536  3.2844756432724536  6.5689512865449062
  3.2844756432724536  0.0000000000000000  9.8534269298173598
  0.0000000000000000  3.2844756432724536  9.8534269298173598
  0.0000000000000000  6.5689512865449062  0.0000000000000000
  3.2844756432724536  9.8534269298173598  3.2844756432724536
  3.2844756432724536  9.8534269298173598  0.0000000000000000
  3.2844756432724536  6.5689512865449062  3.2844756432724536
  0.0000000000000000  9.8534269298173598  3.2844756432724536
  0.0000000000000000  6.5689512865449062  6.5689512865449062
  3.2844756432724536  9.8534269298173598  9.8534269298173598
  3.2844756432724536  9.8534269298173598  6.5689512865449062
  3.2844756432724536  6.5689512865449062  9.8534269298173598
  0.0000000000000000  9.8534269298173598  9.8534269298173598
  6.5689512865449062  0.0000000000000000  0.0000000000000000
  9.8534269298173598  3.2844756432724536  3.2844756432724536
  9.8534269298173598  3.2844756432724536  0.0000000000000000
  9.8534269298173598  0.0000000000000000  3.2844756432724536
  6.5689512865449062  3.2844756432724536  3.2844756432724536
  6.5689512865449062  0.0000000000000000  6.5689512865449062
  9.8534269298173598  3.2844756432724536  9.8534269298173598
  9.8534269298173598  3.2844756432724536  6.5689512865449062
  9.8534269298173598  0.0000000000000000  9.8534269298173598
  6.5689512865449062  3.2844756432724536  9.8534269298173598
  6.5689512865449062  6.5689512865449062  0.0000000000000000
  9.8534269298173598  9.8534269298173598  3.2844756432724536
  9.8534269298173598  9.8534269298173598  0.0000000000000000
  9.8534269298173598  6.5689512865449062  3.2844756432724536
  6.5689512865449062  9.8534269298173598  3.2844756432724536
  6.5689512865449062  6.5689512865449062  6.5689512865449062
  9.8534269298173598  9.8534269298173598  9.8534269298173598
  9.8534269298173598  9.8534269298173598  6.5689512865449062
  9.8534269298173598  6.5689512865449062  9.8534269298173598
  6.5689512865449062  9.8534269298173598  9.8534269298173598
