Cs Pb I  Cs Pb I  Cs Pb Cl I  Cs Pb I  Cl I  Cs Pb I  Cl Cs Pb I  Cs Pb I  Cl I  Cs Pb I 
 1.0000000000000000
    13.2970015988567880    0.0000000000000000    0.0000000000000000
     0.0000000000000000   13.2970015988567880    0.0000000000000000
     0.0000000000000000    0.0000000000000000   13.2970015988567880
 Cs  Pb  I   Cs  Pb  I   Cs  Pb  Cl  I   Cs  Pb  I   Cl  I   Cs  Pb  I   Cl  Cs  Pb  I   Cs  Pb  I   Cl  I   Cs  Pb  I  
   1   1   3   1   1   3   1   1   1   2   1   1   1   1   1   1   1   2   1   1   1   3   1   1   1   1   1   1   1   3
Cartesian
  0.0000000000000000  0.0000000000000000  0.0000000000000000
  3.3242503997141970  3.3242503997141970  3.3242503997141970
  3.3242503997141970  3.3242503997141970  0.0000000000000000
  3.3242503997141970  0.0000000000000000  3.3242503997141970
  0.0000000000000000  3.3242503997141970  3.3242503997141970
  0.0000000000000000  0.0000000000000000  6.6485007994283931
  3.3242503997141970  3.3242503997141970  9.9727511991425910
  3.3242503997141970  3.3242503997141970  6.6485007994283931
  3.3242503997141970  0.0000000000000000  9.9727511991425910
  0.0000000000000000  3.3242503997141970  9.9727511991425910
  0.0000000000000000  6.6485007994283931  0.0000000000000000
  3.3242503997141970  9.9727511991425910  3.3242503997141970
  3.3242503997141970  9.9727511991425910  0.0000000000000000
  3.3242503997141970  6.6485007994283931  3.3242503997141970
  0.0000000000000000  9.9727511991425910  3.3242503997141970
  0.0000000000000000  6.6485007994283931  6.6485007994283931
  3.3242503997141970  9.9727511991425910  9.9727511991425910
  3.3242503997141970  9.9727511991425910  6.6485007994283931
  3.3242503997141970  6.6485007994283931  9.9727511991425910
  0.0000000000000000  9.9727511991425910  9.9727511991425910
  6.6485007994283931  0.0000000000000000  0.0000000000000000
  9.9727511991425910  3.3242503997141970  3.3242503997141970
  9.9727511991425910  3.3242503997141970  0.0000000000000000
  9.9727511991425910  0.0000000000000000  3.3242503997141970
  6.6485007994283931  3.3242503997141970  3.3242503997141970
  6.6485007994283931  0.0000000000000000  6.6485007994283931
  9.9727511991425910  3.3242503997141970  9.9727511991425910
  9.9727511991425910  3.3242503997141970  6.6485007994283931
  9.9727511991425910  0.0000000000000000  9.9727511991425910
  6.6485007994283931  3.3242503997141970  9.9727511991425910
  6.6485007994283931  6.6485007994283931  0.0000000000000000
  9.9727511991425910  9.9727511991425910  3.3242503997141970
  9.9727511991425910  9.9727511991425910  0.0000000000000000
  9.9727511991425910  6.6485007994283931  3.3242503997141970
  6.6485007994283931  9.9727511991425910  3.3242503997141970
  6.6485007994283931  6.6485007994283931  6.6485007994283931
  9.9727511991425910  9.9727511991425910  9.9727511991425910
  9.9727511991425910  9.9727511991425910  6.6485007994283931
  9.9727511991425910  6.6485007994283931  9.9727511991425910
  6.6485007994283931  9.9727511991425910  9.9727511991425910
