Cs Pb I  Cs Pb I  Cs Ge I  Cs Ge I  Cs Ge I  Cs Pb I  Cs Ge I  Cs Ge I 
 1.0000000000000000
    12.4477663546517441    0.0000000000000000    0.0000000000000000
     0.0000000000000000   12.4477663546517441    0.0000000000000000
     0.0000000000000000    0.0000000000000000   12.4477663546517441
 Cs  Pb  I   Cs  Pb  I   Cs  Ge  I   Cs  Ge  I   Cs  Ge  I   Cs  Pb  I   Cs  Ge  I   Cs  Ge  I  
   1   1   3   1   1   3   1   1   3   1   1   3   1   1   3   1   1   3   1   1   3   1   1   3
Cartesian
  0.0000000000000000  0.0000000000000000  0.0000000000000000
  3.1119415886629351  3.1119415886629351  3.1119415886629351
  3.1119415886629351  3.1119415886629351  0.0000000000000000
  3.1119415886629351  0.0000000000000000  3.1119415886629351
  0.0000000000000000  3.1119415886629351  3.1119415886629351
  0.0000000000000000  0.0000000000000000  6.2238831773258712
  3.1119415886629351  3.1119415886629351  9.3358247659888072
  3.1119415886629351  3.1119415886629351  6.2238831773258712
  3.1119415886629351  0.0000000000000000  9.3358247659888072
  0.0000000000000000  3.1119415886629351  9.3358247659888072
  0.0000000000000000  6.2238831773258712  0.0000000000000000
  3.1119415886629351  9.3358247659888072  3.1119415886629351
  3.1119415886629351  9.3358247659888072  0.0000000000000000
  3.1119415886629351  6.2238831773258712  3.1119415886629351
  0.0000000000000000  9.3358247659888072  3.1119415886629351
  0.0000000000000000  6.2238831773258712  6.2238831773258712
  3.1119415886629351  9.3358247659888072  9.3358247659888072
  3.1119415886629351  9.3358247659888072  6.2238831773258712
  3.1119415886629351  6.2238831773258712  9.3358247659888072
  0.0000000000000000  9.3358247659888072  9.3358247659888072
  6.2238831773258712  0.0000000000000000  0.0000000000000000
  9.3358247659888072  3.1119415886629351  3.1119415886629351
  9.3358247659888072  3.1119415886629351  0.0000000000000000
  9.3358247659888072  0.0000000000000000  3.1119415886629351
  6.2238831773258712  3.1119415886629351  3.1119415886629351
  6.2238831773258712  0.0000000000000000  6.2238831773258712
  9.3358247659888072  3.1119415886629351  9.3358247659888072
  9.3358247659888072  3.1119415886629351  6.2238831773258712
  9.3358247659888072  0.0000000000000000  9.3358247659888072
  6.2238831773258712  3.1119415886629351  9.3358247659888072
  6.2238831773258712  6.2238831773258712  0.0000000000000000
  9.3358247659888072  9.3358247659888072  3.1119415886629351
  9.3358247659888072  9.3358247659888072  0.0000000000000000
  9.3358247659888072  6.2238831773258712  3.1119415886629351
  6.2238831773258712  9.3358247659888072  3.1119415886629351
  6.2238831773258712  6.2238831773258712  6.2238831773258712
  9.3358247659888072  9.3358247659888072  9.3358247659888072
  9.3358247659888072  9.3358247659888072  6.2238831773258712
  9.3358247659888072  6.2238831773258712  9.3358247659888072
  6.2238831773258712  9.3358247659888072  9.3358247659888072
