40
Lattice="11.536238631939906 0.0 0.0 0.000367296485215786 11.536238626092723 0.0 0.0003672964852465183 -0.00036730817965523047 11.536238620245065" Properties=species:S:1:pos:R:3:spacegroup_kinds:I:1:forces:R:3 spacegroup="P 1" unit_cell=conventional occupancy="_JSON {\"0\": {\"Cs\": 1.0}, \"1\": {\"Pb\": 1.0}, \"2\": {\"Br\": 1.0}, \"3\": {\"Cl\": 1.0}, \"4\": {\"Cl\": 1.0}, \"5\": {\"Cs\": 1.0}, \"6\": {\"Pb\": 1.0}, \"7\": {\"Cl\": 1.0}, \"8\": {\"Cl\": 1.0}, \"9\": {\"Cl\": 1.0}, \"10\": {\"Cs\": 1.0}, \"11\": {\"Pb\": 1.0}, \"12\": {\"Cl\": 1.0}, \"13\": {\"Cl\": 1.0}, \"14\": {\"Br\": 1.0}, \"15\": {\"Cs\": 1.0}, \"16\": {\"Pb\": 1.0}, \"17\": {\"Cl\": 1.0}, \"18\": {\"Cl\": 1.0}, \"19\": {\"Cl\": 1.0}, \"20\": {\"Cs\": 1.0}, \"21\": {\"Pb\": 1.0}, \"22\": {\"Cl\": 1.0}, \"23\": {\"Cl\": 1.0}, \"24\": {\"Cl\": 1.0}, \"25\": {\"Cs\": 1.0}, \"26\": {\"Pb\": 1.0}, \"27\": {\"Cl\": 1.0}, \"28\": {\"Br\": 1.0}, \"29\": {\"Cl\": 1.0}, \"30\": {\"Cs\": 1.0}, \"31\": {\"Pb\": 1.0}, \"32\": {\"Cl\": 1.0}, \"33\": {\"Cl\": 1.0}, \"34\": {\"Cl\": 1.0}, \"35\": {\"Cs\": 1.0}, \"36\": {\"Pb\": 1.0}, \"37\": {\"Cl\": 1.0}, \"38\": {\"Cl\": 1.0}, \"39\": {\"Cl\": 1.0}}" candidate_id=a61b787f4522e7de formula=FAPbBr0.12Cl0.883 config_index=0 rattle_stdev=0.0 method=PBE fidelity=phase2_force energy=-139.15629733976496 stress="0.0015253297719862375 -2.6101619184498226e-05 -2.6102450260486212e-05 -2.6101619184498226e-05 0.0015253314340588498 2.6103281336476844e-05 -2.6102450260486212e-05 2.6103281336476844e-05 0.0015253330962902547" pbc="T T T"
Cs       0.00000000       0.00000000       0.00000000        0       0.00000000      -0.00000000       0.00000000
Pb       2.89571903       2.89087058       2.95909029        1      -0.00041891      -0.01088312       0.01009231
Br       2.87815485       2.87806322       0.00000000        2      -0.00919950      -0.00919921       0.00000000
Cl       2.96566373      -0.00009442       2.96556931        3      -0.00588025       0.00000019      -0.00588006
Cl       0.00355096       2.87799890       2.96634201        4      -0.03610850      -0.01126800      -0.00569096
Cs       0.03276670       0.03239836       5.76811931        5       0.01857564       0.01857505       0.00000000
Pb       2.89133007       2.89525967       8.57714833        6      -0.01088313      -0.00041856      -0.01009231
Cl       2.87750066       2.87704175       5.76811931        7      -0.01212294      -0.01212256       0.00000000
Cl       2.87836631       0.00309202       8.56989661        8      -0.01126915      -0.03610814       0.00569096
Cl      11.53660593       2.96529643       8.57066931        9       0.00000000      -0.00588025       0.00588006
Cs      11.50420652       5.76775304      11.50365660       10      -0.01857564       0.00000059      -0.01857505
Pb       2.95945774       8.64518164       2.89553277       11       0.01009264       0.01088281      -0.00041888
Cl       2.96661778       8.65814517       0.00336488       12      -0.00569175       0.01126933      -0.03610796
Cl       2.96683282       5.76802486       2.96655472       13      -0.00403307       0.00000013      -0.00403294
Br       0.00036730       8.65808377       2.87806322       14      -0.00000000       0.00919950      -0.00919921
Cs       0.00036730       5.73827031       5.79778372       15       0.00000000      -0.01383320       0.01383276
Pb       2.89332596       8.64318785       8.64346305       16       0.00278891      -0.00278900      -0.00278909
Cl       2.96737180       8.65762309       5.76509401       17      -0.00513307       0.01067052       0.03884300
Cl       2.87888837       5.76482117       8.56932603       18      -0.01067035       0.03884284       0.00513465
Cl      11.53342227       8.56962095       8.65814527       19       0.03610850       0.00569060       0.01126818
Cs       5.76848661      11.50365557       0.03258202       20       0.00000000      -0.01857564       0.01857505
Pb       8.64364726       2.89268347       2.89277557       21      -0.00278891       0.00278900       0.00278909
Cl       8.65860691       2.96597481      11.53287374       22       0.01126915      -0.00569211       0.03610796
Cl       8.57035545      11.53278211       2.87809335       23       0.00569175       0.03610832      -0.01126818
Cl       5.76528012       2.87833752       2.96691259       24       0.03884250      -0.01067159      -0.00513465
Cs       5.73863761      -0.00018271       5.73845490       25      -0.01383320       0.00000044      -0.01383276
Pb       8.64564315       2.95881518       8.64070585       26       0.01088313       0.01009229       0.00041888
Cl       8.65808486       2.96672884       5.77114461       27       0.01067035      -0.00513341      -0.03884300
Br       8.65845108      -0.00027567       8.65817540       28       0.00919950      -0.00000029       0.00919921
Cl       5.76848661       2.96628186       8.56968390       29       0.00000000      -0.00403307       0.00403294
Cs       5.79796832       5.79778372       0.00000000       30       0.01383320       0.01383276       0.00000000
Pb       8.57751549       8.64061381       2.89096480       31      -0.01009264       0.00041923      -0.01088279
Cl       8.57130949       8.57030201      11.53623862       32       0.00588025       0.00588006       0.00000000
Cl       8.56960143       5.77105297       2.87843198       33       0.00513307      -0.03884266      -0.01067175
Cl       5.76848661       8.65892161       2.87722540       34      -0.00000000       0.01212294      -0.01212256
Cs       5.76848661       5.76793566       5.76811931       35       0.00000000      -0.00000000       0.00000000
Pb       8.64125420       8.57687307       8.64527382       36       0.00041891      -0.01009265       0.01088279
Cl       8.57014041       8.56950025       5.76811931       37       0.00403307       0.00403294       0.00000000
Cl       8.65947256       5.76784361       8.65901322       38       0.01212294      -0.00000039       0.01212256
Cl       5.77169310       8.56905037       8.65780664       39      -0.03884250       0.00513431       0.01067175
40
Lattice="11.536238631939906 0.0 0.0 0.000367296485215786 11.536238626092723 0.0 0.0003672964852465183 -0.00036730817965523047 11.536238620245065" Properties=species:S:1:pos:R:3:spacegroup_kinds:I:1:forces:R:3 spacegroup="P 1" unit_cell=conventional occupancy="_JSON {\"0\": {\"Cs\": 1.0}, \"1\": {\"Pb\": 1.0}, \"2\": {\"Br\": 1.0}, \"3\": {\"Cl\": 1.0}, \"4\": {\"Cl\": 1.0}, \"5\": {\"Cs\": 1.0}, \"6\": {\"Pb\": 1.0}, \"7\": {\"Cl\": 1.0}, \"8\": {\"Cl\": 1.0}, \"9\": {\"Cl\": 1.0}, \"10\": {\"Cs\": 1.0}, \"11\": {\"Pb\": 1.0}, \"12\": {\"Cl\": 1.0}, \"13\": {\"Cl\": 1.0}, \"14\": {\"Br\": 1.0}, \"15\": {\"Cs\": 1.0}, \"16\": {\"Pb\": 1.0}, \"17\": {\"Cl\": 1.0}, \"18\": {\"Cl\": 1.0}, \"19\": {\"Cl\": 1.0}, \"20\": {\"Cs\": 1.0}, \"21\": {\"Pb\": 1.0}, \"22\": {\"Cl\": 1.0}, \"23\": {\"Cl\": 1.0}, \"24\": {\"Cl\": 1.0}, \"25\": {\"Cs\": 1.0}, \"26\": {\"Pb\": 1.0}, \"27\": {\"Cl\": 1.0}, \"28\": {\"Br\": 1.0}, \"29\": {\"Cl\": 1.0}, \"30\": {\"Cs\": 1.0}, \"31\": {\"Pb\": 1.0}, \"32\": {\"Cl\": 1.0}, \"33\": {\"Cl\": 1.0}, \"34\": {\"Cl\": 1.0}, \"35\": {\"Cs\": 1.0}, \"36\": {\"Pb\": 1.0}, \"37\": {\"Cl\": 1.0}, \"38\": {\"Cl\": 1.0}, \"39\": {\"Cl\": 1.0}}" candidate_id=a61b787f4522e7de formula=FAPbBr0.12Cl0.883 config_index=1 rattle_stdev=0.08 method=PBE fidelity=phase2_force energy=-138.41759013255214 stress="-0.0010536421527130048 7.529379700051626e-05 -2.875386642489715e-05 7.529379700051626e-05 0.00025912686011748015 -7.922097509034509e-05 -2.875386642489715e-05 -7.922097509034509e-05 -0.0016411259706744857" pbc="T T T"
Cs      -0.08691571      -0.07168521      -0.02450395        0      -0.04330006       0.04342161       0.04093749
Pb       2.78852433       2.79434374       2.90775215        1       0.33671908       0.31387728       0.37558341
Br       2.98279050       3.02570005       0.06632920        2      -0.09517563      -0.06223629      -0.08717627
Cl       2.96379983      -0.01677954       2.89223973        3      -0.04238992       0.02536049      -0.02451250
Cl      -0.08242845       2.87110742       3.06040909        4       0.49937455      -0.03187040       0.01941943
Cs      -0.09804063       0.13065388       5.85423021        5       0.09512391       0.07214732      -0.07477277
Pb       2.92291190       2.86424361       8.62422047        6       0.07264993       0.03047891      -0.10001791
Cl       2.76283676       2.85115578       5.86835809        7       0.01987464       0.00814731      -0.26955365
Cl       2.81990690       0.11737082       8.64546893        8      -0.02444714      -0.52166217      -0.02422065
Cl      11.51548571       2.95223936       8.49354073        9       0.09958625      -0.00421456       0.00842440
Cs      11.47679473       5.77166537      11.46368604       10      -0.03087184      -0.03744873       0.01763471
Pb       2.78250538       8.66996858       2.76836066       11       1.28373364      -0.27945213      -0.08488199
Cl       3.02497415       8.64951307      -0.04864884       12      -0.08878404       0.02634969      -0.07804780
Cl       2.83138830       5.73854694       2.83932498       13      -0.04349483      -0.00350441       0.06021567
Br       0.11880776       8.69603899       2.95117232       14      -1.24769019       0.02847267       0.06569263
Cs       0.07720492       5.74503371       5.93516219       15       0.03108598      -0.06852576      -0.04629748
Pb       2.96147738       8.58279702       8.46045270       16       0.25411051       0.12260956       0.45574780
Cl       2.97611090       8.62161044       5.73205621       17      -0.02822070      -0.01984131      -0.06539812
Cl       2.90440707       5.72153253       8.64521935       18      -0.03983766       0.42727655      -0.08773390
Cl      11.54553707       8.57577314       8.65339324       19       0.39196614       0.01365697      -0.06988259
Cs       5.76287552      11.45836365       0.05746245       20       0.03049717       0.00430636       0.05357750
Pb       8.70158397       2.93399947       2.97485803       21      -0.50195417      -0.23842593      -0.61595285
Cl       8.70021912       2.89638772      11.65291895       22       0.09889484       0.02806994      -0.37133891
Cl       8.66367322      11.57213527       2.81951237       23       0.01744445      -0.14262818       0.08717362
Cl       5.81970461       2.91905726       2.89990970       24      -0.34873058      -0.02871470       0.07454855
Cs       5.79044920       0.00082045       5.86322203       25      -0.05824325       0.00543272      -0.08182942
Pb       8.72841078       2.98583059       8.53649702       26      -0.26583987       0.33924233       0.41638231
Cl       8.56860131       3.07149005       5.72968725       27       0.02583375      -0.03614372       0.46046330
Br       8.62700113       0.08316181       8.66415262       28       0.04249035      -0.19595893      -0.05522780
Cl       5.77564158       2.97059445       8.60315966       29      -0.00951845      -0.02242402      -0.05462126
Cs       5.69974991       5.71062040       0.02536995       30       0.05285493       0.01711502       0.03313870
Pb       8.51508304       8.57212333       2.78537508       31      -0.09159108       0.26260133       0.19609873
Cl       8.60761203       8.65044399      11.64933739       32       0.03408407       0.01126259      -0.25383933
Cl       8.55438679       5.77346181       2.72855864       33       0.04084081       0.11469190       0.00517144
Cl       5.75914446       8.64872239       2.94940015       34       0.20183907       0.00115224      -0.01642914
Cs       5.66333684       5.75997160       5.77936330       35       0.01425615      -0.02111625      -0.03980200
Pb       8.85155868       8.71733538       8.43442200       36      -0.66864493      -0.46877813       1.04759646
Cl       8.46720885       8.55576248       5.91215561       37       0.03698019       0.03107426      -0.90362286
Cl       8.70816821       5.77036566       8.54170024       38       0.07675417       0.24157602       0.02529861
Cl       5.79644837       8.66042780       8.61693911       39      -0.13559851       0.01355895      -0.03884499
40
Lattice="11.536238631939906 0.0 0.0 0.000367296485215786 11.536238626092723 0.0 0.0003672964852465183 -0.00036730817965523047 11.536238620245065" Properties=species:S:1:pos:R:3:spacegroup_kinds:I:1:forces:R:3 spacegroup="P 1" unit_cell=conventional occupancy="_JSON {\"0\": {\"Cs\": 1.0}, \"1\": {\"Pb\": 1.0}, \"2\": {\"Br\": 1.0}, \"3\": {\"Cl\": 1.0}, \"4\": {\"Cl\": 1.0}, \"5\": {\"Cs\": 1.0}, \"6\": {\"Pb\": 1.0}, \"7\": {\"Cl\": 1.0}, \"8\": {\"Cl\": 1.0}, \"9\": {\"Cl\": 1.0}, \"10\": {\"Cs\": 1.0}, \"11\": {\"Pb\": 1.0}, \"12\": {\"Cl\": 1.0}, \"13\": {\"Cl\": 1.0}, \"14\": {\"Br\": 1.0}, \"15\": {\"Cs\": 1.0}, \"16\": {\"Pb\": 1.0}, \"17\": {\"Cl\": 1.0}, \"18\": {\"Cl\": 1.0}, \"19\": {\"Cl\": 1.0}, \"20\": {\"Cs\": 1.0}, \"21\": {\"Pb\": 1.0}, \"22\": {\"Cl\": 1.0}, \"23\": {\"Cl\": 1.0}, \"24\": {\"Cl\": 1.0}, \"25\": {\"Cs\": 1.0}, \"26\": {\"Pb\": 1.0}, \"27\": {\"Cl\": 1.0}, \"28\": {\"Br\": 1.0}, \"29\": {\"Cl\": 1.0}, \"30\": {\"Cs\": 1.0}, \"31\": {\"Pb\": 1.0}, \"32\": {\"Cl\": 1.0}, \"33\": {\"Cl\": 1.0}, \"34\": {\"Cl\": 1.0}, \"35\": {\"Cs\": 1.0}, \"36\": {\"Pb\": 1.0}, \"37\": {\"Cl\": 1.0}, \"38\": {\"Cl\": 1.0}, \"39\": {\"Cl\": 1.0}}" candidate_id=a61b787f4522e7de formula=FAPbBr0.12Cl0.883 config_index=2 rattle_stdev=0.08 method=PBE fidelity=phase2_force energy=-138.45927928632057 stress="1.253475723387442e-05 -3.803040624079356e-05 -8.467042679123384e-06 -3.803040624079356e-05 -0.0003533231125022172 -3.734690626878491e-05 -8.467042679123384e-06 -3.734690626878491e-05 0.00036478033853669926" pbc="T T T"
Cs      -0.00901704      -0.08612512       0.14280215        0       0.04579612      -0.00414151      -0.10216804
Pb       2.77916036       2.86476492       2.85829858        1       0.86269189       0.35514441       0.33788801
Br       2.90822417       2.80781143      -0.02799806        2      -0.07732998       0.03026347      -0.09841030
Cl       2.98939655       0.09597853       2.84004969        3      -0.05816977      -0.65575585       0.02643902
Cl       0.15187326       2.91751585       2.95588509        4      -1.02272261      -0.02898078      -0.04916270
Cs       0.00051704      -0.04549462       5.73072197        5      -0.00173574       0.02261903       0.09679338
Pb       2.83389636       2.99297114       8.51497233        6       0.43748729      -0.15130953      -0.00402977
Cl       2.83041861       2.87243224       5.77448570        7      -0.01871728      -0.11040121      -0.15807506
Cl       2.78371023      -0.12080738       8.64287711        8      -0.03320034       0.43815363      -0.01812514
Cl      11.56961959       2.90963491       8.38756756        9      -0.19328398       0.05119734       0.06415221
Cs      11.44122720       5.68547171      11.51112125       10       0.02550833       0.04828584      -0.05826699
Pb       2.91712221       8.70760122       2.87946759       11       0.32805349      -0.29317105       0.14427839
Cl       2.92816909       8.57532420      -0.03685387       12       0.00197172       0.01515569       0.41394831
Cl       3.03002403       5.69402505       3.14335754       13      -0.09137626       0.52839450      -0.12901930
Br      -0.11165160       8.63895598       2.89545047       14       0.76193192       0.01413668       0.02396124
Cs      -0.02782353       5.74514035       5.80631587       15       0.00389440       0.00793213       0.03388286
Pb       2.87756347       8.75094256       8.67107697       16      -0.02774345      -0.53884761      -0.14574149
Cl       3.01198335       8.61000027       5.82372058       17      -0.05756984       0.13686354      -0.37498940
Cl       2.98538858       5.70641853       8.53046556       18      -0.06559945       0.06624731       0.04552939
Cl      11.61957540       8.36199235       8.67149953       19      -0.04593839       0.04717666       0.01536740
Cs       5.85160338      11.35896966       0.09327329       20      -0.05719597       0.05351161      -0.03067437
Pb       8.60363824       2.70514002       2.88414216       21      -0.34347458       0.60038288       0.23929418
Cl       8.53838390       3.00507710      11.48861946       22       0.10111453       0.01036194       0.23848551
Cl       8.65495605      11.46323668       2.87208606       23       0.02371750       0.14010101      -0.04651041
Cl       5.75670772       3.04624328       2.93966956       24       0.45050592      -0.21505333      -0.05330665
Cs       5.69640520      -0.10375206       5.75558283       25       0.02415610       0.01071111       0.02356240
Pb       8.73574472       2.99093805       8.70195268       26      -0.46593215      -0.08724517      -0.37917350
Cl       8.54983466       3.01263752       5.75353364       27       0.09501490      -0.13371548      -0.13651524
Br       8.71006619      -0.08065322       8.81015449       28       0.04387715       0.63513913       0.02555913
Cl       5.78583548       3.00627949       8.51955662       29       0.11982679      -0.05420982       0.03694198
Cs       5.71773758       5.73527890       0.01634222       30      -0.01303809      -0.06026540       0.00710051
Pb       8.62040285       8.55461402       2.71353642       31      -0.64215592      -0.26225619       0.67555347
Cl       8.62306391       8.54451514      11.52243349       32       0.00125969      -0.03424870       0.06423872
Cl       8.38652768       5.76208946       2.95485709       33       0.14174530      -0.12824638      -0.12439112
Cl       5.80486567       8.82387581       2.88222224       34      -0.44431023       0.06732181      -0.08017941
Cs       5.76871401       5.73165135       5.79799791       35       0.01536851      -0.02244964      -0.02043729
Pb       8.57620492       8.56874847       8.68093088       36       0.26773113       0.05095550      -0.51563940
Cl       8.46813012       8.57812680       5.83629826       37       0.08428663       0.09059390      -0.18469392
Cl       8.64692440       5.86294916       8.54123215       38       0.07584047      -0.71390997       0.08224794
Cl       5.84097637       8.49757921       8.61388899       39      -0.24400045       0.07719258       0.11564070
40
Lattice="11.536238631939906 0.0 0.0 0.000367296485215786 11.536238626092723 0.0 0.0003672964852465183 -0.00036730817965523047 11.536238620245065" Properties=species:S:1:pos:R:3:spacegroup_kinds:I:1:forces:R:3 spacegroup="P 1" unit_cell=conventional occupancy="_JSON {\"0\": {\"Cs\": 1.0}, \"1\": {\"Pb\": 1.0}, \"2\": {\"Br\": 1.0}, \"3\": {\"Cl\": 1.0}, \"4\": {\"Cl\": 1.0}, \"5\": {\"Cs\": 1.0}, \"6\": {\"Pb\": 1.0}, \"7\": {\"Cl\": 1.0}, \"8\": {\"Cl\": 1.0}, \"9\": {\"Cl\": 1.0}, \"10\": {\"Cs\": 1.0}, \"11\": {\"Pb\": 1.0}, \"12\": {\"Cl\": 1.0}, \"13\": {\"Cl\": 1.0}, \"14\": {\"Br\": 1.0}, \"15\": {\"Cs\": 1.0}, \"16\": {\"Pb\": 1.0}, \"17\": {\"Cl\": 1.0}, \"18\": {\"Cl\": 1.0}, \"19\": {\"Cl\": 1.0}, \"20\": {\"Cs\": 1.0}, \"21\": {\"Pb\": 1.0}, \"22\": {\"Cl\": 1.0}, \"23\": {\"Cl\": 1.0}, \"24\": {\"Cl\": 1.0}, \"25\": {\"Cs\": 1.0}, \"26\": {\"Pb\": 1.0}, \"27\": {\"Cl\": 1.0}, \"28\": {\"Br\": 1.0}, \"29\": {\"Cl\": 1.0}, \"30\": {\"Cs\": 1.0}, \"31\": {\"Pb\": 1.0}, \"32\": {\"Cl\": 1.0}, \"33\": {\"Cl\": 1.0}, \"34\": {\"Cl\": 1.0}, \"35\": {\"Cs\": 1.0}, \"36\": {\"Pb\": 1.0}, \"37\": {\"Cl\": 1.0}, \"38\": {\"Cl\": 1.0}, \"39\": {\"Cl\": 1.0}}" candidate_id=a61b787f4522e7de formula=FAPbBr0.12Cl0.883 config_index=3 rattle_stdev=0.08 method=PBE fidelity=phase2_force energy=-138.2745403459197 stress="-0.000643884631746844 0.0001082636150297268 2.4489576773470204e-05 0.0001082636150297268 -0.0005513395109010907 0.00011242688084845366 2.4489576773470204e-05 0.00011242688084845366 0.0003529900282010101" pbc="T T T"
Cs      -0.10568348       0.16134023       0.00380516        0       0.02243899       0.10110589       0.04996195
Pb       2.87670533       2.89760040       3.03585367        1      -0.26305460      -0.29164652      -1.00318556
Br       2.82362697       2.92038885      -0.06199346        2       0.03989051      -0.02792448      -0.10361631
Cl       3.07806023      -0.01806886       2.86109845        3       0.00410410      -0.23435724       0.03364147
Cl      -0.05073186       2.74832424       2.86394412        4       0.10405118       0.02305913       0.06080882
Cs       0.01482297      -0.03564652       5.70766010        5      -0.04923435       0.04555821      -0.03070445
Pb       2.91238374       2.69084423       8.44352565        6       0.00180557       0.60243998       0.70400800
Cl       2.82056185       2.68129970       5.66598452        7      -0.04248378      -0.07833263       0.49946421
Cl       2.93145611      -0.09921470       8.50666384        8      -0.00038610       0.46864474      -0.02415152
Cl      11.41641626       2.87013323       8.75200452        9       0.47048781      -0.00581147      -0.06088676
Cs      11.46606429       5.83948616      11.35926154       10       0.01535619      -0.12583224      -0.03031311
Pb       2.92016057       8.54922191       2.83111514       11       0.13255424       0.36542731       0.03469469
Cl       3.07908327       8.63971992      -0.05373084       12      -0.04461428      -0.04445264       0.53100671
Cl       2.95382581       5.71371447       3.08768413       13      -0.02438695       0.29557109       0.02232649
Br      -0.13943853       8.71076614       2.85053392       14       1.41092939      -0.04584267      -0.02444511
Cs      -0.06032855       5.75203241       5.74520044       15      -0.04489067      -0.03045404       0.03375747
Pb       2.93754160       8.67379651       8.61375982       16      -0.15869232      -0.65030715       0.09883033
Cl       3.09362332       8.67496689       5.86202134       17      -0.01303899       0.02783797      -0.61449271
Cl       2.93740682       5.81874085       8.52290154       18      -0.03104394      -0.29647727      -0.06380684
Cl      11.52547510       8.44283176       8.65216796       19      -0.17032951       0.02939913       0.01861645
Cs       5.86439132      11.48242175      -0.01956195       20      -0.06459601       0.00795334       0.02028125
Pb       8.49192433       2.76945955       2.86134971       21       0.50707147       0.41301551       0.01497824
Cl       8.62544845       3.02286023      11.58427577       22      -0.05302554      -0.07239414      -0.11003503
Cl       8.76214235      11.51919952       2.79702265       23      -0.11026796      -0.26860186      -0.00961264
Cl       5.72979563       2.94601569       3.00646131       24      -0.16621445      -0.05625228       0.04944093
Cs       5.76092867       0.04158457       5.76386424       25       0.00628804      -0.05625051      -0.01370180
Pb       8.66381406       2.92758794       8.58326445       26      -0.14671771      -0.01076369       0.09707508
Cl       8.78161375       2.89769324       5.74243841       27      -0.01339870      -0.01677883       0.04249334
Br       8.66515522       0.13406209       8.56382843       28      -0.01494269      -1.24177190       0.07342245
Cl       5.73658844       2.93241072       8.61443085       29      -0.29339475      -0.10048020      -0.09864399
Cs       5.75178874       5.80348351       0.06937641       30       0.00848998      -0.05650907      -0.05246473
Pb       8.61070820       8.62251503       2.95141225       31      -0.09810520      -0.26596006       0.19042237
Cl       8.58931988       8.53512176      11.58856496       32       0.02929306       0.00449281       0.03307696
Cl       8.49791156       5.65709707       3.01783071       33       0.05827186       0.23069033      -0.00532574
Cl       6.00203266       8.60502359       2.81554346       34      -1.39190719       0.03019807      -0.04189071
Cs       5.85292600       5.85959270       5.77776916       35       0.00903234       0.00807015       0.03333493
Pb       8.64225367       8.52091135       8.79537775       36       0.04046907       0.05207188      -0.35513547
Cl       8.53408774       8.54500151       5.88113866       37       0.02250938       0.01428406      -0.03775471
Cl       8.60718528       5.58651829       8.70744137       38       0.00699751       1.22037094       0.02022717
Cl       5.72974766       8.58564955       8.74551881       39       0.28447008       0.03327396       0.02114533
