40
Lattice="12.054804165039178 0.0 0.0 0.0 12.054804165039192 0.0 0.0 -3.405901110081875e-14 12.054804165039256" Properties=species:S:1:pos:R:3:spacegroup_kinds:I:1:forces:R:3 spacegroup="P 1" unit_cell=conventional candidate_id=d8c1e980e3106083 formula=FA0.88Rb0.12PbBr3 config_index=0 rattle_stdev=0.0 method=PBE fidelity=phase2_force energy=-127.63495781816822 stress="0.00223242567559419 0.0 0.0 0.0 0.0022324256755941844 6.307378355205984e-18 0.0 6.307378355205984e-18 0.002232425675591319" pbc="T T T"
Cs       0.00000000       0.00000000       0.00000000        0       0.00000000       0.00000000       0.00000000
Pb       3.01916750       3.01916750       3.00823458        1       0.00305609       0.00305609      -0.00305609
Br       3.04588074       3.04588074       0.00000000        2      -0.00723273      -0.00723273       0.00000000
Br       3.02630951       0.00000000       3.00109257        3       0.00036205       0.00000000      -0.00036205
Br       0.00000000       3.02630951       3.00109257        4       0.00000000       0.00036205      -0.00036205
Cs       0.00000000      -0.00000000       6.02740208        5       0.00000000       0.00000000       0.00000000
Pb       3.01916750       3.01916750       9.04656958        6       0.00305609       0.00305609       0.00305609
Br       3.02630951       3.02630951       6.02740208        7       0.00036205       0.00036205       0.00000000
Br       3.02630951      -0.00000000       9.05371160        8       0.00036205      -0.00000000       0.00036205
Br       0.00000000       3.02630951       9.05371160        9      -0.00000000       0.00036205       0.00036205
Cs       0.00000000       6.02740208       0.00000000       10      -0.00000000       0.00000000       0.00000000
Pb       3.01916750       9.03563666       3.00823458       11       0.00305609      -0.00305609      -0.00305609
Br       3.04588074       9.00892342       0.00000000       12      -0.00723273       0.00723273       0.00000000
Br       3.04588074       6.02740208       2.98152134       13      -0.00723273      -0.00000000       0.00723273
Br       0.00000000       9.02849465       3.00109257       14       0.00000000      -0.00036205      -0.00036205
Cs       0.00000000       6.02740208       6.02740208       15      -0.00000000      -0.00000000       0.00000000
Pb       3.01916750       9.03563666       9.04656958       16       0.00305609      -0.00305609       0.00305609
Br       3.02630951       9.02849465       6.02740208       17       0.00036205      -0.00036205       0.00000000
Br       3.04588074       6.02740208       9.07328282       18      -0.00723273       0.00000000      -0.00723273
Br       0.00000000       9.02849465       9.05371160       19       0.00000000      -0.00036205       0.00036205
Cs       6.02740208       0.00000000       0.00000000       20      -0.00000000       0.00000000       0.00000000
Pb       9.03563666       3.01916750       3.00823458       21      -0.00305609       0.00305609      -0.00305609
Br       9.00892342       3.04588074       0.00000000       22       0.00723273      -0.00723273       0.00000000
Br       9.02849465       0.00000000       3.00109257       23      -0.00036205       0.00000000      -0.00036205
Br       6.02740208       3.04588074       2.98152134       24       0.00000000      -0.00723273       0.00723273
Cs       6.02740208      -0.00000000       6.02740208       25       0.00000000      -0.00000000       0.00000000
Pb       9.03563666       3.01916750       9.04656958       26      -0.00305609       0.00305609       0.00305609
Br       9.02849465       3.02630951       6.02740208       27      -0.00036205       0.00036205       0.00000000
Br       9.02849465      -0.00000000       9.05371160       28      -0.00036205      -0.00000000       0.00036205
Br       6.02740208       3.04588074       9.07328282       29       0.00000000      -0.00723273      -0.00723273
Rb       6.02740208       6.02740208      12.05480417       30       0.00000000       0.00000000       0.00000000
Pb       9.03563666       9.03563666       3.00823458       31      -0.00305609      -0.00305609      -0.00305609
Br       9.00892342       9.00892342       0.00000000       32       0.00723273       0.00723273       0.00000000
Br       9.00892342       6.02740208       2.98152134       33       0.00723273      -0.00000000       0.00723273
Br       6.02740208       9.00892342       2.98152134       34      -0.00000000       0.00723273       0.00723273
Cs       6.02740208       6.02740208       6.02740208       35       0.00000000       0.00000000       0.00000000
Pb       9.03563666       9.03563666       9.04656958       36      -0.00305609      -0.00305609       0.00305609
Br       9.02849465       9.02849465       6.02740208       37      -0.00036205      -0.00036205       0.00000000
Br       9.00892342       6.02740208       9.07328282       38       0.00723273       0.00000000      -0.00723273
Br       6.02740208       9.00892342       9.07328282       39       0.00000000       0.00723273      -0.00723273
40
Lattice="12.054804165039178 0.0 0.0 0.0 12.054804165039192 0.0 0.0 -3.405901110081875e-14 12.054804165039256" Properties=species:S:1:pos:R:3:spacegroup_kinds:I:1:forces:R:3 spacegroup="P 1" unit_cell=conventional candidate_id=d8c1e980e3106083 formula=FA0.88Rb0.12PbBr3 config_index=1 rattle_stdev=0.08 method=PBE fidelity=phase2_force energy=-127.02904578891183 stress="0.00021680309916560778 6.774157861768426e-05 2.2554555641934026e-06 6.774157861768426e-05 0.0012063827149293913 -9.973455688524968e-05 2.2554555641934026e-06 -9.973455688524968e-05 -0.0004212532782774881" pbc="T T T"
Cs      -0.08691571      -0.07168521      -0.02450395        0      -0.04279480       0.03598952       0.03733845
Pb       2.91197281       2.92264065       2.95689644        1       0.31124357       0.31503607       0.20863681
Br       3.15051639       3.19351758       0.06632920        2      -0.06817640      -0.05286160      -0.03540970
Br       3.02444561      -0.01668512       2.92776299        3      -0.01869798       0.02521311      -0.02258134
Br      -0.08597941       3.01941803       3.09515965        4       0.50698169      -0.01338526       0.01279614
Cs      -0.13080734       0.09825552       6.11351298        5       0.05034851       0.05215149      -0.05471220
Pb       3.05074933       2.98815144       9.09364172        6       0.08486770       0.04118371      -0.11546107
Br       2.91164561       3.00042354       6.12764086        7       0.03210230       0.01480393      -0.17525168
Br       2.96785011       0.11427881       9.12928391        8      -0.01287596      -0.48233186      -0.00731391
Br      -0.02112022       3.01325245       8.97658301        9       0.08768021       0.00204957       0.00776878
Cs      -0.02741179       6.03131441      -0.03997056       10      -0.00973065      -0.03697458       0.02825440
Pb       2.84221514       9.06042361       2.88106248       11       0.83492098      -0.27190411      -0.06460061
Br       3.10423711       9.00029132      -0.05201372       12      -0.06342262       0.02698074      -0.04630467
Br       2.91043622       5.99792416       2.85429160       13      -0.02353469       0.01586591       0.06931363
Br       0.11844047       9.06644987       3.07420167       14      -0.83628733       0.01229251       0.03361676
Cs       0.07683762       6.03416549       6.16478056       15       0.02455326      -0.05247265      -0.02708622
Pb       3.08731892       8.97524584       8.86355924       16       0.24089084       0.09263885       0.37118933
Br       3.03504861       8.99248200       5.99436429       17      -0.01126630      -0.02428609      -0.08943755
Br       3.07139944       5.98411345       9.14917614       18      -0.02671216       0.37859960      -0.07640758
Br       0.01211480       9.03464685       9.04895956       19       0.32775219       0.01315735      -0.03633092
Cs       6.02179099      -0.04529192       0.02488043       20       0.02547006       0.02358571       0.03173889
Pb       9.09357337       3.06048350       3.09031704       21      -0.45801963      -0.22011918      -0.51284250
Br       9.05053563       2.97629366       0.12004521       22       0.07398368       0.01482962      -0.40622840
Br       9.12181242       0.03935316       2.94251159       23       0.00569870      -0.15714751       0.09904244
Br       6.08182657       3.08660049       2.91451844       24      -0.34142472      -0.01797229       0.07159565
Cs       6.07921367       0.00100316       6.15216921       25      -0.02874143       0.01072318      -0.03136219
Pb       9.11840429       3.04618291       8.94236075       26      -0.23394227       0.26821816       0.37547270
Br       8.93901111       3.13107072       5.98594472       27      -0.00195929      -0.04080256       0.44827743
Br       8.99704471       0.08343748       9.05968881       28       0.05670045      -0.16964381      -0.08158324
Br       6.03455705       3.05019333       9.10675858       29      -0.00531030      -0.01627147      -0.03781139
Rb       5.92918368       5.94023876      12.08017412       30      -0.01860248      -0.04751531       0.04702218
Pb       8.97320422       8.96714618       2.90264487       31      -0.16703245       0.23128578       0.20164095
Br       9.04522596       9.08906541       0.11309877       32       0.03628463       0.01034454      -0.29120138
Br       8.99370879       6.02981093       2.83164801       33       0.03844448       0.13246335       0.00749662
Br       6.01805993       8.99872420       3.05369608       34       0.22779083       0.00397797       0.00357991
Cs       5.92225231       6.01943802       6.03864607       35       0.00395723      -0.02163493      -0.02420683
Pb       9.24594114       9.17609897       8.83571776       36      -0.58622763      -0.29605512       0.94231898
Br       8.92556309       9.01475688       6.17143838       37       0.02424820       0.03073623      -0.85731791
Br       9.05761907       6.02992413       8.95596985       38       0.05933673       0.14804750       0.01602273
Br       6.05215734       9.10030085       9.03241529       39      -0.09494397       0.01406451      -0.03384719
40
Lattice="12.054804165039178 0.0 0.0 0.0 12.054804165039192 0.0 0.0 -3.405901110081875e-14 12.054804165039256" Properties=species:S:1:pos:R:3:spacegroup_kinds:I:1:forces:R:3 spacegroup="P 1" unit_cell=conventional candidate_id=d8c1e980e3106083 formula=FA0.88Rb0.12PbBr3 config_index=2 rattle_stdev=0.08 method=PBE fidelity=phase2_force energy=-127.06317401117235 stress="0.0008796110068236419 -1.0131159794166018e-05 2.0748797525546707e-05 -1.0131159794166018e-05 0.0006747776594610535 -4.4933286693524496e-05 2.0748797525546707e-05 -4.4933286693524496e-05 0.0012541841302762665" pbc="T T T"
Cs      -0.00901704      -0.08612512       0.14280215        0       0.03079191      -0.01135948      -0.07975697
Pb       2.90260884       2.99306184       2.90744286        1       0.76793694       0.28948305       0.17842017
Br       3.07595006       2.97562895      -0.02799806        2      -0.07495486       0.04819633      -0.03595524
Br       3.05004233       0.09607295       2.87557295        3      -0.03760415      -0.61308133       0.03063211
Br       0.14832230       3.06582646       2.99063565        4      -0.94372725      -0.00092716      -0.03954421
Cs      -0.03224966      -0.07789298       5.99000474        5      -0.01390426      -0.01054400       0.07218399
Pb       2.96173378       3.11687897       8.98439358        6       0.40604120      -0.11986691      -0.03312651
Br       2.97922746       3.02170000       6.03376847        7      -0.00646135      -0.08159590      -0.06284424
Br       2.93165343      -0.12389940       9.12669209        8      -0.00721610       0.47698216      -0.00872310
Br       0.03301366       2.97064799       8.87060984        9      -0.16746514       0.03623789       0.04567458
Cs      -0.06297932       5.94512075       0.00746465       10       0.02977057       0.03241795      -0.03389230
Pb       2.97683197       9.09805625       2.99216941       11       0.25234847      -0.24701993       0.08369808
Br       3.00743205       8.92610245      -0.04021875       12       0.00304053      -0.01927482       0.42694635
Br       3.10907196       5.95340227       3.15832417       13      -0.06314818       0.50183077      -0.07543567
Br      -0.11201889       9.00936686       3.01847982       14       0.56155392       0.01321568       0.00735569
Cs      -0.02819082       6.03427212       6.03593424       15      -0.00008313       0.01491253       0.02664150
Pb       3.00340500       9.14339137       9.07418350       16      -0.03021295      -0.43151586      -0.14262473
Br       3.07092107       8.98087184       6.08602866       17      -0.03709882       0.09749341      -0.36801625
Br       3.15238096       5.96899945       9.03442236       18      -0.04412084       0.02210422       0.03711036
Br       0.08615314       8.82086606       9.06706585       19      -0.10734060       0.01458692      -0.00351314
Cs       6.11051885      -0.14468591       0.06069128       20      -0.03573744       0.04433083      -0.03694851
Pb       8.99562764       2.83162405       2.99960117       21      -0.26296127       0.46647954       0.17079179
Br       8.88870041       3.08498303      -0.04425428       22       0.08998304       0.01716069       0.18359890
Br       9.11309525      -0.06954543       2.99508528       23       0.01982029       0.10320781      -0.02411161
Br       6.01882969       3.21378650       2.95427831       24       0.36490907      -0.16392178      -0.01773335
Cs       5.98516967      -0.10356935       6.04453001       25       0.02193725       0.00254266       0.02819059
Pb       9.12573823       3.05129037       9.10781641       26      -0.40259976      -0.06232130      -0.29010688
Br       8.92024446       3.07221819       6.00979111       27       0.06205773      -0.09750667      -0.09161300
Br       9.08010977      -0.08037754       9.20569068       28       0.02519399       0.45314804       0.01614130
Br       6.04475095       3.08587837       9.02315554       29       0.08065890      -0.05843049      -0.00009000
Rb       5.94717135       5.96489726      12.07114638       30      -0.02800966      -0.07572357       0.00711692
Pb       9.07852402       8.94963687       2.83080620       31      -0.42987414      -0.22429700       0.59993353
Br       9.06067784       8.98313656      -0.01380513       32       0.01723717      -0.02132777       0.04519162
Br       8.82584968       6.01843857       3.05794645       33       0.11929128      -0.08629078      -0.07767748
Br       6.06378114       9.17387762       2.98651818       34      -0.37231384       0.05672935      -0.05094078
Cs       6.02762948       5.99111778       6.05728068       35       0.00978422      -0.02514043      -0.00855648
Pb       8.97058738       9.02751206       9.08222664       36       0.25505385       0.07300539      -0.47314262
Br       8.92648436       9.03712120       6.09558103       37       0.06428911       0.07570653      -0.15582579
Br       8.99637526       6.12250762       8.95550175       38       0.07191998      -0.55300621       0.06347971
Br       6.09668535       8.93745226       9.02936517       39      -0.19188724       0.06418725       0.07734435
40
Lattice="12.054804165039178 0.0 0.0 0.0 12.054804165039192 0.0 0.0 -3.405901110081875e-14 12.054804165039256" Properties=species:S:1:pos:R:3:spacegroup_kinds:I:1:forces:R:3 spacegroup="P 1" unit_cell=conventional candidate_id=d8c1e980e3106083 formula=FA0.88Rb0.12PbBr3 config_index=3 rattle_stdev=0.08 method=PBE fidelity=phase2_force energy=-126.91840615269379 stress="0.0007090714480224019 0.00012750384559288212 2.651255164388129e-05 0.00012750384559288212 0.0006467844711433093 6.0096460643101295e-05 2.651255164388129e-05 6.0096460643101295e-05 0.0013274642903027731" pbc="T T T"
Cs      -0.10568348       0.16134023       0.00380516        0       0.02394266       0.07414404       0.03852399
Pb       3.00015381       3.02589731       3.08499796        1      -0.27424148      -0.31096879      -0.68831080
Br       2.99135286       3.08820637      -0.06199346        2       0.02656342      -0.03221797      -0.09589076
Br       3.13870601      -0.01797444       2.89662171        3       0.01206673      -0.19909013       0.02484443
Br      -0.05428282       2.89663485       2.89869469        4       0.13684639       0.04198696       0.05154058
Cs      -0.01794374      -0.06804488       5.96694287        5      -0.04519799       0.02683893      -0.02445705
Pb       3.04022116       2.81475206       8.91294691        6      -0.00166717       0.51258643       0.52369314
Br       2.96937070       2.83056746       5.92526730        7      -0.02206590      -0.03485992       0.35758667
Br       3.07939932      -0.10230672       8.99047882        8      -0.00702269       0.47091979      -0.00451919
Br      -0.12018966       2.93114632       9.23504681        9       0.43206768       0.00425692      -0.04402333
Cs      -0.03814223       6.09913520      -0.14439506       10       0.02009008      -0.09473832      -0.01955362
Pb       2.97987033       8.93967694       2.94381696       11       0.06486463       0.32184487       0.00385388
Br       3.15834623       8.99049817      -0.05709572       12      -0.03842161      -0.04897278       0.52392915
Br       3.03287374       5.97309169       3.10265076       13      -0.02672011       0.26473736       0.02445982
Br      -0.13980583       9.08117702       2.97356327       14       1.06935339      -0.06137428       0.00677129
Cs      -0.06069585       6.04116419       5.97481880       15      -0.04187974      -0.01341170       0.01053339
Pb       3.06338314       9.06624532       9.01686635       16      -0.16705756      -0.59782791       0.05787375
Br       3.15256103       9.04583845       6.12432941       17      -0.01068192       0.01551990      -0.57620608
Br       3.10439919       6.08132177       9.02685833       18      -0.02890712      -0.29168910      -0.06057227
Br      -0.00794717       8.90170546       9.04773428       19      -0.15433402       0.01428068       0.01364784
Cs       6.12330679      -0.02123382      -0.05214397       20      -0.04136703       0.02285636       0.00964274
Pb       8.88391374       2.89594358       2.97680872       21       0.42228124       0.32300733       0.02307825
Br       8.97576496       3.10276616       0.05140203       22      -0.05139132      -0.05261547      -0.15668209
Br       9.22028156      -0.01358259       2.92002187       23      -0.08429211      -0.27756015       0.00530264
Br       5.99191759       3.11355892       3.02107006       24      -0.18400857      -0.03769686       0.03344423
Cs       6.04969314       0.04176727       6.05281142       25       0.01621166      -0.03313513       0.00510759
Pb       9.05380757       2.98794026       8.98912818       26      -0.12252584      -0.03272777       0.05013560
Br       9.15202355       2.95727390       5.99869588       27      -0.00929375      -0.00970413       0.09439663
Br       9.03519880       0.13433776       8.95936462       28      -0.02626770      -0.88617874       0.06789642
Br       5.99550391       3.01200960       9.11802977       29      -0.24542130      -0.07695654      -0.07887990
Rb       5.98122251       6.03310187      12.12418057       30      -0.00954128      -0.03985577      -0.03654541
Pb       9.06882938       9.01753788       3.06868203       31      -0.12182994      -0.20351536       0.18373024
Br       9.02693381       8.97374318       0.05232634       32       0.03170883       0.00224788       0.02404267
Br       8.93723356       5.91344619       3.12092007       33       0.07055359       0.23608807       0.01880792
Br       6.26094813       8.95502540       2.91983940       34      -1.01796486       0.01516010      -0.00910180
Cs       6.11184147       6.11905912       6.03705193       35       0.02008491       0.01761870       0.02221269
Pb       9.03663614       8.97967495       9.19667351       36       0.04508690      -0.00033252      -0.31909045
Br       8.99244198       9.00399591       6.14042143       37       0.00998876       0.00664588      -0.06738174
Br       8.95663614       5.84607676       9.12171098       38       0.00520015       0.92143508      -0.00150789
Br       5.98545664       9.02552261       9.16099499       39       0.29991731       0.02679335       0.00556609
