Cs Sn I  Cs Sn I  Cs Sn Br I  Cs Sn I  Cs Sn I  Cs Sn I  Cs Sn I  Br I  Cs Sn I 
 1.0000000000000000
    13.4372915842441980    0.0000000000000000    0.0000000000000000
     0.0000000000000000   13.4372915842441980    0.0000000000000000
     0.0000000000000000    0.0000000000000000   13.4372915842441980
 Cs  Sn  I   Cs  Sn  I   Cs  Sn  Br  I   Cs  Sn  I   Cs  Sn  I   Cs  Sn  I   Cs  Sn  I   Br  I   Cs  Sn  I  
   1   1   3   1   1   3   1   1   1   2   1   1   3   1   1   3   1   1   3   1   1   1   1   1   1   1   3
Cartesian
  0.0000000000000000  0.0000000000000000  0.0000000000000000
  3.3593228960610495  3.3593228960610495  3.3593228960610495
  3.3593228960610495  3.3593228960610495  0.0000000000000000
  3.3593228960610495  0.0000000000000000  3.3593228960610495
  0.0000000000000000  3.3593228960610495  3.3593228960610495
  0.0000000000000000  0.0000000000000000  6.7186457921220981
  3.3593228960610495  3.3593228960610495 10.0779686881831481
  3.3593228960610495  3.3593228960610495  6.7186457921220981
  3.3593228960610495  0.0000000000000000 10.0779686881831481
  0.0000000000000000  3.3593228960610495 10.0779686881831481
  0.0000000000000000  6.7186457921220981  0.0000000000000000
  3.3593228960610495 10.0779686881831481  3.3593228960610495
  3.3593228960610495 10.0779686881831481  0.0000000000000000
  3.3593228960610495  6.7186457921220981  3.3593228960610495
  0.0000000000000000 10.0779686881831481  3.3593228960610495
  0.0000000000000000  6.7186457921220981  6.7186457921220981
  3.3593228960610495 10.0779686881831481 10.0779686881831481
  3.3593228960610495 10.0779686881831481  6.7186457921220981
  3.3593228960610495  6.7186457921220981 10.0779686881831481
  0.0000000000000000 10.0779686881831481 10.0779686881831481
  6.7186457921220981  0.0000000000000000  0.0000000000000000
 10.0779686881831481  3.3593228960610495  3.3593228960610495
 10.0779686881831481  3.3593228960610495  0.0000000000000000
 10.0779686881831481  0.0000000000000000  3.3593228960610495
  6.7186457921220981  3.3593228960610495  3.3593228960610495
  6.7186457921220981  0.0000000000000000  6.7186457921220981
 10.0779686881831481  3.3593228960610495 10.0779686881831481
 10.0779686881831481  3.3593228960610495  6.7186457921220981
 10.0779686881831481  0.0000000000000000 10.0779686881831481
  6.7186457921220981  3.3593228960610495 10.0779686881831481
  6.7186457921220981  6.7186457921220981  0.0000000000000000
 10.0779686881831481 10.0779686881831481  3.3593228960610495
 10.0779686881831481 10.0779686881831481  0.0000000000000000
 10.0779686881831481  6.7186457921220981  3.3593228960610495
  6.7186457921220981 10.0779686881831481  3.3593228960610495
  6.7186457921220981  6.7186457921220981  6.7186457921220981
 10.0779686881831481 10.0779686881831481 10.0779686881831481
 10.0779686881831481 10.0779686881831481  6.7186457921220981
 10.0779686881831481  6.7186457921220981 10.0779686881831481
  6.7186457921220981 10.0779686881831481 10.0779686881831481
