40
Lattice="12.417628651594056 0.0 0.0 0.0013595648105773571 12.499001811309501 0.0 5.585693645636734e-05 0.00037545539004558504 12.646442238788932" Properties=species:S:1:pos:R:3:spacegroup_kinds:I:1:forces:R:3 spacegroup="P 1" unit_cell=conventional occupancy="_JSON {\"0\": {\"Cs\": 1.0}, \"1\": {\"Pb\": 1.0}, \"2\": {\"I\": 1.0}, \"3\": {\"I\": 1.0}, \"4\": {\"I\": 1.0}, \"5\": {\"Cs\": 1.0}, \"6\": {\"Pb\": 1.0}, \"7\": {\"I\": 1.0}, \"8\": {\"I\": 1.0}, \"9\": {\"I\": 1.0}, \"10\": {\"Cs\": 1.0}, \"11\": {\"Pb\": 1.0}, \"12\": {\"Br\": 1.0}, \"13\": {\"Br\": 1.0}, \"14\": {\"I\": 1.0}, \"15\": {\"Cs\": 1.0}, \"16\": {\"Pb\": 1.0}, \"17\": {\"I\": 1.0}, \"18\": {\"Br\": 1.0}, \"19\": {\"I\": 1.0}, \"20\": {\"Cs\": 1.0}, \"21\": {\"Pb\": 1.0}, \"22\": {\"I\": 1.0}, \"23\": {\"I\": 1.0}, \"24\": {\"Br\": 1.0}, \"25\": {\"Cs\": 1.0}, \"26\": {\"Pb\": 1.0}, \"27\": {\"I\": 1.0}, \"28\": {\"I\": 1.0}, \"29\": {\"Br\": 1.0}, \"30\": {\"Cs\": 1.0}, \"31\": {\"Pb\": 1.0}, \"32\": {\"I\": 1.0}, \"33\": {\"Br\": 1.0}, \"34\": {\"Br\": 1.0}, \"35\": {\"Cs\": 1.0}, \"36\": {\"Pb\": 1.0}, \"37\": {\"I\": 1.0}, \"38\": {\"I\": 1.0}, \"39\": {\"Br\": 1.0}}" candidate_id=cf8ebf8c2b8aab3f formula=MAPbBr0.33I0.673 config_index=0 rattle_stdev=0.0 method=PBE fidelity=phase2_force energy=-117.97341393551886 stress="0.0006262036835830428 -1.0510610497289389e-05 1.197103887251544e-06 -1.0510610497289389e-05 -6.887512627458242e-07 -9.287506297428902e-07 1.197103887251544e-06 -9.287506297428902e-07 -0.0009958163704128899" pbc="T T T"
Cs       0.04590856      12.45918608       0.01061348        0       0.00699671      -0.01286480      -0.00177344
Pb       3.22966580       3.24419639       3.15533763        1       0.00502607       0.00906103      -0.00469897
I        3.28475626       3.31213224       0.00102733        2      -0.01737924      -0.00045510      -0.00069945
I        3.22722685      12.49294482       3.08654660        3      -0.01509193      -0.00111983       0.00146202
I        0.00527013       3.25224365       3.17315716        4       0.00064446      -0.00338293       0.00213693
Cs       0.01020838      12.49581003       6.31169607        5      -0.01054131       0.00462373       0.00087049
Pb       3.23400365       3.24044256       9.49088336        6       0.02096622      -0.00313851       0.00467222
I        3.27335071       3.27357870       6.32184184        7      -0.01287275      -0.00372231       0.00076101
I        3.25253572      12.49258077       9.56203686        8      -0.01766246      -0.00133383       0.00031196
I        0.00528844       3.16608138       9.47237533        9       0.01698526      -0.00496997      -0.00246009
Cs       0.04849465       6.27293805       0.02302275       10       0.01806720       0.00584762       0.00570925
Pb       3.23353795       9.24720809       3.05026139       11       0.00280219      -0.01553221      -0.00491172
Br       3.19068674       9.28268072       0.00324318       12       0.02277058      -0.02947590      -0.00046578
Br       3.20053762       6.25094940       3.11231518       13       0.02229175       0.01251938      -0.01722349
I        0.00868675       9.23760507       3.08519530       14       0.00283395       0.00582979       0.00024870
Cs       0.04233521       6.25716789       6.29895510       15       0.00463765      -0.00232831      -0.00802600
Pb       3.23741269       9.25513340       9.59543927       16       0.01837110      -0.00621718       0.00542285
I        3.25569402       9.21471820       6.32270317       17      -0.02633884       0.01992502      -0.00007849
Br       3.19292788       6.25045214       9.53336354       18       0.01618030       0.01408213       0.01794553
I        0.00840934       9.31744935       9.56495770       19       0.01854627       0.00590753       0.00184637
Cs       6.18331874      12.47655375       0.01993350       20       0.00092308      -0.00645521      -0.00548563
Pb       9.19289822       3.24375713       3.16022116       21      -0.00490196       0.00207293       0.00595584
I        9.13852340       3.20713854       0.00681258       22       0.00722984      -0.01086552      -0.01269716
I        9.20202867      12.49674497       3.17281550       23       0.01181004      -0.00148714       0.00154874
Br       6.20603909       3.21485490       3.16490133       24       0.00489236       0.02859603       0.00738465
Cs       6.19599305      12.48174976       6.30310435       25       0.00588966       0.00576191       0.00462750
Pb       9.19913501       3.13520678       9.48690719       26      -0.01014652       0.00362981      -0.00523912
I        9.15205272       3.19647299       6.31696405       27       0.00632611      -0.00956559       0.01280704
I        9.19051436      12.49638205       9.47262839       28      -0.00021414       0.00026799      -0.00441941
Br       6.21010326       3.15747843       9.48131949       29      -0.02622433      -0.00019623      -0.00746840
Cs       6.16998698       6.28145821       0.01849509       30      -0.01122586       0.01768093       0.00811702
Pb       9.19946956       9.25345997       3.15567274       31      -0.00067638      -0.00160257      -0.00452640
I        9.14295410       9.29322439       0.00666263       32       0.00162659       0.01485506      -0.01376574
Br       9.23115767       6.25139931       3.16421002       33      -0.02578945      -0.00131977       0.00669708
Br       6.20632590       9.27181944       3.11300785       34      -0.00659567      -0.02948021      -0.01656294
Cs       6.18728170       6.26324795       6.30434487       35       0.00751201      -0.00509206      -0.00971722
Pb       9.20485573       9.36211805       9.49024283       36      -0.00402135      -0.00459341       0.00658845
I        9.18355492       9.30289429       6.31664740       37       0.00874421       0.01029973       0.01335690
I        9.12241244       6.25001147       9.48029603       38      -0.00490927      -0.00188584      -0.00753161
Br       6.21003883       9.33057945       9.53291658       39      -0.03730355      -0.00250018       0.01848891
40
Lattice="12.417628651594056 0.0 0.0 0.0013595648105773571 12.499001811309501 0.0 5.585693645636734e-05 0.00037545539004558504 12.646442238788932" Properties=species:S:1:pos:R:3:spacegroup_kinds:I:1:forces:R:3 spacegroup="P 1" unit_cell=conventional occupancy="_JSON {\"0\": {\"Cs\": 1.0}, \"1\": {\"Pb\": 1.0}, \"2\": {\"I\": 1.0}, \"3\": {\"I\": 1.0}, \"4\": {\"I\": 1.0}, \"5\": {\"Cs\": 1.0}, \"6\": {\"Pb\": 1.0}, \"7\": {\"I\": 1.0}, \"8\": {\"I\": 1.0}, \"9\": {\"I\": 1.0}, \"10\": {\"Cs\": 1.0}, \"11\": {\"Pb\": 1.0}, \"12\": {\"Br\": 1.0}, \"13\": {\"Br\": 1.0}, \"14\": {\"I\": 1.0}, \"15\": {\"Cs\": 1.0}, \"16\": {\"Pb\": 1.0}, \"17\": {\"I\": 1.0}, \"18\": {\"Br\": 1.0}, \"19\": {\"I\": 1.0}, \"20\": {\"Cs\": 1.0}, \"21\": {\"Pb\": 1.0}, \"22\": {\"I\": 1.0}, \"23\": {\"I\": 1.0}, \"24\": {\"Br\": 1.0}, \"25\": {\"Cs\": 1.0}, \"26\": {\"Pb\": 1.0}, \"27\": {\"I\": 1.0}, \"28\": {\"I\": 1.0}, \"29\": {\"Br\": 1.0}, \"30\": {\"Cs\": 1.0}, \"31\": {\"Pb\": 1.0}, \"32\": {\"I\": 1.0}, \"33\": {\"Br\": 1.0}, \"34\": {\"Br\": 1.0}, \"35\": {\"Cs\": 1.0}, \"36\": {\"Pb\": 1.0}, \"37\": {\"I\": 1.0}, \"38\": {\"I\": 1.0}, \"39\": {\"Br\": 1.0}}" candidate_id=cf8ebf8c2b8aab3f formula=MAPbBr0.33I0.673 config_index=1 rattle_stdev=0.08 method=PBE fidelity=phase2_force energy=-117.3571055567269 stress="-0.0008448700346384215 -4.182548420683711e-06 -6.187424778651167e-05 -4.182548420683711e-06 -0.0009377725023230653 -0.00011808840890458971 -6.187424778651167e-05 -0.00011808840890458971 -0.003223711226386466" pbc="T T T"
Cs      -0.04100715      12.38750087      -0.01389047        0      -0.02943721       0.01704590       0.03115825
Pb       3.12247111       3.14766955       3.10399949        1       0.27620484       0.23748787       0.24905619
I        3.38939191       3.45976907       0.06735653        2      -0.12791462      -0.10148386      -0.08733297
I        3.22536295      12.47625971       3.01321702        3      -0.01760988       0.02775578       0.00016491
I       -0.08070928       3.24535217       3.26722424        4       0.46437243      -0.00576268       0.01588068
Cs      -0.12059896      12.59406555       6.39780697        5       0.02349314       0.04608306      -0.04322280
Pb       3.26558547       3.20942649       9.53795550        6       0.09718433      -0.01999041      -0.06633375
I        3.15868681       3.24769273       6.42208061        7       0.01706945       0.00748254      -0.24746265
I        3.19407631      12.60685958       9.63760917        8      -0.03187565      -0.40526159       0.00380435
I       -0.01583179       3.15302431       9.39524675        9       0.11051644       0.00031295       0.01764541
Cs       0.02108286       6.27685038      -0.01694780       10       0.00541244      -0.02696082       0.03360526
Pb       3.05658559       9.27199504       2.92308929       11       0.72682528      -0.24849007      -0.11026246
Br       3.24904311       9.27404862      -0.04877054       12      -0.04094410      -0.00798270       0.00805807
Br       3.06509310       6.22147148       2.98508544       13       0.00812107       0.04251270       0.04706272
I        0.12712722       9.27556029       3.15830441       14      -0.73213998       0.01508572       0.03929747
Cs       0.11917283       6.26393129       6.43633358       15       0.02174795      -0.04024149      -0.02023964
Pb       3.30556410       9.19474257       9.41242893       16       0.22581700       0.07903396       0.22176821
I        3.26443312       9.17870555       6.28966537       17      -0.03849156       0.01897071      -0.01634368
Br       3.21844658       6.20716350       9.60925685       18      -0.00794789       0.35098127      -0.03400237
I        0.02052414       9.32360155       9.56020567       19       0.30511242       0.01694323       0.00161543
Cs       6.17770764      12.43126183       0.04481393       20       0.02386809       0.01225016       0.01499218
Pb       9.25083493       3.28507313       3.24230362       21      -0.38384744      -0.20148442      -0.49467216
I        9.18013560       3.13755146       0.12685780       22       0.05472772       0.00293402      -0.48654510
I        9.29534644      12.53609813       3.11423452       23       0.01554076      -0.13439077       0.10481225
Br       6.26046358       3.25557464       3.09789843       24      -0.33393871       0.01737049       0.06805234
Cs       6.24780464      12.48275292       6.42787148       25      -0.03482807       0.01040907      -0.02497803
Pb       9.28190264       3.16222219       9.38269835       26      -0.17426530       0.28903314       0.38304613
I        9.06256917       3.30123420       6.27550669       27      -0.02892288      -0.05068769       0.45227467
I        9.15906442      12.57981953       9.47860561       28       0.00504887      -0.20103340      -0.01337643
Br       6.21725823       3.16179102       9.51479525       29      -0.03185737      -0.00089615      -0.01967237
Cs       6.07176857       6.19429488       0.04386504       30       0.09270249       0.06792216       0.03791661
Pb       9.13703711       9.18496949       3.05008303       31      -0.16119262       0.20152016       0.36919380
I        9.17925663       9.37336637       0.11976140       32       0.02462017       0.00828868      -0.52021401
Br       9.21594304       6.25380815       3.01433668       33       0.01486255       0.10710544       0.01267580
Br       6.19698375       9.26162021       3.18518259       34       0.18918324      -0.03043035       0.00094389
Cs       6.08213192       6.25528389       6.31558886       35       0.01291445      -0.03171952      -0.02604859
Pb       9.41516021       9.50258036       9.27939100       36      -0.43153184      -0.33554942       1.02475898
I        9.08062336       9.28915651       6.46068370       37      -0.01134144       0.02425687      -1.02299461
I        9.17110809       6.25253352       9.36298305       38       0.00771251       0.24394223       0.07920582
Br       6.23479409       9.42195688       9.49204904       39      -0.10766429      -0.00010689       0.01952220
40
Lattice="12.417628651594056 0.0 0.0 0.0013595648105773571 12.499001811309501 0.0 5.585693645636734e-05 0.00037545539004558504 12.646442238788932" Properties=species:S:1:pos:R:3:spacegroup_kinds:I:1:forces:R:3 spacegroup="P 1" unit_cell=conventional occupancy="_JSON {\"0\": {\"Cs\": 1.0}, \"1\": {\"Pb\": 1.0}, \"2\": {\"I\": 1.0}, \"3\": {\"I\": 1.0}, \"4\": {\"I\": 1.0}, \"5\": {\"Cs\": 1.0}, \"6\": {\"Pb\": 1.0}, \"7\": {\"I\": 1.0}, \"8\": {\"I\": 1.0}, \"9\": {\"I\": 1.0}, \"10\": {\"Cs\": 1.0}, \"11\": {\"Pb\": 1.0}, \"12\": {\"Br\": 1.0}, \"13\": {\"Br\": 1.0}, \"14\": {\"I\": 1.0}, \"15\": {\"Cs\": 1.0}, \"16\": {\"Pb\": 1.0}, \"17\": {\"I\": 1.0}, \"18\": {\"Br\": 1.0}, \"19\": {\"I\": 1.0}, \"20\": {\"Cs\": 1.0}, \"21\": {\"Pb\": 1.0}, \"22\": {\"I\": 1.0}, \"23\": {\"I\": 1.0}, \"24\": {\"Br\": 1.0}, \"25\": {\"Cs\": 1.0}, \"26\": {\"Pb\": 1.0}, \"27\": {\"I\": 1.0}, \"28\": {\"I\": 1.0}, \"29\": {\"Br\": 1.0}, \"30\": {\"Cs\": 1.0}, \"31\": {\"Pb\": 1.0}, \"32\": {\"I\": 1.0}, \"33\": {\"Br\": 1.0}, \"34\": {\"Br\": 1.0}, \"35\": {\"Cs\": 1.0}, \"36\": {\"Pb\": 1.0}, \"37\": {\"I\": 1.0}, \"38\": {\"I\": 1.0}, \"39\": {\"Br\": 1.0}}" candidate_id=cf8ebf8c2b8aab3f formula=MAPbBr0.33I0.673 config_index=2 rattle_stdev=0.08 method=PBE fidelity=phase2_force energy=-117.45071238640023 stress="-0.0003528974583878918 -2.501777373073509e-06 3.499959362234832e-05 -2.501777373073509e-06 -0.0012708708500016894 -2.5370761477916725e-05 3.499959362234832e-05 -2.5370761477916725e-05 -0.0017982975260385924" pbc="T T T"
Cs       0.03689151      12.37306096       0.15341564        0       0.02322185      -0.02202082      -0.06193046
Pb       3.11310713       3.21809073       3.05454591        1       0.64924642       0.24406127       0.20864314
I        3.31482558       3.24188045      -0.02697073        2      -0.05487332       0.01869330      -0.05591403
I        3.25095967      12.58901778       2.96102699        3      -0.03881321      -0.53526470       0.03291204
I        0.15359243       3.29176060       3.16270024        4      -0.85247541       0.00472529      -0.02061184
Cs      -0.02204128      12.41791705       6.27429873        5      -0.02170797      -0.00683739       0.05276446
Pb       3.17656993       3.33815402       9.42870736        6       0.37476389      -0.07236661       0.00674551
I        3.22626866       3.26896919       6.32820823        7      -0.00001748      -0.08580613      -0.13278445
I        3.15787963      12.36868138       9.63501735        8      -0.00072097       0.38592512       0.00360004
I        0.03830210       3.11041986       9.28927358        9      -0.13101522       0.00718680       0.03150253
Cs      -0.01448468       6.19065672       0.03048740       10       0.03623953       0.02570734      -0.03169545
Pb       3.19120242       9.30962768       3.03419622       11       0.24385789      -0.21542624       0.08080428
Br       3.15223806       9.19985975      -0.03697557       12       0.02792215      -0.03186149       0.34221032
Br       3.26372884       6.17694959       3.28911800       13      -0.01874484       0.45370369      -0.09005701
I       -0.10333214       9.21847728       3.10258256       14       0.53549759       0.01064150       0.01584210
Cs       0.01414439       6.26403793       6.30748726       15       0.00525371       0.00708393       0.01834797
Pb       3.22165019       9.36288811       9.62305319       16      -0.01182436      -0.33368102      -0.10636874
I        3.30030558       9.16709538       6.38132974       17      -0.06784752       0.09862324      -0.28735317
Br       3.29942810       6.19204950       9.49450307       18      -0.00840879       0.03179253       0.03615124
I        0.09456247       9.10982076       9.57831196       19      -0.10354709       0.00273382      -0.00049485
Cs       6.26643551      12.33186784       0.08062478       20      -0.03154511       0.02507892      -0.03331731
Pb       9.15288920       3.05621368       3.15158775       21      -0.21667888       0.33350810       0.13401673
I        9.01830038       3.24624083      -0.03744170       22       0.05980083       0.02017693       0.18074062
I        9.28662927      12.42719954       3.16680821       23       0.02955594       0.10748944      -0.01012383
Br       6.19746670       3.38276066       3.13765830       24       0.32440740      -0.09309412      -0.01313059
Cs       6.15376064      12.37818041       6.32023227       25       0.02393110      -0.00042372       0.02924335
Pb       9.28923658       3.16732964       9.54815401       26      -0.33244130      -0.05927883      -0.28006379
I        9.04380252       3.24238167       6.29935308       27       0.06152386      -0.08213861      -0.03474127
I        9.24212948      12.41600451       9.62460747       28       0.03559699       0.56456532       0.01637022
Br       6.22745213       3.19747606       9.43119220       29       0.02755726      -0.04096936       0.00031057
Cs       6.08975624       6.21895339       0.03483731       30      -0.01396616      -0.01718818       0.01012395
Pb       9.24235692       9.16746017       2.97824436       31      -0.38732453      -0.20254664       0.68486549
I        9.19470852       9.26743752      -0.00714250       32       0.00718777      -0.02202876      -0.04525936
Br       9.04808393       6.24243580       3.24063512       33       0.06851053      -0.06900420      -0.06105915
Br       6.24270496       9.43677364       3.11800469       34      -0.37155530       0.02626383      -0.07206038
Cs       6.18750909       6.22696364       6.33422347       35      -0.00068753      -0.02347455      -0.02745941
Pb       9.13980646       9.35399345       9.52589988       36       0.23861813       0.09958930      -0.40424725
I        9.08154463       9.31152083       6.38482635       37       0.07121797       0.09082144      -0.23028692
I        9.10986427       6.34511702       9.36251496       38       0.05420486      -0.69719050       0.03140912
Br       6.27932209       9.25910829       9.48899893       39      -0.23449998       0.05241913       0.08135651
40
Lattice="12.417628651594056 0.0 0.0 0.0013595648105773571 12.499001811309501 0.0 5.585693645636734e-05 0.00037545539004558504 12.646442238788932" Properties=species:S:1:pos:R:3:spacegroup_kinds:I:1:forces:R:3 spacegroup="P 1" unit_cell=conventional occupancy="_JSON {\"0\": {\"Cs\": 1.0}, \"1\": {\"Pb\": 1.0}, \"2\": {\"I\": 1.0}, \"3\": {\"I\": 1.0}, \"4\": {\"I\": 1.0}, \"5\": {\"Cs\": 1.0}, \"6\": {\"Pb\": 1.0}, \"7\": {\"I\": 1.0}, \"8\": {\"I\": 1.0}, \"9\": {\"I\": 1.0}, \"10\": {\"Cs\": 1.0}, \"11\": {\"Pb\": 1.0}, \"12\": {\"Br\": 1.0}, \"13\": {\"Br\": 1.0}, \"14\": {\"I\": 1.0}, \"15\": {\"Cs\": 1.0}, \"16\": {\"Pb\": 1.0}, \"17\": {\"I\": 1.0}, \"18\": {\"Br\": 1.0}, \"19\": {\"I\": 1.0}, \"20\": {\"Cs\": 1.0}, \"21\": {\"Pb\": 1.0}, \"22\": {\"I\": 1.0}, \"23\": {\"I\": 1.0}, \"24\": {\"Br\": 1.0}, \"25\": {\"Cs\": 1.0}, \"26\": {\"Pb\": 1.0}, \"27\": {\"I\": 1.0}, \"28\": {\"I\": 1.0}, \"29\": {\"Br\": 1.0}, \"30\": {\"Cs\": 1.0}, \"31\": {\"Pb\": 1.0}, \"32\": {\"I\": 1.0}, \"33\": {\"Br\": 1.0}, \"34\": {\"Br\": 1.0}, \"35\": {\"Cs\": 1.0}, \"36\": {\"Pb\": 1.0}, \"37\": {\"I\": 1.0}, \"38\": {\"I\": 1.0}, \"39\": {\"Br\": 1.0}}" candidate_id=cf8ebf8c2b8aab3f formula=MAPbBr0.33I0.673 config_index=3 rattle_stdev=0.08 method=PBE fidelity=phase2_force energy=-117.27555988294657 stress="-0.000802616844568593 0.00012967768565468477 6.34392614595982e-05 0.00012967768565468477 -0.0012513732136795058 0.00010347274156158002 6.34392614595982e-05 0.00010347274156158002 -0.0018051025638306049" pbc="T T T"
Cs      -0.05977493      12.62052631       0.01441864        0       0.01586215       0.05432447       0.02806549
Pb       3.21065210       3.25092621       3.23210101        1      -0.26291951      -0.25375920      -0.73575726
I        3.23022838       3.35445787      -0.06096613        2      -0.00810762      -0.01750983      -0.07075434
I        3.33962335      12.47497038       2.98207575        3      -0.00275433      -0.18124435       0.01701025
I       -0.04901269       3.12256899       3.07075928        4       0.12565283       0.03814798       0.03328198
Cs      -0.00773536      12.42776515       6.25123686        5      -0.04153668       0.02606055      -0.01822828
Pb       3.25505731       3.03602711       9.35726068        6       0.02414533       0.37676187       0.49923910
I        3.21641190       3.07783665       6.21970705        7      -0.02782649      -0.02293358       0.42517290
I        3.30562552      12.39027405       9.49880408        8      -0.03770714       0.43042177      -0.00174125
I       -0.11490123       3.07091818       9.65371054        9       0.42871324       0.01419705      -0.02481681
Cs       0.01035242       6.34467117      -0.12137231       10       0.02802490      -0.08300956      -0.01084154
Pb       3.19424078       9.15124836       2.98584377       11       0.05665898       0.27910930       0.00570198
Br       3.30315223       9.26425546      -0.05385254       12      -0.01505314      -0.07274591       0.43005640
Br       3.18753062       6.19663901       3.23344459       13       0.00097203       0.24611321       0.00364394
I       -0.13111908       9.29028744       3.05766600       14       1.01020030      -0.04880509      -0.00523515
Cs      -0.01836064       6.27092999       6.24637182       15      -0.03214021      -0.01645463      -0.00516399
Pb       3.28162832       9.28574206       9.56573604       16      -0.14701497      -0.52884123       0.01255960
I        3.38194554       9.23206200       6.41963050       17      -0.05310508       0.03910410      -0.44945508
Br       3.25144633       6.30437183       9.48693905       18       0.00116879      -0.23046464      -0.02546372
I        0.00046217       9.19066016       9.55898039       19      -0.11473767       0.02932889      -0.00617956
Cs       6.27922345      12.45531993      -0.03221047       20      -0.03271296       0.01654489      -0.00657885
Pb       9.04117530       3.12053321       3.12879530       21       0.36190754       0.24572060       0.05179207
I        9.10536493       3.26402396       0.05821462       22      -0.02640261      -0.03419032      -0.22852510
I        9.39381557      12.48316239       3.09174480       23      -0.06245974      -0.22153815       0.01386317
Br       6.17055460       3.28253307       3.20445005       24      -0.14900257       0.00421444       0.03509094
Cs       6.21828411      12.52351703       6.32851368       25       0.02463014      -0.02296825      -0.00054169
Pb       9.21730592       3.10397954       9.42946578       26      -0.09917471      -0.02496243       0.06268506
I        9.27558161       3.12743738       6.28825784       27       0.01234145      -0.00508804       0.11303843
I        9.19721851      12.63071982       9.37828141       28      -0.02532208      -1.10797383       0.04651763
Br       6.17820509       3.12360729       9.52606643       29      -0.23429984      -0.04894680      -0.07178240
Cs       6.12380740       6.28715800       0.08787150       30      -0.00984629      -0.02176406      -0.03854408
Pb       9.23266228       9.23536119       3.21612019       31      -0.07742895      -0.19335102       0.21155812
I        9.16096449       9.25804414       0.05898897       32       0.02347494       0.00524955       0.03934598
Br       9.15946781       6.13744341       3.30360875       33       0.02430462       0.21191111       0.01886346
Br       6.43987195       9.21792142       3.05132591       34      -1.00557350      -0.01963859      -0.01820798
Cs       6.27172108       6.35490499       6.31399472       35       0.01836212      -0.03059742       0.00344237
Pb       9.20585521       9.30615634       9.64034676       36       0.03720469      -0.00207584      -0.28536837
I        9.14750225       9.27839554       6.42966675       37       0.02494281       0.02962582      -0.09124140
I        9.07012515       6.06868615       9.52872419       38      -0.02771734       1.11891121       0.00251717
Br       6.16809338       9.34717863       9.62062874       39       0.26788392       0.00937887       0.03864945
