40
Lattice="12.358539348203681 0.0 0.0 0.01716697239261716 12.307231129754694 0.0 -0.011880472820503552 0.012078648691413896 12.426236292864182" Properties=species:S:1:pos:R:3:spacegroup_kinds:I:1:forces:R:3 spacegroup="P 1" unit_cell=conventional occupancy="_JSON {\"0\": {\"Cs\": 1.0}, \"1\": {\"Sn\": 1.0}, \"2\": {\"I\": 1.0}, \"3\": {\"I\": 1.0}, \"4\": {\"I\": 1.0}, \"5\": {\"Cs\": 1.0}, \"6\": {\"Sn\": 1.0}, \"7\": {\"I\": 1.0}, \"8\": {\"I\": 1.0}, \"9\": {\"I\": 1.0}, \"10\": {\"Cs\": 1.0}, \"11\": {\"Sn\": 1.0}, \"12\": {\"Br\": 1.0}, \"13\": {\"Br\": 1.0}, \"14\": {\"I\": 1.0}, \"15\": {\"Cs\": 1.0}, \"16\": {\"Sn\": 1.0}, \"17\": {\"I\": 1.0}, \"18\": {\"Br\": 1.0}, \"19\": {\"I\": 1.0}, \"20\": {\"Cs\": 1.0}, \"21\": {\"Sn\": 1.0}, \"22\": {\"I\": 1.0}, \"23\": {\"I\": 1.0}, \"24\": {\"Br\": 1.0}, \"25\": {\"Cs\": 1.0}, \"26\": {\"Sn\": 1.0}, \"27\": {\"I\": 1.0}, \"28\": {\"I\": 1.0}, \"29\": {\"I\": 1.0}, \"30\": {\"Cs\": 1.0}, \"31\": {\"Sn\": 1.0}, \"32\": {\"I\": 1.0}, \"33\": {\"Br\": 1.0}, \"34\": {\"I\": 1.0}, \"35\": {\"Cs\": 1.0}, \"36\": {\"Sn\": 1.0}, \"37\": {\"I\": 1.0}, \"38\": {\"I\": 1.0}, \"39\": {\"Br\": 1.0}}" candidate_id=830153bbcd11c519 formula=MASnBr0.24I0.763 config_index=0 rattle_stdev=0.0 method=PBE fidelity=phase2_force energy=-115.77294120136179 stress="-0.0008050779671187791 -1.1728122150304278e-05 1.7354219833040938e-05 -1.1728122150304278e-05 0.00024554826995563467 -9.71004950221448e-06 1.7354219833040938e-05 -9.71004950221448e-06 -0.0013049519348068957" pbc="T T T"
Cs       0.05843996      12.28978891       0.04755939        0       0.00291417      -0.00279133      -0.00395835
Sn       3.20747309       3.23976820       3.09041267        1      -0.10604971      -0.05646104      -0.00813092
I        3.16210264       3.22042241       0.00480862        2      -0.00264473      -0.00719623      -0.05593535
I        3.15121315      12.28150779       3.04590078        3       0.00238001       0.00671439       0.00184045
I        0.02925884       3.21626268       3.10487309        4       0.01162300       0.00215231       0.00154536
Cs       0.01657648       0.01778960       6.15375771        5      -0.00379383       0.00344586      -0.00060721
Sn       3.09222576       3.25549873       9.31668724        6      -0.00465241      -0.03694317       0.00075661
I        3.15228094       3.21435133       6.18616964        7      -0.00008895      -0.01280503       0.06254559
I        3.18409013      12.20886816       9.42108673        8       0.01147557       0.02141402       0.01509263
I        0.00112360       3.13210131       9.31226767        9      -0.08159742      -0.01309284      -0.00258868
Cs       0.04734634       6.16389321       0.02623920       10       0.00809902       0.00029746      -0.00432858
Sn       3.10625922       9.09472916       2.93906920       11      -0.00095987       0.08215077       0.03564369
Br       3.12137952       9.10756572       0.12661438       12       0.01487220      -0.03879059      -0.01143311
Br       3.16180055       6.13410884       3.03891771       13       0.00956479      -0.00733482      -0.00100080
I        0.01910612       9.10032693       3.05761976       14      -0.08731079      -0.00189168       0.00893112
Cs       0.03247377       6.15874260       6.18810556       15       0.00144391      -0.00083439       0.00695285
Sn       3.16763936       9.14244249       9.40606840       16      -0.06784109       0.06942763      -0.08849380
I        3.17604380       9.10966015       6.34408640       17       0.00707854      -0.00300847      -0.02583005
Br       3.11096658       6.06403179       9.33245885       18       0.01260773       0.02577421       0.02367505
I        0.13981668       9.15132824       9.41906586       19      -0.03863250      -0.00752340       0.01673007
Cs       6.16388185      12.29896479       0.03303054       20       0.00392339      -0.00254652      -0.00494395
Sn       9.11276594       3.19967857       3.10280374       21       0.06879738      -0.09583086       0.00041366
I        9.18417786       3.16132266       0.02693872       22       0.00929375      -0.00045206      -0.14211415
I        9.17266936       0.06627936       3.10701565       23       0.00073319      -0.00885024       0.00090039
Br       6.20240494       3.22564856       3.10010329       24      -0.00271822       0.02906745       0.00365714
Cs       6.15953803      12.30311685       6.18212586       25       0.00360088      -0.00417976       0.00774729
Sn       9.24409903       3.10459227       9.31803733       26      -0.00850344       0.00424617      -0.00205583
I        9.18709640       3.16004667       6.18286808       27       0.00838838       0.00062874       0.13870060
I        9.23129894      12.31048175       9.31160340       28       0.01260230       0.08958604      -0.00207378
I        6.14939646       3.16015415       9.31371360       29       0.09091859      -0.02050328      -0.00537840
Cs       6.14739987       6.16255187       0.02753945       30      -0.00485673       0.00172926      -0.00030048
Sn       9.25788090       9.06642321       3.09304402       31      -0.01163283       0.05806837      -0.00842554
I        9.19868174       9.17584006      12.41626298       32       0.01287253       0.01477488       0.01795684
Br       9.21693163       6.21015942       3.10096783       33      -0.00229656       0.00208279       0.00541484
I        6.16097034       9.08213546       3.03791662       34       0.09504813       0.00194759       0.01306307
Cs       6.16000477       6.16207548       6.17408788       35       0.00379029      -0.00161427      -0.00096478
Sn       9.09557751       9.23348167       9.31619047       36       0.05223077      -0.00294163       0.00295526
I        9.22736213       9.17678132       6.20096124       37       0.01513826       0.01125401      -0.01093295
I        9.19259184       6.18477446       9.31116199       38       0.02100015      -0.09477908      -0.00526879
Br       6.30998885       9.21672508       9.32787544       39      -0.05476847      -0.00549472       0.01991194
40
Lattice="12.358539348203681 0.0 0.0 0.01716697239261716 12.307231129754694 0.0 -0.011880472820503552 0.012078648691413896 12.426236292864182" Properties=species:S:1:pos:R:3:spacegroup_kinds:I:1:forces:R:3 spacegroup="P 1" unit_cell=conventional occupancy="_JSON {\"0\": {\"Cs\": 1.0}, \"1\": {\"Sn\": 1.0}, \"2\": {\"I\": 1.0}, \"3\": {\"I\": 1.0}, \"4\": {\"I\": 1.0}, \"5\": {\"Cs\": 1.0}, \"6\": {\"Sn\": 1.0}, \"7\": {\"I\": 1.0}, \"8\": {\"I\": 1.0}, \"9\": {\"I\": 1.0}, \"10\": {\"Cs\": 1.0}, \"11\": {\"Sn\": 1.0}, \"12\": {\"Br\": 1.0}, \"13\": {\"Br\": 1.0}, \"14\": {\"I\": 1.0}, \"15\": {\"Cs\": 1.0}, \"16\": {\"Sn\": 1.0}, \"17\": {\"I\": 1.0}, \"18\": {\"Br\": 1.0}, \"19\": {\"I\": 1.0}, \"20\": {\"Cs\": 1.0}, \"21\": {\"Sn\": 1.0}, \"22\": {\"I\": 1.0}, \"23\": {\"I\": 1.0}, \"24\": {\"Br\": 1.0}, \"25\": {\"Cs\": 1.0}, \"26\": {\"Sn\": 1.0}, \"27\": {\"I\": 1.0}, \"28\": {\"I\": 1.0}, \"29\": {\"I\": 1.0}, \"30\": {\"Cs\": 1.0}, \"31\": {\"Sn\": 1.0}, \"32\": {\"I\": 1.0}, \"33\": {\"Br\": 1.0}, \"34\": {\"I\": 1.0}, \"35\": {\"Cs\": 1.0}, \"36\": {\"Sn\": 1.0}, \"37\": {\"I\": 1.0}, \"38\": {\"I\": 1.0}, \"39\": {\"Br\": 1.0}}" candidate_id=830153bbcd11c519 formula=MASnBr0.24I0.763 config_index=1 rattle_stdev=0.08 method=PBE fidelity=phase2_force energy=-115.21627780903803 stress="-0.0017327348206689808 -9.761374552903806e-05 8.290832028507869e-06 -9.761374552903806e-05 -0.000631121710574297 -5.506213110717761e-05 8.290832028507869e-06 -5.506213110717761e-05 -0.004110002381227274" pbc="T T T"
Cs      -0.02847575      12.21810370       0.02305544        0      -0.01607450       0.03067386       0.01123187
Sn       3.10027840       3.14324135       3.03907452        1       0.07725350       0.15728819       0.23721645
I        3.26673829       3.36805924       0.07113781        2      -0.11123287      -0.12212655      -0.10459275
I        3.14934924      12.26482268       2.97257120        3      -0.02172035       0.08007385       0.00344522
I       -0.05672057       3.20937121       3.19894018        4       0.32935688       0.00132067      -0.00986962
Cs      -0.11423086       0.11604512       6.23986861        5       0.03930573       0.03300193      -0.03714539
Sn       3.12380759       3.22448266       9.36375938        6       0.06127318      -0.26591837      -0.15167131
I        3.03761703       3.18846535       6.28640842        7       0.05300669      -0.00249235      -0.09007342
I        3.12563072      12.32314696       9.49665904        8       0.00576304      -0.29197345      -0.03007706
I       -0.01999662       3.11904424       9.23513909        9       0.02805260      -0.01324299       0.03024262
Cs       0.01993455       6.16780553      -0.01373136       10      -0.00776650      -0.02929974       0.01331129
Sn       2.92930686       9.11951611       2.81189710       11       0.95069760      -0.15036629       0.02221454
Br       3.17973589       9.09893362       0.07460066       12      -0.08212320      -0.01590237      -0.08062684
Br       3.02635603       6.10463092       2.91168797       13      -0.00341834       0.02047984       0.08004924
I        0.13754659       9.13828215       3.13072886       14      -0.97352339       0.00816750       0.05927447
Cs       0.10931139       6.16550601       6.32548403       15       0.01218630      -0.03185999      -0.00673374
Sn       3.23579077       9.08205166       9.22305806       16       0.14228990       0.22315133       0.33091577
I        3.18478289       9.07364750       6.31104860       17      -0.01126475       0.01208605      -0.23436074
Br       3.13648528       6.02074316       9.40835217       18      -0.01189330       0.42796867      -0.03456624
I        0.15193149       9.15748043       9.41431383       19      -0.02879015       0.00329690      -0.02247729
Cs       6.15827075      12.25367286       0.05791097       20       0.02003119       0.00665531       0.00192718
Sn       9.17070265       3.24099457       3.18488620       21      -0.19718903      -0.28455116      -0.58100382
I        9.22579007       3.09173558       0.14698393       22       0.04876564       0.03785912      -0.53269931
I        9.26598713       0.10563252       3.04843467       23      -0.01490753      -0.08194698       0.13668973
Br       6.25682943       3.26636831       3.03310039       24      -0.21417937       0.01355642       0.07098985
Cs       6.21134961      12.30412000       6.30689299       25      -0.04018814      -0.00317770      -0.01175837
Sn       9.32686666       3.13160768       9.21382850       26      -0.17688013       0.29908367       0.29555346
I        9.09761285       3.26480788       6.14141072       27       0.00041284      -0.04937976       0.61888051
I        9.19984900      12.39391923       9.31758062       28       0.02954204      -0.09687773      -0.03795480
I        6.15655142       3.16446674       9.34718936       29       0.05484829      -0.01206844      -0.01581350
Cs       6.04918146       6.07538854       0.05290940       30       0.08049424       0.05512566       0.03206615
Sn       9.19544846       8.99793273       2.98745431       31      -0.18572187       0.27180822       0.15080265
I        9.23498427       9.25598204      12.52936175       32       0.02977027      -0.01618368      -0.27379314
Br       9.20171700       6.21256826       2.95109449       33       0.03506075       0.01008338       0.01111207
I        6.15162819       9.07193623       3.11009137       34       0.30040533      -0.00534817       0.03179792
Cs       6.05485500       6.15411143       6.18533187       35       0.00358542      -0.03069117      -0.00978025
Sn       9.30588199       9.37394398       9.10533864       36      -0.25355877      -0.33956260       0.98096252
I        9.12443057       9.16304355       6.34499754       37       0.04452489       0.05429695      -0.95068485
I        9.24128749       6.18729650       9.19384902       38       0.02174625       0.09169811       0.08900106
Br       6.33474411       9.30810250       9.28700791       39      -0.01808481       0.00568128       0.01094804
40
Lattice="12.358539348203681 0.0 0.0 0.01716697239261716 12.307231129754694 0.0 -0.011880472820503552 0.012078648691413896 12.426236292864182" Properties=species:S:1:pos:R:3:spacegroup_kinds:I:1:forces:R:3 spacegroup="P 1" unit_cell=conventional occupancy="_JSON {\"0\": {\"Cs\": 1.0}, \"1\": {\"Sn\": 1.0}, \"2\": {\"I\": 1.0}, \"3\": {\"I\": 1.0}, \"4\": {\"I\": 1.0}, \"5\": {\"Cs\": 1.0}, \"6\": {\"Sn\": 1.0}, \"7\": {\"I\": 1.0}, \"8\": {\"I\": 1.0}, \"9\": {\"I\": 1.0}, \"10\": {\"Cs\": 1.0}, \"11\": {\"Sn\": 1.0}, \"12\": {\"Br\": 1.0}, \"13\": {\"Br\": 1.0}, \"14\": {\"I\": 1.0}, \"15\": {\"Cs\": 1.0}, \"16\": {\"Sn\": 1.0}, \"17\": {\"I\": 1.0}, \"18\": {\"Br\": 1.0}, \"19\": {\"I\": 1.0}, \"20\": {\"Cs\": 1.0}, \"21\": {\"Sn\": 1.0}, \"22\": {\"I\": 1.0}, \"23\": {\"I\": 1.0}, \"24\": {\"Br\": 1.0}, \"25\": {\"Cs\": 1.0}, \"26\": {\"Sn\": 1.0}, \"27\": {\"I\": 1.0}, \"28\": {\"I\": 1.0}, \"29\": {\"I\": 1.0}, \"30\": {\"Cs\": 1.0}, \"31\": {\"Sn\": 1.0}, \"32\": {\"I\": 1.0}, \"33\": {\"Br\": 1.0}, \"34\": {\"I\": 1.0}, \"35\": {\"Cs\": 1.0}, \"36\": {\"Sn\": 1.0}, \"37\": {\"I\": 1.0}, \"38\": {\"I\": 1.0}, \"39\": {\"Br\": 1.0}}" candidate_id=830153bbcd11c519 formula=MASnBr0.24I0.763 config_index=2 rattle_stdev=0.08 method=PBE fidelity=phase2_force energy=-115.24691564557843 stress="-0.0029188975759148637 4.998335032240512e-05 2.713791193708797e-06 4.998335032240512e-05 -0.002246102617075609 9.713021722972985e-05 2.713791193708797e-06 9.713021722972985e-05 -0.0025571446265141426" pbc="T T T"
Cs       0.04942292      12.20366379       0.19036154        0       0.01268864       0.00019702      -0.06283912
Sn       3.09091443       3.21366253       2.98962095        1       0.44628710       0.11855147       0.21047022
I        3.19217196       3.15017062      -0.02318945        2      -0.05625446       0.03615222      -0.08393239
I        3.17494597      12.37758075       2.92038116        3      -0.04327897      -0.44181669       0.04830267
I        0.17758114       3.25577963       3.09441618        4      -0.67164940      -0.00535216      -0.03851570
Cs      -0.01567318      -0.06010338       6.11636037        5      -0.01616380      -0.00266044       0.03835060
Sn       3.03479204       3.35321019       9.25451124        6       0.42627409      -0.34531464      -0.05438031
I        3.10519889       3.20974182       6.19253604        7       0.01462216      -0.09203385      -0.00839204
I        3.08943404      12.08496876       9.49406722        8       0.01124670       0.67084590       0.01396751
I        0.03413726       3.07643979       9.12916592        9      -0.23761609       0.00502719       0.04224098
Cs      -0.01563299       6.08161187       0.03370385       10       0.02938107       0.01520158      -0.02351320
Sn       3.06392369       9.15714875       2.92300403       11       0.26324108      -0.08406759       0.01028025
Br       3.08293083       9.02474475       0.08639563       12       0.01211978      -0.03679793       0.28148350
Br       3.22499177       6.06010903       3.21572053       13      -0.03708835       0.39128724      -0.09605691
I       -0.09291277       9.08119914       3.07500701       14       0.47954705      -0.00591363       0.02669512
Cs       0.00428295       6.16561264       6.19663772       15      -0.00129606       0.00857504       0.01002663
Sn       3.15187686       9.25019720       9.43368232       16       0.05582768      -0.56533180      -0.05062750
I        3.22065535       9.06203734       6.40271297       17      -0.02708851       0.08236712      -0.29622861
Br       3.21746679       6.00562916       9.29359839       18      -0.03942209       0.26759901       0.04647541
I        0.22596982       8.94369965       9.43242011       19      -0.25405253       0.02239101       0.01011166
Cs       6.24699862      12.15427888       0.09372182       20      -0.02441698       0.04849883      -0.03823786
Sn       9.07275692       3.01213512       3.09417033       21      -0.19679192       0.29009455       0.14150362
I        9.06395485       3.20042495      -0.01731556       22       0.09236312       0.02359605       0.00014291
I        9.25726996      -0.00326606       3.10100836       23      -0.00608350       0.02254485      -0.00965321
Br       6.19383254       3.39355433       3.07286025       24       0.35680258      -0.15306665      -0.01479431
Cs       6.11730562      12.19954750       6.19925378       25       0.02263035       0.00764505       0.02219654
Sn       9.33420060       3.13671513       9.37928416       26      -0.38884015      -0.07159200      -0.19500969
I        9.07884620       3.20595535       6.16525711       27       0.06529972      -0.08317028       0.04008522
I        9.28291406      12.23010420       9.46358249       28       0.04314505       0.58313944      -0.00004802
I        6.16674532       3.20015178       9.26358631       29       0.12009022      -0.09929466       0.00411938
Cs       6.06716913       6.10004705       0.04388167       30      -0.01150697      -0.01799736       0.02994409
Sn       9.30076826       8.98042342       2.91561564       31      -0.43978122      -0.09291742       0.57022564
I        9.25043616       9.15005319      12.40245784       32       0.03263344      -0.04152245       0.06274797
Br       9.03385789       6.20119591       3.17739293       33       0.11179247      -0.02433287      -0.08404350
I        6.19734940       9.24708965       3.04291346       34      -0.32052783       0.02729327      -0.03149015
Cs       6.16023217       6.12579118       6.20396648       35      -0.00095362      -0.01045827      -0.04433336
Sn       9.03052824       9.22535707       9.35184753       36       0.49635302       0.11399059      -0.45522441
I        9.12535184       9.18540787       6.26914019       37       0.07769325       0.10161123      -0.17261725
I        9.18004367       6.27988000       9.19338092       38       0.10632644      -0.72389679       0.05351026
Br       6.37927212       9.14525391       9.28395779       39      -0.50284246       0.05963823       0.09569770
40
Lattice="12.358539348203681 0.0 0.0 0.01716697239261716 12.307231129754694 0.0 -0.011880472820503552 0.012078648691413896 12.426236292864182" Properties=species:S:1:pos:R:3:spacegroup_kinds:I:1:forces:R:3 spacegroup="P 1" unit_cell=conventional occupancy="_JSON {\"0\": {\"Cs\": 1.0}, \"1\": {\"Sn\": 1.0}, \"2\": {\"I\": 1.0}, \"3\": {\"I\": 1.0}, \"4\": {\"I\": 1.0}, \"5\": {\"Cs\": 1.0}, \"6\": {\"Sn\": 1.0}, \"7\": {\"I\": 1.0}, \"8\": {\"I\": 1.0}, \"9\": {\"I\": 1.0}, \"10\": {\"Cs\": 1.0}, \"11\": {\"Sn\": 1.0}, \"12\": {\"Br\": 1.0}, \"13\": {\"Br\": 1.0}, \"14\": {\"I\": 1.0}, \"15\": {\"Cs\": 1.0}, \"16\": {\"Sn\": 1.0}, \"17\": {\"I\": 1.0}, \"18\": {\"Br\": 1.0}, \"19\": {\"I\": 1.0}, \"20\": {\"Cs\": 1.0}, \"21\": {\"Sn\": 1.0}, \"22\": {\"I\": 1.0}, \"23\": {\"I\": 1.0}, \"24\": {\"Br\": 1.0}, \"25\": {\"Cs\": 1.0}, \"26\": {\"Sn\": 1.0}, \"27\": {\"I\": 1.0}, \"28\": {\"I\": 1.0}, \"29\": {\"I\": 1.0}, \"30\": {\"Cs\": 1.0}, \"31\": {\"Sn\": 1.0}, \"32\": {\"I\": 1.0}, \"33\": {\"Br\": 1.0}, \"34\": {\"I\": 1.0}, \"35\": {\"Cs\": 1.0}, \"36\": {\"Sn\": 1.0}, \"37\": {\"I\": 1.0}, \"38\": {\"I\": 1.0}, \"39\": {\"Br\": 1.0}}" candidate_id=830153bbcd11c519 formula=MASnBr0.24I0.763 config_index=3 rattle_stdev=0.08 method=PBE fidelity=phase2_force energy=-115.06464002559275 stress="-0.0019488715182851355 0.0001711047251422004 2.5701871471470234e-05 0.0001711047251422004 -0.0008762542861044768 0.0001177975043728131 2.5701871471470234e-05 0.0001177975043728131 -0.0023520355165305663" pbc="T T T"
Cs      -0.04724352      12.45112914       0.05136454        0       0.03739907       0.03605146       0.02269539
Sn       3.18845940       3.24649801       3.16717605        1      -0.32516886      -0.34423361      -0.72825927
I        3.10757476       3.26274804      -0.05718484        2       0.01847507      -0.02718852      -0.12977247
I        3.26360965      12.26353336       2.94142992        3       0.00076402      -0.15798336       0.02671607
I       -0.02502398       3.08658802       3.00247521        4       0.17542810       0.07050356       0.05860115
Cs      -0.00136726      -0.05025528       6.09329850        5      -0.02467434       0.01623424      -0.01828898
Sn       3.11327942       3.05108329       9.18306456        6      -0.00942999       0.43050317       0.49615155
I        3.09534212       3.01860928       6.08403486        7      -0.02113360      -0.02702622       0.44529992
I        3.23717993      12.10656144       9.35785395        8      -0.02520807       0.68647612       0.03396989
I       -0.11906607       3.03693811       9.49360289        9       0.32297545       0.01804639      -0.03605065
Cs       0.00920411       6.23562633      -0.11815586       10       0.03893482      -0.09289540      -0.00238789
Sn       3.06696205       8.99876943       2.87465158       11       0.13070589       0.38021043      -0.02339324
Br       3.23384501       9.08914046       0.06951866       12      -0.03571987      -0.10308564       0.34408007
Br       3.14879355       6.07979845       3.16004712       13      -0.01033499       0.21589413       0.01616735
I       -0.12069971       9.15300930       3.03009046       14       1.01797958      -0.03411956      -0.01363849
Cs      -0.02822208       6.17250470       6.13552228       15      -0.01760142      -0.01400674       0.01595316
Sn       3.21185499       9.17305115       9.37636517       16      -0.10704822      -0.64656437       0.13083229
I        3.30229532       9.12700395       6.44101373       17      -0.01787582       0.01032210      -0.53297565
Br       3.16948503       6.11795148       9.28603436       18      -0.00044086      -0.35737004      -0.04235924
I        0.13186951       9.02453905       9.41308855       19      -0.13767991       0.06459462      -0.02102130
Cs       6.25978656      12.27773097      -0.01911343       20      -0.04104426       0.00548741      -0.00071297
Sn       8.96104302       3.07645465       3.07137788       21       0.41867340       0.24166959       0.03801400
I        9.15101939       3.21820808       0.07834075       22      -0.04322638      -0.03026865      -0.29635290
I        9.36445627       0.05269678       3.02594495       23      -0.11328990      -0.29592011       0.02105315
Br       6.16692044       3.29332674       3.13965201       24      -0.16497133      -0.03017989       0.03270427
Cs       6.18182909      12.34488412       6.20753520       25       0.01660241      -0.04402927      -0.00153732
Sn       9.26226994       3.07336503       9.26059592       26      -0.09095363      -0.07641273      -0.00318415
I        9.31062529       3.09101106       6.15416187       27       0.00070276       0.00524238       0.27358395
I        9.23800309      12.44481951       9.21725642       28      -0.02494116      -0.87991843       0.05988887
I        6.11749829       3.12628301       9.35846054       29      -0.12210597      -0.05138864      -0.06353582
Cs       6.10122029       6.16825166       0.09691586       30      -0.02256799      -0.04012361      -0.05911000
Sn       9.29107362       9.04832443       3.15349147       31      -0.15476482      -0.16289847       0.21240361
I        9.21669213       9.14065981      12.46858932       32       0.04994718       0.01467905       0.07702846
Br       9.14524177       6.09620352       3.24036656       33       0.07785974       0.21103600       0.00353334
I        6.39451639       9.02823743       2.97623468       34      -1.03937899       0.05777017       0.03147472
Cs       6.24444416       6.25373253       6.18373772       35       0.00903514      -0.01692998       0.01875769
Sn       9.09657699       9.17751996       9.46629440       36       0.06692982       0.00414894      -0.30063835
I        9.19130946       9.15228258       6.31398059       37       0.03607640       0.03019438      -0.13117372
I        9.14030455       6.00344913       9.35959015       38      -0.00620111       0.94377339      -0.00589191
Br       6.26804341       9.23332426       9.41558761       39       0.13559891      -0.00886554       0.05606493
