40
Lattice="10.618512442289868 0.0 0.0 0.0 10.618512442289767 0.0 0.0 -3.2358771238248957e-14 10.618512442289811" Properties=species:S:1:pos:R:3:spacegroup_kinds:I:1:forces:R:3 spacegroup="P 1" unit_cell=conventional occupancy="_JSON {\"0\": {\"Cs\": 1.0}, \"1\": {\"Ge\": 1.0}, \"2\": {\"Cl\": 1.0}, \"3\": {\"Cl\": 1.0}, \"4\": {\"Cl\": 1.0}, \"5\": {\"Cs\": 1.0}, \"6\": {\"Ge\": 1.0}, \"7\": {\"Cl\": 1.0}, \"8\": {\"Cl\": 1.0}, \"9\": {\"Cl\": 1.0}, \"10\": {\"Cs\": 1.0}, \"11\": {\"Ge\": 1.0}, \"12\": {\"Cl\": 1.0}, \"13\": {\"Cl\": 1.0}, \"14\": {\"Cl\": 1.0}, \"15\": {\"Cs\": 1.0}, \"16\": {\"Ge\": 1.0}, \"17\": {\"Cl\": 1.0}, \"18\": {\"Cl\": 1.0}, \"19\": {\"Cl\": 1.0}, \"20\": {\"Cs\": 1.0}, \"21\": {\"Ge\": 1.0}, \"22\": {\"Cl\": 1.0}, \"23\": {\"Cl\": 1.0}, \"24\": {\"Cl\": 1.0}, \"25\": {\"Cs\": 1.0}, \"26\": {\"Ge\": 1.0}, \"27\": {\"Cl\": 1.0}, \"28\": {\"Cl\": 1.0}, \"29\": {\"Cl\": 1.0}, \"30\": {\"K\": 1.0}, \"31\": {\"Ge\": 1.0}, \"32\": {\"Cl\": 1.0}, \"33\": {\"Cl\": 1.0}, \"34\": {\"Cl\": 1.0}, \"35\": {\"Cs\": 1.0}, \"36\": {\"Ge\": 1.0}, \"37\": {\"Cl\": 1.0}, \"38\": {\"Cl\": 1.0}, \"39\": {\"Cl\": 1.0}}" candidate_id=2dfe335d689cd7ee formula=Cs0.88K0.12GeCl3 config_index=0 rattle_stdev=0.0 method=PBE fidelity=phase2_force energy=-139.09733484075733 stress="-0.0015313745292405354 0.0 0.0 0.0 -0.0015313745292405648 -4.666698686948306e-18 0.0 -4.666698686948306e-18 -0.0015313745292444003" pbc="T T T"
Cs      10.61851244      10.61851244      10.61851244        0      -0.00000000      -0.00000000       0.00000000
Ge       2.67171433       2.67171433       2.63754189        1      -0.00094357      -0.00094357       0.00094357
Cl       2.70866387       2.70866387      10.61851244        2      -0.00429554      -0.00429554       0.00000000
Cl       2.69073679      -0.00000000       2.61851943        3      -0.02402248      -0.00000000       0.02402248
Cl      10.61851244       2.69073679       2.61851943        4      -0.00000000      -0.02402248       0.02402248
Cs      10.61851244      10.61851244       5.30925622        5       0.00000000       0.00000000       0.00000000
Ge       2.67171433       2.67171433       7.98097055        6      -0.00094357      -0.00094357      -0.00094357
Cl       2.69073679       2.69073679       5.30925622        7      -0.02402248      -0.02402248       0.00000000
Cl       2.69073679      10.61851244       7.99999301        8      -0.02402248       0.00000000      -0.02402248
Cl      10.61851244       2.69073679       7.99999301        9      -0.00000000      -0.02402248      -0.02402248
Cs      10.61851244       5.30925622      10.61851244       10      -0.00000000      -0.00000000       0.00000000
Ge       2.67171433       7.94679811       2.63754189       11      -0.00094357       0.00094357       0.00094357
Cl       2.70866387       7.90984858      10.61851244       12      -0.00429554       0.00429554       0.00000000
Cl       2.70866387       5.30925622       2.60059236       13      -0.00429554      -0.00000000       0.00429554
Cl      10.61851244       7.92777565       2.61851943       14       0.00000000       0.02402248       0.02402248
Cs      10.61851244       5.30925622       5.30925622       15       0.00000000       0.00000000       0.00000000
Ge       2.67171433       7.94679811       7.98097055       16      -0.00094357       0.00094357      -0.00094357
Cl       2.69073679       7.92777565       5.30925622       17      -0.02402248       0.02402248       0.00000000
Cl       2.70866387       5.30925622       8.01792009       18      -0.00429554       0.00000000      -0.00429554
Cl      10.61851244       7.92777565       7.99999301       19       0.00000000       0.02402248      -0.02402248
Cs       5.30925622      10.61851244       0.00000000       20       0.00000000       0.00000000       0.00000000
Ge       7.94679811       2.67171433       2.63754189       21       0.00094357      -0.00094357       0.00094357
Cl       7.90984858       2.70866387      10.61851244       22       0.00429554      -0.00429554       0.00000000
Cl       7.92777565      10.61851244       2.61851943       23       0.02402248      -0.00000000       0.02402248
Cl       5.30925622       2.70866387       2.60059236       24      -0.00000000      -0.00429554       0.00429554
Cs       5.30925622      10.61851244       5.30925622       25       0.00000000       0.00000000       0.00000000
Ge       7.94679811       2.67171433       7.98097055       26       0.00094357      -0.00094357      -0.00094357
Cl       7.92777565       2.69073679       5.30925622       27       0.02402248      -0.02402248       0.00000000
Cl       7.92777565      10.61851244       7.99999301       28       0.02402248       0.00000000      -0.02402248
Cl       5.30925622       2.70866387       8.01792009       29      -0.00000000      -0.00429554      -0.00429554
K        5.30925622       5.30925622      10.61851244       30       0.00000000       0.00000000       0.00000000
Ge       7.94679811       7.94679811       2.63754189       31       0.00094357       0.00094357       0.00094357
Cl       7.90984858       7.90984858      10.61851244       32       0.00429554       0.00429554       0.00000000
Cl       7.90984858       5.30925622       2.60059236       33       0.00429554      -0.00000000       0.00429554
Cl       5.30925622       7.90984858       2.60059236       34       0.00000000       0.00429554       0.00429554
Cs       5.30925622       5.30925622       5.30925622       35       0.00000000      -0.00000000       0.00000000
Ge       7.94679811       7.94679811       7.98097055       36       0.00094357       0.00094357      -0.00094357
Cl       7.92777565       7.92777565       5.30925622       37       0.02402248       0.02402248       0.00000000
Cl       7.90984858       5.30925622       8.01792009       38       0.00429554       0.00000000      -0.00429554
Cl       5.30925622       7.90984858       8.01792009       39      -0.00000000       0.00429554      -0.00429554
40
Lattice="10.618512442289868 0.0 0.0 0.0 10.618512442289767 0.0 0.0 -3.2358771238248957e-14 10.618512442289811" Properties=species:S:1:pos:R:3:spacegroup_kinds:I:1:forces:R:3 spacegroup="P 1" unit_cell=conventional occupancy="_JSON {\"0\": {\"Cs\": 1.0}, \"1\": {\"Ge\": 1.0}, \"2\": {\"Cl\": 1.0}, \"3\": {\"Cl\": 1.0}, \"4\": {\"Cl\": 1.0}, \"5\": {\"Cs\": 1.0}, \"6\": {\"Ge\": 1.0}, \"7\": {\"Cl\": 1.0}, \"8\": {\"Cl\": 1.0}, \"9\": {\"Cl\": 1.0}, \"10\": {\"Cs\": 1.0}, \"11\": {\"Ge\": 1.0}, \"12\": {\"Cl\": 1.0}, \"13\": {\"Cl\": 1.0}, \"14\": {\"Cl\": 1.0}, \"15\": {\"Cs\": 1.0}, \"16\": {\"Ge\": 1.0}, \"17\": {\"Cl\": 1.0}, \"18\": {\"Cl\": 1.0}, \"19\": {\"Cl\": 1.0}, \"20\": {\"Cs\": 1.0}, \"21\": {\"Ge\": 1.0}, \"22\": {\"Cl\": 1.0}, \"23\": {\"Cl\": 1.0}, \"24\": {\"Cl\": 1.0}, \"25\": {\"Cs\": 1.0}, \"26\": {\"Ge\": 1.0}, \"27\": {\"Cl\": 1.0}, \"28\": {\"Cl\": 1.0}, \"29\": {\"Cl\": 1.0}, \"30\": {\"K\": 1.0}, \"31\": {\"Ge\": 1.0}, \"32\": {\"Cl\": 1.0}, \"33\": {\"Cl\": 1.0}, \"34\": {\"Cl\": 1.0}, \"35\": {\"Cs\": 1.0}, \"36\": {\"Ge\": 1.0}, \"37\": {\"Cl\": 1.0}, \"38\": {\"Cl\": 1.0}, \"39\": {\"Cl\": 1.0}}" candidate_id=2dfe335d689cd7ee formula=Cs0.88K0.12GeCl3 config_index=1 rattle_stdev=0.08 method=PBE fidelity=phase2_force energy=-138.60897438193484 stress="-0.004462800687022707 0.00013105718230169014 0.0003287460387623275 0.00013105718230169014 -0.0036501744923310066 -0.00020015391120548388 0.0003287460387623275 -0.00020015391120548388 -0.004927622986252807" pbc="T T T"
Cs      10.53159673      10.54682723      10.59400849        0       0.02796651       0.11791281       0.04901479
Ge       2.56451964       2.57518748       2.58620375        1       0.37814398       0.36771477       0.03465782
Cl       2.81329952       2.85630070      10.68484164        2      -0.19481040      -0.22488096       0.13813770
Cl       2.68887288      -0.01668512       2.54518985        3      -0.11660749       0.11418935       0.02769270
Cl      10.53253304       2.68384531       2.71258652        4       0.53170393      -0.02906881      -0.01825042
Cs      10.48770510      10.71676796       5.39536712        5       0.13553235      -0.00349008      -0.13863991
Ge       2.70329616       2.64069827       8.02804269        6       0.18204093      -0.16105130      -0.30179737
Cl       2.57607288       2.66485081       5.40949500        7       0.08802050      -0.03671841      -0.01941946
Cl       2.63227738      10.73279125       8.07556532        8      -0.01023465      -0.27873356      -0.07641321
Cl      10.59739222       2.67767972       7.92286443        9      -0.09810705      -0.01506595       0.05147375
Cs      10.59110066       5.31316854      10.57854188       10      -0.03032619      -0.06134684       0.02436844
Ge       2.49476197       7.97158506       2.51036979       11       0.56767197      -0.32418406      -0.18664929
Cl       2.76702023       7.90121648      10.56649872       12      -0.16719185       0.03998404       0.16810660
Cl       2.57321934       5.27977830       2.47336262       13      -0.01305640       0.05556928       0.18353502
Cl      10.73695291       7.96573087       2.69162854       14      -0.43538169       0.02423075      -0.02487897
Cs      10.69535006       5.31601963       5.44663470       15      -0.00887955      -0.05369377      -0.15182903
Ge       2.73986575       7.88640729       7.79796021       16       0.45682516       0.00803447       0.26687442
Cl       2.69947588       7.89176301       5.27621843       17      -0.05986484       0.04266446       0.22445717
Cl       2.73418257       5.26596758       8.09381340       18      -0.02548726       0.58445684      -0.16536419
Cl      10.63062725       7.93392785       7.99524098       19       0.09330886       0.07869025      -0.17004542
Cs       5.30364513      10.57322052       0.02488043       20       0.05085534       0.06865436       0.03707475
Ge       8.00473482       2.71303033       2.71962434       21      -0.50010424      -0.33446359      -0.74351367
Cl       7.95146079       2.63907678      10.73855765       22       0.11568762       0.05386256      -0.35790563
Cl       8.02109343      10.65786560       2.55993846       23      -0.03406491      -0.08287641       0.22731804
Cl       5.36368071       2.74938361       2.53358946       24      -0.36080353      -0.05400841       0.15734837
Cs       5.36106781      10.61951560       5.43402335       25      -0.12056415       0.06380854      -0.16446573
Ge       8.02956574       2.69872974       7.87676172       26      -0.15782625       0.37186532       0.33326583
Cl       7.83829211       2.79549800       5.26779886       27       0.09897402      -0.10588982       0.57999657
Cl       7.89632571      10.70194992       8.00597023       28       0.16120690      -0.20748187      -0.17359690
Cl       5.31641118       2.71297645       8.05139585       29      -0.13928159      -0.02441117      -0.05792883
K        5.21103782       5.22209290      10.64388239       30       0.02620601      -0.01925050       0.04739741
Ge       7.88436567       7.87830763       2.53195218       31      -0.45516947       0.18170393      -0.21045623
Cl       7.94615111       7.98999056      10.73161122       32      -0.00996445      -0.07341513       0.16326444
Cl       7.89463395       5.31166506       2.45071902       33       0.04757565       0.25715365       0.09326748
Cl       5.29991407       7.89964935       2.67276710       34       0.59810026       0.00368847      -0.05598810
Cs       5.20410645       5.30129216       5.32050021       35       0.02147742      -0.05858283      -0.07228061
Ge       8.15710259       8.08726042       7.77011873       36      -0.59681706      -0.39813105       0.55120469
Cl       7.82484409       7.91403788       5.45329252       37       0.25875032       0.11969363      -0.30723553
Cl       7.95854423       5.31177827       7.90060711       38       0.06208814       0.05214106       0.06352473
Cl       5.33401148       8.00122600       7.97705255       39      -0.36629840      -0.05844217      -0.04512882
40
Lattice="10.618512442289868 0.0 0.0 0.0 10.618512442289767 0.0 0.0 -3.2358771238248957e-14 10.618512442289811" Properties=species:S:1:pos:R:3:spacegroup_kinds:I:1:forces:R:3 spacegroup="P 1" unit_cell=conventional occupancy="_JSON {\"0\": {\"Cs\": 1.0}, \"1\": {\"Ge\": 1.0}, \"2\": {\"Cl\": 1.0}, \"3\": {\"Cl\": 1.0}, \"4\": {\"Cl\": 1.0}, \"5\": {\"Cs\": 1.0}, \"6\": {\"Ge\": 1.0}, \"7\": {\"Cl\": 1.0}, \"8\": {\"Cl\": 1.0}, \"9\": {\"Cl\": 1.0}, \"10\": {\"Cs\": 1.0}, \"11\": {\"Ge\": 1.0}, \"12\": {\"Cl\": 1.0}, \"13\": {\"Cl\": 1.0}, \"14\": {\"Cl\": 1.0}, \"15\": {\"Cs\": 1.0}, \"16\": {\"Ge\": 1.0}, \"17\": {\"Cl\": 1.0}, \"18\": {\"Cl\": 1.0}, \"19\": {\"Cl\": 1.0}, \"20\": {\"Cs\": 1.0}, \"21\": {\"Ge\": 1.0}, \"22\": {\"Cl\": 1.0}, \"23\": {\"Cl\": 1.0}, \"24\": {\"Cl\": 1.0}, \"25\": {\"Cs\": 1.0}, \"26\": {\"Ge\": 1.0}, \"27\": {\"Cl\": 1.0}, \"28\": {\"Cl\": 1.0}, \"29\": {\"Cl\": 1.0}, \"30\": {\"K\": 1.0}, \"31\": {\"Ge\": 1.0}, \"32\": {\"Cl\": 1.0}, \"33\": {\"Cl\": 1.0}, \"34\": {\"Cl\": 1.0}, \"35\": {\"Cs\": 1.0}, \"36\": {\"Ge\": 1.0}, \"37\": {\"Cl\": 1.0}, \"38\": {\"Cl\": 1.0}, \"39\": {\"Cl\": 1.0}}" candidate_id=2dfe335d689cd7ee formula=Cs0.88K0.12GeCl3 config_index=2 rattle_stdev=0.08 method=PBE fidelity=phase2_force energy=-138.45339108048617 stress="-0.003718853928112556 0.0001204038495665883 6.444799076757588e-05 0.0001204038495665883 -0.0037934699456195855 0.00017390163786271467 6.444799076757588e-05 0.00017390163786271467 -0.0036111354153905034" pbc="T T T"
Cs      10.60949540      10.53238732      10.76131460        0       0.05342713       0.03867847      -0.23843007
Ge       2.55515567       2.64560867       2.53675017        1       0.58788891       0.31544018       0.13921987
Cl       2.73873318       2.63841208      10.59051438        2      -0.14479723       0.09555377       0.10742514
Cl       2.71446960       0.09607295       2.49299981        3      -0.10408319      -0.66326309       0.13112047
Cl      10.76683474       2.73025373       2.60806252        4      -0.66131440      -0.07487002      -0.03962899
Cs      10.58626278      10.54061946       5.27185888        5      -0.01551526      -0.00602502       0.12604298
Ge       2.61428061       2.76942580       7.91879455        6       0.47031540       0.16289715      -0.21307092
Cl       2.64365474       2.68612728       5.31562261        7      -0.03407140      -0.13294208       0.12646671
Cl       2.59608070      10.49461305       8.07297350        8      -0.00850613       0.05465020      -0.04408247
Cl      10.65152610       2.63507527       7.81689126        9      -0.15953612       0.05629744       0.15589558
Cs      10.55553312       5.22697489      10.62597709       10       0.07807232       0.04118981      -0.04325379
Ge       2.62937880       8.00921770       2.62147671       11       0.40891938      -0.31564902       0.07072263
Cl       2.67021518       7.82702761      10.57829369       12       0.01582513       0.00152009       0.51231515
Cl       2.77185508       5.23525641       2.77739518       13      -0.16190461       0.59940614      -0.22141380
Cl      10.50649355       7.90864786       2.63590669       14       0.50289192      -0.02020037      -0.01003333
Cs      10.59032162       5.31612626       5.31778838       15      -0.01157463       0.02291031      -0.01529657
Ge       2.65595183       8.05455282       8.00858447       16      -0.30340375      -0.18513850      -0.16973144
Cl       2.73534834       7.88015284       5.36788280       17      -0.12500624       0.18818174      -0.38894493
Cl       2.81516408       5.25085359       7.97905962       18      -0.16510640      -0.35614294       0.07317932
Cl      10.70466558       7.72014706       8.01334726       19       0.15035569       0.19923644      -0.01740993
Cs       5.39237299      10.47382653       0.06069128       20      -0.11837590       0.19124748      -0.14536469
Ge       7.90678909       2.48417088       2.62890848       21      -0.58243331       0.50412364       0.31229895
Cl       7.78962556       2.74776616      10.57425816       22       0.17826367      -0.00691625       0.06632383
Cl       8.01237626      10.54896701       2.61251215       23      -0.03289305       0.35262640       0.01451105
Cl       5.30068382       2.87656963       2.57334932       24       0.68328879      -0.39486249      -0.03444053
Cs       5.26702381      10.51494310       5.32638414       25       0.04237748       0.11047404       0.05104858
Ge       8.03689968       2.70383720       8.04221738       26      -0.58367614      -0.08554563      -0.25689161
Cl       7.81952546       2.73664547       5.29164525       27       0.17341735      -0.24529546      -0.22827339
Cl       7.97939077      10.53813490       8.15197209       28       0.04529407       0.48174270      -0.08213157
Cl       5.32660509       2.74866150       7.96779280       29       0.14317921      -0.13649574       0.04742009
K        5.22902548       5.24675140      10.63485466       30      -0.03109965      -0.08134143       0.00796439
Ge       7.98968547       7.86079831       2.46011351       31      -0.41919904      -0.38373305       0.60812439
Cl       7.96160299       7.88406171      10.60470731       32       0.01050145      -0.08500497       0.26937751
Cl       7.72677483       5.30029271       2.67701746       33       0.27445857       0.13415506      -0.19543924
Cl       5.34563528       8.07480277       2.60558919       34      -0.52827812      -0.06416051      -0.04865511
Cs       5.30948362       5.27297191       5.33913482       35      -0.01296943       0.01573846      -0.03895568
Ge       7.88174883       7.93867351       8.01662761       36       0.06960933       0.03310674      -0.76887116
Cl       7.82576536       7.93640220       5.37743517       37       0.16112865       0.11932609       0.03498570
Cl       7.89730041       5.40436176       7.90013902       38       0.10977558      -0.60871897       0.16793696
Cl       5.37853949       7.83837741       7.97400244       39       0.03904281       0.13481957       0.17129388
40
Lattice="10.618512442289868 0.0 0.0 0.0 10.618512442289767 0.0 0.0 -3.2358771238248957e-14 10.618512442289811" Properties=species:S:1:pos:R:3:spacegroup_kinds:I:1:forces:R:3 spacegroup="P 1" unit_cell=conventional occupancy="_JSON {\"0\": {\"Cs\": 1.0}, \"1\": {\"Ge\": 1.0}, \"2\": {\"Cl\": 1.0}, \"3\": {\"Cl\": 1.0}, \"4\": {\"Cl\": 1.0}, \"5\": {\"Cs\": 1.0}, \"6\": {\"Ge\": 1.0}, \"7\": {\"Cl\": 1.0}, \"8\": {\"Cl\": 1.0}, \"9\": {\"Cl\": 1.0}, \"10\": {\"Cs\": 1.0}, \"11\": {\"Ge\": 1.0}, \"12\": {\"Cl\": 1.0}, \"13\": {\"Cl\": 1.0}, \"14\": {\"Cl\": 1.0}, \"15\": {\"Cs\": 1.0}, \"16\": {\"Ge\": 1.0}, \"17\": {\"Cl\": 1.0}, \"18\": {\"Cl\": 1.0}, \"19\": {\"Cl\": 1.0}, \"20\": {\"Cs\": 1.0}, \"21\": {\"Ge\": 1.0}, \"22\": {\"Cl\": 1.0}, \"23\": {\"Cl\": 1.0}, \"24\": {\"Cl\": 1.0}, \"25\": {\"Cs\": 1.0}, \"26\": {\"Ge\": 1.0}, \"27\": {\"Cl\": 1.0}, \"28\": {\"Cl\": 1.0}, \"29\": {\"Cl\": 1.0}, \"30\": {\"K\": 1.0}, \"31\": {\"Ge\": 1.0}, \"32\": {\"Cl\": 1.0}, \"33\": {\"Cl\": 1.0}, \"34\": {\"Cl\": 1.0}, \"35\": {\"Cs\": 1.0}, \"36\": {\"Ge\": 1.0}, \"37\": {\"Cl\": 1.0}, \"38\": {\"Cl\": 1.0}, \"39\": {\"Cl\": 1.0}}" candidate_id=2dfe335d689cd7ee formula=Cs0.88K0.12GeCl3 config_index=3 rattle_stdev=0.08 method=PBE fidelity=phase2_force energy=-138.18462441580007 stress="-0.004105665253538749 0.00019343148953921433 0.0003298642244810795 0.00019343148953921433 -0.00422667061764031 0.00015034056997204664 0.0003298642244810795 0.00015034056997204664 -0.0032526709702937716" pbc="T T T"
Cs      10.51282896      10.77985267      10.62231760        0       0.15441547      -0.10839954      -0.01360148
Ge       2.65270064       2.67844414       2.71430527        1      -0.32748680      -0.42883555      -0.65579910
Cl       2.65413599       2.75098950      10.55651898        2       0.08131495      -0.07903492      -0.19618132
Cl       2.80313328      -0.01797444       2.51404858        3      -0.04877798      -0.22976057       0.08811718
Cl      10.56422962       2.56106213       2.51612155        4       0.22747250       0.15283422       0.18367413
Cs      10.60056871      10.55046756       5.24879701        5      -0.02842658       0.01394571       0.01202679
Ge       2.69276799       2.46729889       7.84734788        6       0.21514666       0.49313511       0.75392209
Cl       2.63379797       2.49499474       5.20712144        7      -0.01410462       0.04348635       0.24862779
Cl       2.74382659      10.51620572       7.93676023        8      -0.05866198       0.67535551       0.00626848
Cl      10.49832278       2.59557359       8.18132822        9       0.22737069       0.05515015      -0.28216153
Cs      10.58037022       5.38098934      10.47411738       10       0.08320782      -0.20299174       0.14777180
Ge       2.63241716       7.85083838       2.57312426       11       0.05284938       0.39249710      -0.14092280
Cl       2.82112935       7.89142332      10.56141672       12      -0.12734806      -0.06793872       0.79840557
Cl       2.69565686       5.25494583       2.72172177       13      -0.05402929       0.36788128      -0.02366353
Cl      10.47870662       7.98045802       2.59099013       14       1.20750471      -0.11682857       0.01837499
Cs      10.55781659       5.32301832       5.25667294       15      -0.00163929      -0.05948318       0.04821438
Ge       2.71592997       7.97740677       7.95126732       16      -0.04372376      -0.78679251      -0.10346783
Cl       2.81698831       7.94511945       5.40618355       17      -0.09179184       0.04573699      -0.45762778
Cl       2.76718231       5.36317591       7.97149560       18      -0.05092150      -0.18745205      -0.09498216
Cl      10.61056527       7.80098646       7.99401570       19      -0.31494776       0.16394963      -0.03928543
Cs       5.40516093      10.59727863      -0.05214397       20      -0.08846706       0.07377183       0.06728244
Ge       7.79507518       2.54849041       2.60611603       21       0.52911799       0.44030311      -0.07379870
Cl       7.87669011       2.76554929      10.66991447       22      -0.11071524      -0.09506502      -0.00006249
Cl       8.11956256      10.60492986       2.53744874       23      -0.28402354      -0.29392590       0.10251444
Cl       5.27377173       2.77634204       2.64014108       24      -0.16852559      -0.12425266       0.03450545
Cs       5.33154728      10.66027972       5.33466556       25       0.06833369      -0.08453064      -0.06521170
Ge       7.96496902       2.64048709       7.92352914       26       0.09114281      -0.15079114      -0.00899185
Cl       8.05130455       2.62170118       5.28055001       27      -0.05420863      -0.02249523       0.22385739
Cl       7.93447980      10.75285021       7.90564603       28       0.01306410      -0.84058005       0.09953846
Cl       5.27735805       2.67479272       8.06266703       29      -0.51351238      -0.11795712      -0.18436955
K        5.26307664       5.31495601      10.68788885       30      -0.01151076      -0.07069852      -0.06306322
Ge       7.97999083       7.92869933       2.69798934       31      -0.22262664      -0.21252580       0.16120677
Cl       7.92785897       7.87466833      10.67083879       32       0.05347461       0.00321788      -0.10359343
Cl       7.83815872       5.19530033       2.73999109       33       0.17115092       0.25161503      -0.07952580
Cl       5.54280227       7.85595056       2.53891041       34      -1.01617561       0.07321042       0.03903266
Cs       5.39369560       5.40091326       5.31890607       35      -0.05157751      -0.09031843       0.08199280
Ge       7.94779758       7.89083639       8.13107448       36       0.14353083      -0.04525837      -0.36758740
Cl       7.89172298       7.90327691       5.42227557       37       0.07432546       0.07782520      -0.06843136
Cl       7.85756130       5.12793090       8.06634824       38       0.02270797       1.06649025      -0.03828965
Cl       5.26731078       7.92644776       8.10563225       39       0.26750239       0.01624357      -0.05217119
