40
Lattice="12.329276270405618 0.0 0.0 0.0006616612549540709 12.422270823755738 0.0 -6.964530661375945e-05 0.0006194207452056958 12.582429601510078" Properties=species:S:1:pos:R:3:spacegroup_kinds:I:1:forces:R:3 spacegroup="P 1" unit_cell=conventional occupancy="_JSON {\"0\": {\"Cs\": 1.0}, \"1\": {\"Pb\": 1.0}, \"2\": {\"I\": 1.0}, \"3\": {\"I\": 1.0}, \"4\": {\"I\": 1.0}, \"5\": {\"Cs\": 1.0}, \"6\": {\"Pb\": 1.0}, \"7\": {\"I\": 1.0}, \"8\": {\"I\": 1.0}, \"9\": {\"I\": 1.0}, \"10\": {\"Cs\": 1.0}, \"11\": {\"Pb\": 1.0}, \"12\": {\"Cl\": 1.0}, \"13\": {\"Br\": 1.0}, \"14\": {\"I\": 1.0}, \"15\": {\"Cs\": 1.0}, \"16\": {\"Pb\": 1.0}, \"17\": {\"I\": 1.0}, \"18\": {\"Br\": 1.0}, \"19\": {\"I\": 1.0}, \"20\": {\"Cs\": 1.0}, \"21\": {\"Pb\": 1.0}, \"22\": {\"I\": 1.0}, \"23\": {\"I\": 1.0}, \"24\": {\"Cl\": 1.0}, \"25\": {\"Cs\": 1.0}, \"26\": {\"Pb\": 1.0}, \"27\": {\"I\": 1.0}, \"28\": {\"I\": 1.0}, \"29\": {\"Br\": 1.0}, \"30\": {\"Cs\": 1.0}, \"31\": {\"Pb\": 1.0}, \"32\": {\"I\": 1.0}, \"33\": {\"Cl\": 1.0}, \"34\": {\"Br\": 1.0}, \"35\": {\"Cs\": 1.0}, \"36\": {\"Pb\": 1.0}, \"37\": {\"I\": 1.0}, \"38\": {\"I\": 1.0}, \"39\": {\"Br\": 1.0}}" candidate_id=2bc077b4b8cf2918 formula=CsPbBr0.19Cl0.16I0.653 config_index=0 rattle_stdev=0.0 method=PBE fidelity=phase2_force energy=-119.38115136049072 stress="9.09491176941932e-05 -3.6672786571286786e-05 5.966771121203381e-06 -3.6672786571286786e-05 -0.00047608514711294873 -1.6898961667558635e-05 5.966771121203381e-06 -1.6898961667558635e-05 -0.0013614971484377197" pbc="T T T"
Cs      12.31805532       0.01400148       0.05937914        0      -0.00864153       0.00315953       0.00316494
Pb       3.32223555       3.22843950       3.13551168        1      -0.04791045       0.01183101      -0.00172453
I        3.28734336       3.29498542       0.00342412        2      -0.01554441      -0.00870644      -0.00133088
I        3.24374231      12.41518619       3.03614049        3      -0.00965194      -0.00149807      -0.00759883
I        0.00999454       3.27486093       3.15645356        4      -0.00632821       0.00342345       0.00017599
Cs       0.00638603      12.41987491       6.22567715        5      -0.01173285       0.00571226      -0.00625396
Pb       3.21688878       3.21064468       9.44633836        6       0.01994012      -0.01139823       0.00479542
I        3.27289288       3.26779034       6.28787864        7      -0.01203642      -0.01337032      -0.00006981
I        3.22794972      12.41494420       9.55186176        8      -0.02192331      -0.01114494       0.01203719
I        0.01026792       3.15181245       9.42564305        9       0.00782497      -0.00562452      -0.00240786
Cs       0.06722951       6.19559258       0.01268073       10       0.02638450      -0.00123369      -0.00008223
Pb       3.21000033       9.18609329       2.92444041       11       0.02354104      -0.02330200       0.04845350
Cl       3.23386780       9.15492224       0.00420652       12       0.01913632      -0.02779853       0.00404932
Br       3.21780982       6.21092157       3.05946162       13       0.02206333       0.02187859      -0.01905228
I        0.01010136       9.13776329       3.03555518       14       0.00205587      -0.00118488      -0.00923097
Cs       0.08576005       6.21735783       6.27423824       15       0.01771964      -0.00318359      -0.00354901
Pb       3.21433771       9.19613393       9.66816839       16       0.02424652       0.00050873      -0.04455709
I        3.21858903       9.16882220       6.28825875       17      -0.03176613       0.02734249      -0.00788443
Br       3.16684396       6.21396060       9.52108683       18       0.00805649       0.01466549       0.02147239
I        0.01588727       9.26174792       9.55434209       19       0.01837396       0.00583449       0.01430998
Cs       6.18056141      12.38081511       0.01276745       20       0.00371451      -0.01239776      -0.00791586
Pb       9.02319578       3.32706189       3.14690510       21       0.04695710      -0.05735689       0.01138891
I        9.05054724       3.20046955       0.01057099       22       0.00879474      -0.00986022      -0.01249416
I        9.09870173      12.41791462       3.15640408       23       0.00577591       0.00757194       0.00000718
Cl       6.16830004       3.32308849       3.14983703       24       0.00044568       0.03201362       0.00825084
Cs       6.15454288      12.35987329       6.27607574       25       0.00444950      -0.00523443       0.00665865
Pb       9.13426433       3.11828027       9.43613091       26       0.00094313       0.00550912      -0.01111575
I        9.06060532       3.19220985       6.28077884       27       0.00487150      -0.00805503       0.01294928
I        9.11082153      12.41921880       9.42595227       28       0.00459687       0.00048643      -0.00530859
Br       6.16942976       3.13218337       9.43046662       29      -0.02574947      -0.00663686      -0.00870980
Cs       6.10229833       6.27199243       0.02444707       30      -0.01496156       0.02422888       0.01693690
Pb       9.12902431       9.06518975       3.13583569       31      -0.00973677       0.05765874      -0.00140641
I        9.07373131       9.22389376       0.00919873       32       0.01129875       0.01392437      -0.01050005
Cl       9.04237027       6.20727846       3.14868411       33      -0.02487536       0.00244345       0.00750810
Br       6.16652814       9.17637408       3.06238574       34      -0.02354185      -0.02885802      -0.01692148
Cs       6.12718448       6.24592431       6.26400603       35       0.00635972      -0.00099492      -0.02105971
Pb       9.15194984       9.30154201       9.44500841       36       0.00220942      -0.01028229       0.00757983
I        9.10541751       9.23415642       6.28235113       37       0.01969959       0.00852004       0.00805593
I        9.03716957       6.21161209       9.43005449       38      -0.00331520      -0.00187831      -0.00921567
Br       6.16897345       9.27720556       9.52026647       39      -0.04166013       0.00545283       0.02099330
40
Lattice="12.329276270405618 0.0 0.0 0.0006616612549540709 12.422270823755738 0.0 -6.964530661375945e-05 0.0006194207452056958 12.582429601510078" Properties=species:S:1:pos:R:3:spacegroup_kinds:I:1:forces:R:3 spacegroup="P 1" unit_cell=conventional occupancy="_JSON {\"0\": {\"Cs\": 1.0}, \"1\": {\"Pb\": 1.0}, \"2\": {\"I\": 1.0}, \"3\": {\"I\": 1.0}, \"4\": {\"I\": 1.0}, \"5\": {\"Cs\": 1.0}, \"6\": {\"Pb\": 1.0}, \"7\": {\"I\": 1.0}, \"8\": {\"I\": 1.0}, \"9\": {\"I\": 1.0}, \"10\": {\"Cs\": 1.0}, \"11\": {\"Pb\": 1.0}, \"12\": {\"Cl\": 1.0}, \"13\": {\"Br\": 1.0}, \"14\": {\"I\": 1.0}, \"15\": {\"Cs\": 1.0}, \"16\": {\"Pb\": 1.0}, \"17\": {\"I\": 1.0}, \"18\": {\"Br\": 1.0}, \"19\": {\"I\": 1.0}, \"20\": {\"Cs\": 1.0}, \"21\": {\"Pb\": 1.0}, \"22\": {\"I\": 1.0}, \"23\": {\"I\": 1.0}, \"24\": {\"Cl\": 1.0}, \"25\": {\"Cs\": 1.0}, \"26\": {\"Pb\": 1.0}, \"27\": {\"I\": 1.0}, \"28\": {\"I\": 1.0}, \"29\": {\"Br\": 1.0}, \"30\": {\"Cs\": 1.0}, \"31\": {\"Pb\": 1.0}, \"32\": {\"I\": 1.0}, \"33\": {\"Cl\": 1.0}, \"34\": {\"Br\": 1.0}, \"35\": {\"Cs\": 1.0}, \"36\": {\"Pb\": 1.0}, \"37\": {\"I\": 1.0}, \"38\": {\"I\": 1.0}, \"39\": {\"Br\": 1.0}}" candidate_id=2bc077b4b8cf2918 formula=CsPbBr0.19Cl0.16I0.653 config_index=1 rattle_stdev=0.08 method=PBE fidelity=phase2_force energy=-118.7249885616495 stress="-0.001305945819697978 -5.6916687998782445e-05 -7.968955423724605e-05 -5.6916687998782445e-05 -0.0015863206312937324 -0.00014242274034962285 -7.968955423724605e-05 -0.00014242274034962285 -0.0035932205369431556" pbc="T T T"
Cs      12.23113961      -0.05768373       0.03487519        0      -0.05193309       0.03974627       0.04033080
Pb       3.21504086       3.13191266       3.08417354        1       0.18837018       0.27830290       0.29405608
I        3.39197901       3.44262225       0.06975331        2      -0.12786367      -0.12463606      -0.11765590
I        3.24187841      12.39850107       2.96281091        3      -0.01673056       0.01891083      -0.00389396
I       -0.07598487       3.26796945       3.25052065        4       0.38273212      -0.00501955       0.00494847
Cs      -0.12442131      12.51813043       6.31178805        5       0.02049849       0.04783336      -0.05815773
Pb       3.24847061       3.17962861       9.49341050        6       0.09398829       0.00149918      -0.06764655
I        3.15822898       3.24190437       6.38811741        7       0.01990217      -0.00178374      -0.25465006
I        3.16949031      12.52922301       9.62743407        8      -0.03678647      -0.46130667       0.02028843
I       -0.01085230       3.13875538       9.34851447        9       0.13078451       0.00121539       0.01886215
Cs       0.03981772       6.19950491      -0.02728983       10       0.00798778      -0.03989697       0.03048965
Pb       3.03304797       9.21088023       2.79726831       11       0.85996567      -0.27615209      -0.09974288
Cl       3.29222417       9.14629014      -0.04780720       12      -0.05908665      -0.00648701       0.00811301
Br       3.08236530       6.18144364       2.93223188       13       0.00937607       0.06509579       0.05034814
I        0.12854183       9.17571851       3.10866429       14      -0.80646769       0.01082930       0.04167716
Cs       0.16259767       6.22412124       6.41161672       15       0.03518732      -0.03857618      -0.02030560
Pb       3.28248912       9.13574311       9.48515805       16       0.22968779       0.10353096       0.06758824
I        3.22732813       9.13280955       6.25522096       17      -0.04525014       0.03121307       0.08815270
Br       3.19236267       6.17067197       9.59698015       18      -0.01703111       0.34654273      -0.02157329
I        0.02800208       9.26790012       9.54959006       19       0.35121692       0.01181425       0.02175915
Cs       6.17495031      12.33552318       0.03764788       20       0.02959709       0.00457456       0.01004888
Pb       9.08113248       3.36837789       3.22898756       21      -0.26662285      -0.23746788      -0.56966951
I        9.09215945       3.13088247       0.13061620       22       0.05430312       0.00263868      -0.51613042
I        9.19201950      12.45726778       3.09782310       23       0.00275826      -0.08698990       0.11952449
Cl       6.22272452       3.36380824       3.08283414       24      -0.30192468       0.00896940       0.06977695
Cs       6.20635447      12.36087645       6.40084287       25      -0.04080998      -0.00336389      -0.02503602
Pb       9.21703196       3.14529569       9.33192208       26      -0.19842386       0.29813548       0.40764235
I        8.97112178       3.29697106       6.23932148       27      -0.03073651      -0.06516376       0.49330305
I        9.07937158      12.50265628       9.43192949       28       0.00209979      -0.21235216      -0.00633337
Br       6.17658472       3.13649596       9.46394238       29      -0.01840529      -0.00484487      -0.01749244
Cs       6.00407993       6.18482911       0.04981702       30       0.11277836       0.09474634       0.05068832
Pb       9.06659186       8.99669927       3.03024598       31      -0.14380055       0.22722262       0.41460091
I        9.11003384       9.30403575       0.12229750       32       0.03416367       0.00085317      -0.57628168
Cl       9.02715564       6.20968730       2.99881078       33       0.00979122       0.08708236       0.00676583
Br       6.15718598       9.16617485       3.13456048       34       0.14634099      -0.04009622       0.01253345
Cs       6.02203470       6.23796025       6.27525002       35       0.00627642      -0.02458471      -0.03500281
Pb       9.36225431       9.44200432       9.23415659       36      -0.48398265      -0.35740111       1.08562602
I        9.00248595       9.22041864       6.42638742       37      -0.01517800       0.02529806      -1.08793281
I        9.08586522       6.21413414       9.31274152       38       0.00640345       0.28024764       0.08961570
Br       6.19372871       9.36858299       9.47939894       39      -0.07776301       0.00479459       0.03456093
40
Lattice="12.329276270405618 0.0 0.0 0.0006616612549540709 12.422270823755738 0.0 -6.964530661375945e-05 0.0006194207452056958 12.582429601510078" Properties=species:S:1:pos:R:3:spacegroup_kinds:I:1:forces:R:3 spacegroup="P 1" unit_cell=conventional occupancy="_JSON {\"0\": {\"Cs\": 1.0}, \"1\": {\"Pb\": 1.0}, \"2\": {\"I\": 1.0}, \"3\": {\"I\": 1.0}, \"4\": {\"I\": 1.0}, \"5\": {\"Cs\": 1.0}, \"6\": {\"Pb\": 1.0}, \"7\": {\"I\": 1.0}, \"8\": {\"I\": 1.0}, \"9\": {\"I\": 1.0}, \"10\": {\"Cs\": 1.0}, \"11\": {\"Pb\": 1.0}, \"12\": {\"Cl\": 1.0}, \"13\": {\"Br\": 1.0}, \"14\": {\"I\": 1.0}, \"15\": {\"Cs\": 1.0}, \"16\": {\"Pb\": 1.0}, \"17\": {\"I\": 1.0}, \"18\": {\"Br\": 1.0}, \"19\": {\"I\": 1.0}, \"20\": {\"Cs\": 1.0}, \"21\": {\"Pb\": 1.0}, \"22\": {\"I\": 1.0}, \"23\": {\"I\": 1.0}, \"24\": {\"Cl\": 1.0}, \"25\": {\"Cs\": 1.0}, \"26\": {\"Pb\": 1.0}, \"27\": {\"I\": 1.0}, \"28\": {\"I\": 1.0}, \"29\": {\"Br\": 1.0}, \"30\": {\"Cs\": 1.0}, \"31\": {\"Pb\": 1.0}, \"32\": {\"I\": 1.0}, \"33\": {\"Cl\": 1.0}, \"34\": {\"Br\": 1.0}, \"35\": {\"Cs\": 1.0}, \"36\": {\"Pb\": 1.0}, \"37\": {\"I\": 1.0}, \"38\": {\"I\": 1.0}, \"39\": {\"Br\": 1.0}}" candidate_id=2bc077b4b8cf2918 formula=CsPbBr0.19Cl0.16I0.653 config_index=2 rattle_stdev=0.08 method=PBE fidelity=phase2_force energy=-118.84616249722724 stress="-0.0006642609487042549 -5.9616328135278484e-05 5.798959649218574e-05 -5.9616328135278484e-05 -0.0017103225360527137 -3.2775025617880705e-05 5.798959649218574e-05 -3.2775025617880705e-05 -0.002257426622245402" pbc="T T T"
Cs      12.30903827      -0.07212364       0.20218129        0       0.00156423       0.00159501      -0.05602660
Pb       3.20567689       3.20233384       3.03471997        1       0.40531341       0.29151279       0.26083907
I        3.31741268       3.22473363      -0.02457394        2      -0.04699998       0.01269465      -0.07734595
I        3.26747513      12.51125914       2.91062087        3      -0.04292639      -0.58331928       0.02378880
I        0.15831684       3.31437787       3.14599665        4      -0.60447575      -0.01420768      -0.03348950
Cs      -0.02586363      12.34198193       6.18827981        5      -0.02205707      -0.00448739       0.04300337
Pb       3.15945506       3.30835614       9.38416236        6       0.40880040      -0.09323354       0.01170445
I        3.22581083       3.26318083       6.29424503        7       0.00054761      -0.09151681      -0.14427623
I        3.13329364      12.29104481       9.62484225        8      -0.00241935       0.44113212       0.02192635
I        0.04328158       3.09615093       9.24254130        9      -0.14716893       0.00391448       0.02666593
Cs       0.00425019       6.11331125       0.02014538       10       0.05529983       0.01673648      -0.04198685
Pb       3.16766480       9.24851287       2.90837524       11       0.28353614      -0.25893945       0.12496490
Cl       3.19541911       9.07210127      -0.03601223       12       0.02712168      -0.00639007       0.33263219
Br       3.28100103       6.13692176       3.23626444       13      -0.02148099       0.50529831      -0.09423439
I       -0.10191754       9.11863550       3.05294244       14       0.57705903       0.01209703       0.01062057
Cs       0.05756923       6.22422788       6.28277040       15       0.02473373       0.00683579       0.02215186
Pb       3.19857521       9.30388864       9.69578231       16       0.02688043      -0.40192061      -0.16219854
I        3.26320059       9.12119939       6.34688533       17      -0.08010955       0.11332062      -0.25166545
Br       3.27334418       6.15555797       9.48222637       18      -0.01315944       0.04680874       0.03172020
I        0.10204041       9.05411933       9.56769634       19      -0.14254202      -0.00907242       0.01622324
Cs       6.26367818      12.23612920       0.07345872       20      -0.02715820       0.01909607      -0.04311440
Pb       8.98318675       3.13951843       3.13827169       21      -0.22374856       0.25558452       0.14918146
I        8.93032422       3.23957184      -0.03368330       22       0.05647386       0.02402688       0.17573360
I        9.18330233      12.34836919       3.15039679       23       0.01812451       0.15390846      -0.01957035
Cl       6.15972764       3.49099426       3.12259400       24       0.31447746      -0.12979939      -0.02498193
Cs       6.11231047      12.25630395       6.29320366       25       0.02131721      -0.01391029       0.03494145
Pb       9.22436590       3.15040314       9.49737774       26      -0.35327593      -0.05767375      -0.29176343
I        8.95235513       3.23811853       6.26316787       27       0.05480238      -0.07485542      -0.01578106
I        9.16243665      12.33884125       9.57793136       28       0.03802072       0.60954027       0.01847433
Br       6.18677862       3.17218100       9.38033934       29       0.02888122      -0.04896662      -0.00083149
Cs       6.02206760       6.20948761       0.04078929       30      -0.01638834      -0.00546981       0.02604690
Pb       9.17191167       8.97918995       2.95840731       31      -0.46478099      -0.16527059       0.77243398
I        9.12548573       9.19810690      -0.00460641       32       0.01354163      -0.02134690      -0.05989661
Cl       8.85929653       6.19831495       3.22510922       33       0.10096575      -0.04564400      -0.08869692
Br       6.20290719       9.34132827       3.06738257       34      -0.39841501       0.03319817      -0.07967034
Cs       6.12741187       6.20964000       6.29388463       35      -0.00087435      -0.01904178      -0.05131644
Pb       9.08690056       9.29341741       9.48066547       36       0.27752206       0.10488942      -0.40814930
I        9.00340722       9.24278297       6.35053008       37       0.08226914       0.08780416      -0.26570486
I        9.02462140       6.30671763       9.31227342       38       0.05363544      -0.75220568       0.02714157
Br       6.23825672       9.20573440       9.47634883       39      -0.26125008       0.05857263       0.07985848
40
Lattice="12.329276270405618 0.0 0.0 0.0006616612549540709 12.422270823755738 0.0 -6.964530661375945e-05 0.0006194207452056958 12.582429601510078" Properties=species:S:1:pos:R:3:spacegroup_kinds:I:1:forces:R:3 spacegroup="P 1" unit_cell=conventional occupancy="_JSON {\"0\": {\"Cs\": 1.0}, \"1\": {\"Pb\": 1.0}, \"2\": {\"I\": 1.0}, \"3\": {\"I\": 1.0}, \"4\": {\"I\": 1.0}, \"5\": {\"Cs\": 1.0}, \"6\": {\"Pb\": 1.0}, \"7\": {\"I\": 1.0}, \"8\": {\"I\": 1.0}, \"9\": {\"I\": 1.0}, \"10\": {\"Cs\": 1.0}, \"11\": {\"Pb\": 1.0}, \"12\": {\"Cl\": 1.0}, \"13\": {\"Br\": 1.0}, \"14\": {\"I\": 1.0}, \"15\": {\"Cs\": 1.0}, \"16\": {\"Pb\": 1.0}, \"17\": {\"I\": 1.0}, \"18\": {\"Br\": 1.0}, \"19\": {\"I\": 1.0}, \"20\": {\"Cs\": 1.0}, \"21\": {\"Pb\": 1.0}, \"22\": {\"I\": 1.0}, \"23\": {\"I\": 1.0}, \"24\": {\"Cl\": 1.0}, \"25\": {\"Cs\": 1.0}, \"26\": {\"Pb\": 1.0}, \"27\": {\"I\": 1.0}, \"28\": {\"I\": 1.0}, \"29\": {\"Br\": 1.0}, \"30\": {\"Cs\": 1.0}, \"31\": {\"Pb\": 1.0}, \"32\": {\"I\": 1.0}, \"33\": {\"Cl\": 1.0}, \"34\": {\"Br\": 1.0}, \"35\": {\"Cs\": 1.0}, \"36\": {\"Pb\": 1.0}, \"37\": {\"I\": 1.0}, \"38\": {\"I\": 1.0}, \"39\": {\"Br\": 1.0}}" candidate_id=2bc077b4b8cf2918 formula=CsPbBr0.19Cl0.16I0.653 config_index=3 rattle_stdev=0.08 method=PBE fidelity=phase2_force energy=-118.64725473766052 stress="-0.0015908645063100687 0.00013823046160105445 7.57152978267057e-05 0.00013823046160105445 -0.0017422998446484169 0.00017211758490135452 7.57152978267057e-05 0.00017211758490135452 -0.002233549683472469" pbc="T T T"
Cs      12.21237184       0.17534171       0.06318429        0       0.00422471       0.06835889       0.03870321
Pb       3.30322186       3.23516932       3.21227506        1      -0.27848709      -0.26508056      -0.79855637
I        3.23281548       3.33731105      -0.05856934        2      -0.01386106      -0.02279724      -0.05595644
I        3.35613881      12.39721175       2.93166963        3       0.00008711      -0.19439626       0.00861286
I       -0.04428828       3.14518626       3.05405568        4       0.14427521       0.04848700       0.04220515
Cs      -0.01155771      12.35183003       6.16521794        5      -0.04105419       0.02547125      -0.03210267
Pb       3.23794244       3.00622923       9.31271569        6       0.00296424       0.40905658       0.52085989
I        3.21595407       3.07204829       6.18574385        7      -0.03311882      -0.02808200       0.42823766
I        3.28103953      12.31263748       9.48862898        8      -0.04172647       0.42462794      -0.00303281
I       -0.10992175       3.05664925       9.60697826        9       0.45226704       0.01798100      -0.01574872
Cs       0.02908728       6.26732571      -0.13171433       10       0.03390355      -0.10257447      -0.01346491
Pb       3.17070316       9.09013356       2.86002279       11       0.10102004       0.28742225       0.04369715
Cl       3.34633329       9.13649699      -0.05288920       12      -0.02424778      -0.07305749       0.42604713
Br       3.20480281       6.15661117       3.18059103       13      -0.00429877       0.27185726       0.00548890
I       -0.12970447       9.19044566       3.00802588       14       1.07068391      -0.02258467      -0.02634214
Cs       0.02506420       6.23111994       6.22165496       15      -0.01019349      -0.01800789       0.00313714
Pb       3.25855334       9.22674259       9.63846516       16      -0.15532272      -0.54487001      -0.09205308
I        3.34484055       9.18616600       6.38518609       17      -0.07334454       0.04534705      -0.34463183
Br       3.22536241       6.26788029       9.47466234       18      -0.00686729      -0.25062994      -0.02156995
I        0.00794011       9.13495873       9.54836478       19      -0.11332625       0.02783429      -0.00940496
Cs       6.27646611      12.35958129      -0.03937652       20      -0.02988858       0.01110253      -0.01006006
Pb       8.87147285       3.20383797       3.11547924       21       0.39963865       0.17731645       0.08380571
I        9.01738877       3.25735497       0.06197302       22      -0.01903425      -0.02881695      -0.27063329
I        9.29048864      12.40433203       3.07533338       23      -0.08264981      -0.18716399       0.02588862
Cl       6.13281554       3.39076667       3.18938576       24      -0.17984873       0.00211891       0.03650388
Cs       6.17683394      12.40164057       6.30148508       25       0.02135253      -0.04244547       0.00172198
Pb       9.15243524       3.08705303       9.37868950       26      -0.12176276      -0.02393194       0.07175501
I        9.18413421       3.12317425       6.25207264       27       0.02241164      -0.00277402       0.11936038
I        9.11752567      12.55355656       9.33160530       28      -0.01860607      -1.17486231       0.04564102
Br       6.13753159       3.09831222       9.47521357       29      -0.21045089      -0.04769593      -0.06571441
Cs       6.05611876       6.27769222       0.09382348       30      -0.01081497      -0.02153030      -0.03852301
Pb       9.16221703       9.04709097       3.19628314       31      -0.06196770      -0.16284838       0.23172421
I        9.09174170       9.18871352       0.06152507       32       0.03544814       0.00759777       0.05769501
Cl       8.97068041       6.09332256       3.28808284       33       0.02635137       0.18538077       0.00882468
Br       6.40007419       9.12247606       3.00070379       34      -1.12252908       0.00642169      -0.02573788
Cs       6.21162386       6.33758135       6.27365587       35       0.00894520      -0.03713896      -0.01161532
Pb       9.15294931       9.24558029       9.59511234       36       0.02940175       0.00029425      -0.29687632
I        9.06936484       9.20965768       6.39537048       37       0.03843167       0.03214828      -0.10411008
I        8.98488229       6.03028677       9.47848265       38      -0.03153467       1.18732823       0.00715461
Br       6.12702801       9.29380474       9.60797864       39       0.28878895       0.01620766       0.03407667
