40
Lattice="12.522722495661755 0.0 0.0 0.0 12.522628529651648 0.0 0.0 -3.8161359615564244e-14 12.522628529651563" Properties=species:S:1:pos:R:3:spacegroup_kinds:I:1:forces:R:3 spacegroup="P 1" unit_cell=conventional candidate_id=6cc3b0105293d9d1 formula=FA0.46Rb0.54SnI3 config_index=0 rattle_stdev=0.0 method=PBE fidelity=phase2_force energy=-111.4950098251489 stress="0.00014593054517644187 0.0 0.0 0.0 0.00014671237828333723 4.470901468064915e-19 0.0 4.470901468064915e-19 0.00014667883994026957" pbc="T T T"
Cs       0.00000000      -0.00000000       0.00000000        0       0.00000000       0.00000000       0.00000000
Sn       3.13068062       3.14048816       3.12082611        1       0.00021578      -0.01949508       0.01991325
I        3.14301713       3.16666975       0.00000000        2      -0.00046340      -0.00621862       0.00000000
I        3.14894566      -0.00000000       3.09162964        3       0.00075820      -0.00000000       0.00925939
I        0.00000000       3.18336592       3.10829369        4       0.00000000      -0.00763418       0.00790312
Cs       0.00000000      12.52262853       6.26131426        5       0.00000000       0.00000000       0.00000000
Sn       3.13068062       3.14048816       9.40180242        6       0.00021578      -0.01949508      -0.01991325
I        3.11241559       3.16968463       6.26131426        7      -0.00076484      -0.00926176       0.00000000
I        3.14894566      -0.00000000       9.43099889        8       0.00075820       0.00000000      -0.00925939
I        0.00000000       3.18336592       9.41433484        9      -0.00000000      -0.00763418      -0.00790312
Rb      12.52272250       6.26131426       0.00000000       10       0.00000000       0.00000000       0.00000000
Sn       3.13068062       9.38214037       3.12082611       11       0.00021578       0.01949508       0.01991325
I        3.14301713       9.35595878       0.00000000       12      -0.00046340       0.00621862       0.00000000
I        3.11834412       6.26131426       3.09464452       13       0.00045925      -0.00000000       0.00621402
I        0.00000000       9.33926261       3.10829369       14      -0.00000000       0.00763418       0.00790312
Rb      12.52272250       6.26131426       6.26131426       15      -0.00000000       0.00000000       0.00000000
Sn       3.13068062       9.38214037       9.40180242       16       0.00021578       0.01949508      -0.01991325
I        3.11241559       9.35294390       6.26131426       17      -0.00076484       0.00926176       0.00000000
I        3.11834412       6.26131426       9.42798401       18       0.00045925       0.00000000      -0.00621402
I        0.00000000       9.33926261       9.41433484       19       0.00000000       0.00763418      -0.00790312
Rb       6.26136125      12.52262853      12.52262853       20       0.00000000       0.00000000       0.00000000
Sn       9.39204187       3.14048816       3.12082611       21      -0.00021578      -0.01949508       0.01991325
I        9.37970537       3.16666975       0.00000000       22       0.00046340      -0.00621862       0.00000000
I        9.37377683      -0.00000000       3.09162964       23      -0.00075820      -0.00000000       0.00925939
I        6.26136125       3.15302057       3.07794835       24       0.00000000      -0.00790499       0.00762746
Cs       6.26136125      12.52262853       6.26131426       25       0.00000000       0.00000000       0.00000000
Sn       9.39204187       3.14048816       9.40180242       26      -0.00021578      -0.01949508      -0.01991325
I        9.41030691       3.16968463       6.26131426       27       0.00076484      -0.00926176       0.00000000
I        9.37377683      -0.00000000       9.43099889       28      -0.00075820       0.00000000      -0.00925939
I        6.26136125       3.15302057       9.44468018       29       0.00000000      -0.00790499      -0.00762746
Rb       6.26136125       6.26131426       0.00000000       30      -0.00000000       0.00000000       0.00000000
Sn       9.39204187       9.38214037       3.12082611       31      -0.00021578       0.01949508       0.01991325
I        9.37970537       9.35595878       0.00000000       32       0.00046340       0.00621862       0.00000000
I        9.40437838       6.26131426       3.09464452       33      -0.00045925      -0.00000000       0.00621402
I        6.26136125       9.36960796       3.07794835       34       0.00000000       0.00790499       0.00762746
Cs       6.26136125       6.26131426       6.26131426       35       0.00000000       0.00000000       0.00000000
Sn       9.39204187       9.38214037       9.40180242       36      -0.00021578       0.01949508      -0.01991325
I        9.41030691       9.35294390       6.26131426       37       0.00076484       0.00926176       0.00000000
I        9.40437838       6.26131426       9.42798401       38      -0.00045925       0.00000000      -0.00621402
I        6.26136125       9.36960796       9.44468018       39       0.00000000       0.00790499      -0.00762746
40
Lattice="12.522722495661755 0.0 0.0 0.0 12.522628529651648 0.0 0.0 -3.8161359615564244e-14 12.522628529651563" Properties=species:S:1:pos:R:3:spacegroup_kinds:I:1:forces:R:3 spacegroup="P 1" unit_cell=conventional candidate_id=6cc3b0105293d9d1 formula=FA0.46Rb0.54SnI3 config_index=1 rattle_stdev=0.08 method=PBE fidelity=phase2_force energy=-111.01814643642487 stress="-0.0015956548816230748 5.2218527170968046e-05 3.094765889835166e-05 5.2218527170968046e-05 -0.0008807603749167232 -8.134198812255462e-05 3.094765889835166e-05 -8.134198812255462e-05 -0.0020634884584467953" pbc="T T T"
Cs      -0.08691571      -0.07168521      -0.02450395        0      -0.01179045       0.03604799       0.02645913
Sn       3.02348593       3.04396131       3.06948796        1       0.26489982       0.23458395       0.17518572
I        3.24765278       3.31430658       0.06632920        2      -0.07192183      -0.06725754      -0.03218111
I        3.14708176      -0.01668512       3.01830006        3       0.00483856       0.03087522      -0.01076249
I       -0.08597941       3.17647444       3.20236078        4       0.45696447      -0.01492010       0.00888112
Cs      -0.13080734      12.62088405       6.34742517        5       0.03608104       0.03271488      -0.03551939
Sn       3.16226245       3.10947209       9.44887456        6       0.10624331      -0.03124466      -0.16556648
I        2.99775168       3.14379865       6.36155304        7       0.05762423       0.01154096      -0.13497385
I        3.09048625       0.11427881       9.50657121        8      -0.00241762      -0.40923450       0.00030950
I       -0.02112022       3.17030885       9.33720625        9       0.06605507       0.00149384       0.03080341
Rb      12.49531071       6.26522659      -0.03997056       10      -0.00448751      -0.02945492       0.01671280
Sn       2.95372826       9.40692732       2.99365401       11       0.68381014      -0.22813452      -0.10373435
I        3.20137350       9.34732668      -0.05201372       12      -0.04389866       0.03584001       0.02701780
I        2.98289960       6.23183634       2.96741478       13       0.00870301       0.04291250       0.07546651
I        0.11844047       9.37721783       3.18140280       14      -0.75652744       0.02217868       0.03586338
Rb      12.59956012       6.26807767       6.39869274       15       0.02882682      -0.04327938       0.00472269
Sn       3.19883204       9.32174955       9.21879208       16       0.24821992       0.05993198       0.23405306
I        3.12115468       9.31693125       6.22827647       17       0.00311488      -0.01182887      -0.04445762
I        3.14386282       6.21802563       9.50387733       18      -0.01440328       0.39046301      -0.06328295
I        0.01211480       9.34541481       9.40958280       19       0.25980014       0.01945391      -0.01936712
Rb       6.25575015      12.47733661      12.54750896       20       0.01086656       0.01275179       0.02269598
Sn       9.44997858       3.18180416       3.20290856       21      -0.40836770      -0.24934378      -0.44512329
I        9.42131757       3.09708266       0.12004521       22       0.04938165       0.02264874      -0.37620685
I        9.46709461       0.03935316       3.03304866       23      -0.01606646      -0.09594374       0.11941522
I        6.31578574       3.19374032       3.01094545       24      -0.29507703      -0.01917133       0.07333528
Cs       6.31317284      12.52363169       6.38608139       25      -0.02863968       0.01525164      -0.02524733
Sn       9.47480950       3.16750357       9.29759359       26      -0.15240432       0.22748614       0.27417704
I        9.32082337       3.27444584       6.21985690       27      -0.01586720      -0.04571562       0.40090796
I        9.34232689       0.08343748       9.43697611       28       0.04173770      -0.17540760      -0.06401992
I        6.26851621       3.15733316       9.47815594       29      -0.04877381      -0.00868485      -0.02208708
Rb       6.16314284       6.17415094       0.02536995       30      -0.00837114      -0.02716111       0.03261873
Sn       9.32960943       9.31364989       3.01523640       31      -0.20687464       0.21998709       0.12901866
I        9.41600790       9.43610077       0.11309877       32       0.00184093      -0.00710483      -0.24575198
I        9.38916375       6.26372311       2.94477118       33       0.02641990       0.10879955       0.01578369
I        6.25201909       9.35940873       3.15012309       34       0.27549084       0.00120860       0.00264244
Cs       6.15621147       6.25335021       6.27255825       35      -0.00892439      -0.02180209      -0.01210538
Sn       9.60234635       9.52260268       9.19095060       36      -0.46661703      -0.22176046       0.75262997
I        9.30737535       9.33920612       6.40535056       37       0.04307024       0.04447548      -0.76219465
I        9.45307403       6.26383631       9.31067104       38       0.01768957       0.13094645       0.05370041
I        6.28611651       9.46098539       9.40381265       39      -0.12296112      -0.00100953       0.00307257
40
Lattice="12.522722495661755 0.0 0.0 0.0 12.522628529651648 0.0 0.0 -3.8161359615564244e-14 12.522628529651563" Properties=species:S:1:pos:R:3:spacegroup_kinds:I:1:forces:R:3 spacegroup="P 1" unit_cell=conventional candidate_id=6cc3b0105293d9d1 formula=FA0.46Rb0.54SnI3 config_index=2 rattle_stdev=0.08 method=PBE fidelity=phase2_force energy=-111.045625178659 stress="-0.0010872308057636572 2.6664687529394654e-05 -1.2857149362495005e-05 2.6664687529394654e-05 -0.0011865740476788465 -1.427440905883564e-05 -1.2857149362495005e-05 -1.427440905883564e-05 -0.000820732634707233" pbc="T T T"
Cs      -0.00901704      -0.08612512       0.14280215        0       0.02293425      -0.00567161      -0.06372199
Sn       3.01412196       3.11438249       3.02003439        1       0.61553856       0.22009855       0.11430708
I        3.17308645       3.09641796      -0.02799806        2      -0.05201437       0.04856775      -0.00052765
I        3.17267848       0.09607295       2.96611002        3      -0.01881958      -0.52523016       0.04622478
I        0.14832230       3.22288286       3.09783678        4      -0.83176460       0.01457066      -0.03449173
Cs      -0.03224966      12.44473555       6.22391692        5      -0.01275014      -0.01211021       0.05057211
Sn       3.07324691       3.23819962       9.33962642        6       0.34684207      -0.05278501      -0.05935113
I        3.06533353       3.16507512       6.26768066        7       0.02275818      -0.08695723      -0.04293514
I        3.05428958      -0.12389940       9.50397939        8       0.00347704       0.36286788      -0.01528564
I        0.03301366       3.12770440       9.23123308        9      -0.13844281       0.02178721       0.04806432
Rb      12.45974317       6.17903293       0.00746465       10       0.01595419       0.02269398      -0.02099588
Sn       3.08834509       9.44455996       3.10476093       11       0.21020575      -0.18169567       0.04790634
I        3.10456844       9.27313781      -0.04021875       12       0.01511340      -0.04506553       0.35679271
I        3.18153533       6.18731446       3.27144734       13      -0.02386379       0.45545870      -0.06165234
I       -0.11201889       9.32013482       3.12568095       14       0.50814566      -0.00516771       0.02964394
Rb      12.49453167       6.26818431       6.26984642       15      -0.00266583       0.01223673       0.02104842
Sn       3.11491813       9.48989508       9.42941634       16      -0.08717383      -0.28088115      -0.12381009
I        3.15702714       9.30532109       6.31994084       17      -0.02485800       0.07899292      -0.28843520
I        3.22484433       6.20291163       9.38912355       18      -0.01833125      -0.02878543       0.03166460
I        0.08615314       9.13163402       9.42768909       19      -0.06987483       0.02420322      -0.01674968
Rb       6.34447802      12.37794262      12.58331981       20      -0.01560212       0.01720993      -0.01126368
Sn       9.35203285       2.95294470       3.11219269       21      -0.23828153       0.33492969       0.15158506
I        9.25948235       3.20577204      -0.04425428       22       0.08515377       0.03192428       0.14481876
I        9.45837744      -0.06954543       3.08562235       23       0.00259002       0.13118586      -0.00010624
I        6.25278885       3.32092633       3.05070531       24       0.34939662      -0.14743204       0.00193531
Cs       6.21912884      12.41905918       6.27844219       25       0.01881830       0.01025892       0.01901701
Sn       9.48214344       3.17261102       9.46304925       26      -0.35155437      -0.07256212      -0.22397721
I        9.30205671       3.21559331       6.24370329       27       0.04880729      -0.09087037      -0.09607243
I        9.42539195      -0.08037754       9.58297798       28       0.01995942       0.39746760      -0.00701095
I        6.27871011       3.19301820       9.39455290       29       0.05721248      -0.06226016      -0.00816640
Rb       6.18113051       6.19880945       0.01634222       30      -0.02141711      -0.05118392       0.00872410
Sn       9.43492923       9.29614058       2.94339773       31      -0.35553908      -0.20535900       0.48700851
I        9.43145978       9.33017192      -0.01380513       32       0.01197086      -0.03315472       0.05142474
I        9.22130463       6.25235076       3.17106962       33       0.09266635      -0.03206723      -0.05443660
I        6.29774030       9.53456216       3.08294518       34      -0.35044783       0.03785774      -0.04203772
Cs       6.26158864       6.22502996       6.29119286       35       0.00634216      -0.01672470      -0.01179804
Sn       9.32699259       9.37401577       9.43745948       36       0.18761821       0.10993654      -0.45591033
I        9.30829662       9.36157045       6.32949322       37       0.05682638       0.07937347      -0.09677309
I        9.39183021       6.35641981       9.31020294       38       0.05395175      -0.52433848       0.05052706
I        6.33064452       9.29813680       9.40076253       39      -0.13999141       0.04828449       0.07167430
40
Lattice="12.522722495661755 0.0 0.0 0.0 12.522628529651648 0.0 0.0 -3.8161359615564244e-14 12.522628529651563" Properties=species:S:1:pos:R:3:spacegroup_kinds:I:1:forces:R:3 spacegroup="P 1" unit_cell=conventional candidate_id=6cc3b0105293d9d1 formula=FA0.46Rb0.54SnI3 config_index=3 rattle_stdev=0.08 method=PBE fidelity=phase2_force energy=-110.85262255119828 stress="-0.0011544197554291375 8.874921013238008e-05 6.242318056827483e-05 8.874921013238008e-05 -0.0012231892555271584 6.0147862804565754e-05 6.242318056827483e-05 6.0147862804565754e-05 -0.0006682648453480452" pbc="T T T"
Cs      -0.10568348       0.16134023       0.00380516        0       0.03735915       0.03072707       0.01814670
Sn       3.11166693       3.14721797       3.19758949        1      -0.25885897      -0.30966392      -0.56259453
I        3.08848925       3.20899538      -0.06199346        2       0.02657685      -0.01231667      -0.09041949
I        3.26134216      -0.01797444       2.98715878        3       0.01751170      -0.13641848       0.01342002
I       -0.05428282       3.05369125       3.00589581        4       0.13681063       0.04481043       0.04951828
Cs      -0.01794374      12.45458365       6.20085506        5      -0.02239762       0.01079359      -0.01644425
Sn       3.15173429       2.93607271       9.26817975        6       0.04117084       0.38739086       0.44545330
I        3.05547677       2.97394258       6.15917948        7      -0.02510263      -0.01556129       0.31294769
I        3.20203547      -0.10230672       9.36776612        8      -0.03003561       0.45008705       0.01206385
I       -0.12018966       3.08820272       9.59567005        9       0.34893797       0.01931259      -0.04762888
Rb      12.48458027       6.33304739      -0.14439506       10       0.01643227      -0.05556672      -0.03317487
Sn       3.09138345       9.28618065       3.05640848       11       0.01530591       0.28858672      -0.00328194
I        3.25548262       9.33753353      -0.05709572       12      -0.04892497      -0.04328262       0.47981659
I        3.10533712       6.20700387       3.21577393       13      -0.02712185       0.20067388       0.02266807
I       -0.13980583       9.39194498       3.08076439       14       1.02854843      -0.06153604       0.01433191
Rb      12.46202665       6.27507637       6.20873098       15      -0.03403351       0.00482273       0.00085333
Sn       3.17489626       9.41274903       9.37209919       16      -0.12923993      -0.53737065      -0.01168741
I        3.23866710       9.37028770       6.35824160       17      -0.01177160       0.02658526      -0.46580364
I        3.17686256       6.31523395       9.38155952       18      -0.01854838      -0.26111220      -0.04715354
I       -0.00794717       9.21247342       9.40835752       19      -0.12194591       0.01905201       0.01391563
Rb       6.35726596      12.50139471      12.47048456       20      -0.02868191       0.00856630       0.00167141
Sn       9.24031894       3.01726424       3.08940025       21       0.34064763       0.25641463       0.01678704
I        9.34654690       3.22355517       0.05140203       22      -0.06657299      -0.04374396      -0.12730569
I        9.56556374      -0.01358259       3.01055894       23      -0.10541592      -0.23533445       0.02444884
I        6.22587675       3.22069875       3.11749707       24      -0.11251510      -0.04331325       0.02976576
Cs       6.28365231      12.56439580       6.28672360       25       0.00917365      -0.02828960      -0.00338460
Sn       9.41021278       3.10926092       9.34436101       26      -0.07550204      -0.08691279      -0.01615126
I        9.53383580       3.10064902       6.23260806       27      -0.01263935      -0.00892453       0.13844902
I        9.38048098       0.13433776       9.33665192       28      -0.02303808      -0.80074892       0.06409267
I        6.22946308       3.11914943       9.48942713       29      -0.21896490      -0.05274441      -0.07167684
Rb       6.21518167       6.26701406       0.06937641       30      -0.01380721      -0.02351458      -0.02648648
Sn       9.42523459       9.36404159       3.18127356       31      -0.14964752      -0.17582107       0.19666452
I        9.39771576       9.32077854       0.05232634       32       0.03713997      -0.00608322       0.03227259
I        9.33268852       6.14735837       3.23404325       33       0.07562743       0.23256508       0.01151918
I        6.49490730       9.31570994       3.01626641       34      -0.92203684       0.02832040       0.00906885
Cs       6.34580063       6.35297131       6.27096411       35       0.00792681       0.00993536       0.01795660
Sn       9.39304134       9.32617866       9.55190635       36       0.07604359       0.00072782      -0.28096505
I        9.37425424       9.32844516       6.37433361       37       0.00973836       0.01900593      -0.11780663
I        9.35209110       6.07998894       9.47641217       38      -0.00955889       0.86563587      -0.00292864
I        6.21941581       9.38620714       9.53239235       39       0.23885185       0.02130708      -0.00476060
