Cs Sn I  Cs Sn Cl I  Cs Sn Cl I  Cs Sn I  Cl I  Cs Sn I  Cl Cs Sn Cl I  Cl Cs Sn I  Cl Cs Sn I  Cl
 1.0000000000000000
    12.7399428766380254    0.0000000000000000    0.0000000000000000
     0.0000000000000000   12.7399428766380254    0.0000000000000000
     0.0000000000000000    0.0000000000000000   12.7399428766380254
 Cs  Sn  I   Cs  Sn  Cl  I   Cs  Sn  Cl  I   Cs  Sn  I   Cl  I   Cs  Sn  I   Cl  Cs  Sn  Cl  I   Cl  Cs  Sn  I   Cl  Cs  Sn  I   Cl 
   1   1   3   1   1   2   1   1   1   2   1   1   1   1   1   1   1   1   2   1   1   1   1   1   1   1   1   1   2   1   1   1   2
Cartesian
  0.0000000000000000  0.0000000000000000  0.0000000000000000
  3.1849857191595063  3.1849857191595063  3.1849857191595063
  3.1849857191595063  3.1849857191595063  0.0000000000000000
  3.1849857191595063  0.0000000000000000  3.1849857191595063
  0.0000000000000000  3.1849857191595063  3.1849857191595063
  0.0000000000000000  0.0000000000000000  6.3699714383190118
  3.1849857191595063  3.1849857191595063  9.5549571574785190
  3.1849857191595063  3.1849857191595063  6.3699714383190118
  3.1849857191595063  0.0000000000000000  9.5549571574785190
  0.0000000000000000  3.1849857191595063  9.5549571574785190
  0.0000000000000000  6.3699714383190118  0.0000000000000000
  3.1849857191595063  9.5549571574785190  3.1849857191595063
  3.1849857191595063  9.5549571574785190  0.0000000000000000
  3.1849857191595063  6.3699714383190118  3.1849857191595063
  0.0000000000000000  9.5549571574785190  3.1849857191595063
  0.0000000000000000  6.3699714383190118  6.3699714383190118
  3.1849857191595063  9.5549571574785190  9.5549571574785190
  3.1849857191595063  9.5549571574785190  6.3699714383190118
  3.1849857191595063  6.3699714383190118  9.5549571574785190
  0.0000000000000000  9.5549571574785190  9.5549571574785190
  6.3699714383190118  0.0000000000000000  0.0000000000000000
  9.5549571574785190  3.1849857191595063  3.1849857191595063
  9.5549571574785190  3.1849857191595063  0.0000000000000000
  9.5549571574785190  0.0000000000000000  3.1849857191595063
  6.3699714383190118  3.1849857191595063  3.1849857191595063
  6.3699714383190118  0.0000000000000000  6.3699714383190118
  9.5549571574785190  3.1849857191595063  9.5549571574785190
  9.5549571574785190  3.1849857191595063  6.3699714383190118
  9.5549571574785190  0.0000000000000000  9.5549571574785190
  6.3699714383190118  3.1849857191595063  9.5549571574785190
  6.3699714383190118  6.3699714383190118  0.0000000000000000
  9.5549571574785190  9.5549571574785190  3.1849857191595063
  9.5549571574785190  9.5549571574785190  0.0000000000000000
  9.5549571574785190  6.3699714383190118  3.1849857191595063
  6.3699714383190118  9.5549571574785190  3.1849857191595063
  6.3699714383190118  6.3699714383190118  6.3699714383190118
  9.5549571574785190  9.5549571574785190  9.5549571574785190
  9.5549571574785190  9.5549571574785190  6.3699714383190118
  9.5549571574785190  6.3699714383190118  9.5549571574785190
  6.3699714383190118  9.5549571574785190  9.5549571574785190
