Cs Sn I  Cs Sn I  Cs Sn Cl I  Cs Sn I  Cl I  Cs Sn I  Cl Cs Sn I  Cs Sn I  Cl I  Cs Sn I 
 1.0000000000000000
    13.2837079913704823    0.0000000000000000    0.0000000000000000
     0.0000000000000000   13.2837079913704823    0.0000000000000000
     0.0000000000000000    0.0000000000000000   13.2837079913704823
 Cs  Sn  I   Cs  Sn  I   Cs  Sn  Cl  I   Cs  Sn  I   Cl  I   Cs  Sn  I   Cl  Cs  Sn  I   Cs  Sn  I   Cl  I   Cs  Sn  I  
   1   1   3   1   1   3   1   1   1   2   1   1   1   1   1   1   1   2   1   1   1   3   1   1   1   1   1   1   1   3
Cartesian
  0.0000000000000000  0.0000000000000000  0.0000000000000000
  3.3209269978426206  3.3209269978426206  3.3209269978426206
  3.3209269978426206  3.3209269978426206  0.0000000000000000
  3.3209269978426206  0.0000000000000000  3.3209269978426206
  0.0000000000000000  3.3209269978426206  3.3209269978426206
  0.0000000000000000  0.0000000000000000  6.6418539956852403
  3.3209269978426206  3.3209269978426206  9.9627809935278613
  3.3209269978426206  3.3209269978426206  6.6418539956852403
  3.3209269978426206  0.0000000000000000  9.9627809935278613
  0.0000000000000000  3.3209269978426206  9.9627809935278613
  0.0000000000000000  6.6418539956852403  0.0000000000000000
  3.3209269978426206  9.9627809935278613  3.3209269978426206
  3.3209269978426206  9.9627809935278613  0.0000000000000000
  3.3209269978426206  6.6418539956852403  3.3209269978426206
  0.0000000000000000  9.9627809935278613  3.3209269978426206
  0.0000000000000000  6.6418539956852403  6.6418539956852403
  3.3209269978426206  9.9627809935278613  9.9627809935278613
  3.3209269978426206  9.9627809935278613  6.6418539956852403
  3.3209269978426206  6.6418539956852403  9.9627809935278613
  0.0000000000000000  9.9627809935278613  9.9627809935278613
  6.6418539956852403  0.0000000000000000  0.0000000000000000
  9.9627809935278613  3.3209269978426206  3.3209269978426206
  9.9627809935278613  3.3209269978426206  0.0000000000000000
  9.9627809935278613  0.0000000000000000  3.3209269978426206
  6.6418539956852403  3.3209269978426206  3.3209269978426206
  6.6418539956852403  0.0000000000000000  6.6418539956852403
  9.9627809935278613  3.3209269978426206  9.9627809935278613
  9.9627809935278613  3.3209269978426206  6.6418539956852403
  9.9627809935278613  0.0000000000000000  9.9627809935278613
  6.6418539956852403  3.3209269978426206  9.9627809935278613
  6.6418539956852403  6.6418539956852403  0.0000000000000000
  9.9627809935278613  9.9627809935278613  3.3209269978426206
  9.9627809935278613  9.9627809935278613  0.0000000000000000
  9.9627809935278613  6.6418539956852403  3.3209269978426206
  6.6418539956852403  9.9627809935278613  3.3209269978426206
  6.6418539956852403  6.6418539956852403  6.6418539956852403
  9.9627809935278613  9.9627809935278613  9.9627809935278613
  9.9627809935278613  9.9627809935278613  6.6418539956852403
  9.9627809935278613  6.6418539956852403  9.9627809935278613
  6.6418539956852403  9.9627809935278613  9.9627809935278613
