40
Lattice="12.219872691041402 0.0 0.0 0.005092364189500902 12.129682600521546 0.0 -0.008703001504621184 -0.003777711437342884 12.389914178052683" Properties=species:S:1:pos:R:3:spacegroup_kinds:I:1:forces:R:3 spacegroup="P 1" unit_cell=conventional occupancy="_JSON {\"0\": {\"Cs\": 1.0}, \"1\": {\"Sn\": 1.0}, \"2\": {\"I\": 1.0}, \"3\": {\"I\": 1.0}, \"4\": {\"I\": 1.0}, \"5\": {\"Cs\": 1.0}, \"6\": {\"Sn\": 1.0}, \"7\": {\"I\": 1.0}, \"8\": {\"Br\": 1.0}, \"9\": {\"I\": 1.0}, \"10\": {\"Cs\": 1.0}, \"11\": {\"Sn\": 1.0}, \"12\": {\"Br\": 1.0}, \"13\": {\"Br\": 1.0}, \"14\": {\"I\": 1.0}, \"15\": {\"Cs\": 1.0}, \"16\": {\"Sn\": 1.0}, \"17\": {\"I\": 1.0}, \"18\": {\"Br\": 1.0}, \"19\": {\"I\": 1.0}, \"20\": {\"Cs\": 1.0}, \"21\": {\"Sn\": 1.0}, \"22\": {\"I\": 1.0}, \"23\": {\"I\": 1.0}, \"24\": {\"Br\": 1.0}, \"25\": {\"Cs\": 1.0}, \"26\": {\"Sn\": 1.0}, \"27\": {\"I\": 1.0}, \"28\": {\"I\": 1.0}, \"29\": {\"Br\": 1.0}, \"30\": {\"Cs\": 1.0}, \"31\": {\"Sn\": 1.0}, \"32\": {\"I\": 1.0}, \"33\": {\"Br\": 1.0}, \"34\": {\"Br\": 1.0}, \"35\": {\"Cs\": 1.0}, \"36\": {\"Sn\": 1.0}, \"37\": {\"I\": 1.0}, \"38\": {\"Br\": 1.0}, \"39\": {\"Br\": 1.0}}" candidate_id=d1c11c666fdbe733 formula=MASnBr0.43I0.573 config_index=0 rattle_stdev=0.0 method=PBE fidelity=phase2_force energy=-118.26035300703784 stress="0.0007294166824541878 3.932018483900247e-05 -5.743466957004359e-06 3.932018483900247e-05 0.000401300013104122 2.6383422198858473e-05 -5.743466957004359e-06 2.6383422198858473e-05 -0.0019871887113055574" pbc="T T T"
Cs       0.05576900      12.10677236      12.36323403        0      -0.01166371       0.00743437       0.01050006
Sn       3.20004365       3.17452364       3.08774263        1      -0.06940225      -0.05058145      -0.00772925
I        3.17912250       3.07941266      12.37383935        2      -0.00728912       0.01023021       0.05592903
I        3.20339614      12.08053365       3.02786280        3      -0.00788569       0.05360302      -0.00791704
I       12.21226766       3.15087097       3.09300379        4       0.00741367       0.00106062       0.00315090
Cs       0.04416787      12.12607922       6.22574215        5      -0.00981929       0.00621300      -0.00740489
Sn       3.17967672       2.97038211       9.29263828        6      -0.05877802      -0.01800888       0.00199960
I        3.17523553       3.07640095       6.19802212        7      -0.00641493       0.00572298      -0.05294062
Br       3.17499155       0.17895577       9.31913065        8       0.02333405      -0.05920733       0.01154109
I        0.00902345       3.08054807       9.29131483        9      -0.01661993       0.00207465      -0.00280662
Cs       0.06498488       6.07950159      12.37147112       10      -0.00564211      -0.00708876       0.01185845
Sn       3.17362097       8.99114228       2.94937413       11      -0.05497777       0.01707820       0.04663782
Br       3.19002929       8.97037039       0.08572137       12       0.02254074       0.00618148      -0.03250250
Br       3.17853498       6.03596997       3.05464585       13       0.02197167      -0.02397148      -0.00204289
I        0.04869339       8.96675084       3.03465306       14      -0.04150333       0.00286208      -0.00570680
Cs       0.04464681       6.07278478       6.20991911       15      -0.01505244      -0.00539788      -0.01115004
Sn       3.15046720       8.98466473       9.38383204       16      -0.03053543      -0.01167017      -0.08255616
I        3.16008013       9.04467498       6.27588942       17      -0.00550154       0.02041222       0.01702797
Br       3.15077743       6.21173078       9.34859338       18       0.01926185       0.01755098       0.03013950
I        0.06461438       9.03760565       9.37626937       19      -0.03315511       0.02335214       0.01182904
Cs       6.04670181      12.06922704      12.32734129       20       0.01311121      -0.00078929       0.00108191
Sn       9.01949809       3.16284884       3.09355508       21       0.06606141      -0.04742341       0.00189967
I        9.01471354       3.16054555      12.38647138       22       0.00159674       0.00794771       0.00271944
I        9.01639013       0.00556139       3.09094537       23       0.00349343      -0.01280448       0.00430760
Br       6.09657906       3.15873012       3.09676489       24      -0.00546739       0.02893220       0.00892246
Cs       6.07214639      12.09936846       6.24105722       25       0.01324225       0.00729432      -0.00208072
Sn       9.01217881       3.15738760       9.29420809       26       0.05176297      -0.05885017      -0.00280081
I        9.03304169       3.15512577       6.19620450       27       0.00357351       0.00497265      -0.00417428
I        9.03136440      12.12249223       9.29477600       28      -0.00054798      -0.00351840      -0.00465967
Br       6.10761191       3.09472185       9.28723703       29       0.00977987       0.02101114      -0.00807251
Cs       6.01713821       6.12113632      12.35195747       30       0.01179337      -0.00150773       0.01325473
Sn       9.00680012       8.95976868       3.08762204       31       0.04430070       0.05202381      -0.00667764
I        9.03383034       8.96493425      12.38316909       32       0.00779492      -0.00095213       0.01048796
Br       9.02583470       6.07057176       3.09750954       33      -0.01785733       0.00847022       0.00829330
Br       6.13215636       8.97523895       3.05176403       34       0.02695148      -0.03220852      -0.00175271
Cs       6.06272287       6.09193692       6.23109104       35       0.02025560      -0.00738497      -0.01098421
Sn       9.00057436       8.96628259       9.29524888       36       0.04303020       0.03528043      -0.00088782
I        9.06552007       8.97203625       6.19310937       37       0.01298976      -0.00014925      -0.00482149
Br       9.03894622       6.06103960       9.28945940       38      -0.01411066       0.00207982      -0.00828857
Br       6.15580612       8.97750029       9.31563490       39      -0.01136947       0.00546316       0.01682881
40
Lattice="12.219872691041402 0.0 0.0 0.005092364189500902 12.129682600521546 0.0 -0.008703001504621184 -0.003777711437342884 12.389914178052683" Properties=species:S:1:pos:R:3:spacegroup_kinds:I:1:forces:R:3 spacegroup="P 1" unit_cell=conventional occupancy="_JSON {\"0\": {\"Cs\": 1.0}, \"1\": {\"Sn\": 1.0}, \"2\": {\"I\": 1.0}, \"3\": {\"I\": 1.0}, \"4\": {\"I\": 1.0}, \"5\": {\"Cs\": 1.0}, \"6\": {\"Sn\": 1.0}, \"7\": {\"I\": 1.0}, \"8\": {\"Br\": 1.0}, \"9\": {\"I\": 1.0}, \"10\": {\"Cs\": 1.0}, \"11\": {\"Sn\": 1.0}, \"12\": {\"Br\": 1.0}, \"13\": {\"Br\": 1.0}, \"14\": {\"I\": 1.0}, \"15\": {\"Cs\": 1.0}, \"16\": {\"Sn\": 1.0}, \"17\": {\"I\": 1.0}, \"18\": {\"Br\": 1.0}, \"19\": {\"I\": 1.0}, \"20\": {\"Cs\": 1.0}, \"21\": {\"Sn\": 1.0}, \"22\": {\"I\": 1.0}, \"23\": {\"I\": 1.0}, \"24\": {\"Br\": 1.0}, \"25\": {\"Cs\": 1.0}, \"26\": {\"Sn\": 1.0}, \"27\": {\"I\": 1.0}, \"28\": {\"I\": 1.0}, \"29\": {\"Br\": 1.0}, \"30\": {\"Cs\": 1.0}, \"31\": {\"Sn\": 1.0}, \"32\": {\"I\": 1.0}, \"33\": {\"Br\": 1.0}, \"34\": {\"Br\": 1.0}, \"35\": {\"Cs\": 1.0}, \"36\": {\"Sn\": 1.0}, \"37\": {\"I\": 1.0}, \"38\": {\"Br\": 1.0}, \"39\": {\"Br\": 1.0}}" candidate_id=d1c11c666fdbe733 formula=MASnBr0.43I0.573 config_index=1 rattle_stdev=0.08 method=PBE fidelity=phase2_force energy=-117.68765618726307 stress="-0.0008094472928455545 3.232441954246934e-05 -7.753914557341739e-05 3.232441954246934e-05 -0.0013378997514719557 -0.00022453440093451188 -7.753914557341739e-05 -0.00022453440093451188 -0.004872630782150197" pbc="T T T"
Cs      -0.03114671      12.03508715      12.33873008        0      -0.05086593       0.05152330       0.04232799
Sn       3.09284896       3.07799680       3.03640448        1       0.19453149       0.22005558       0.21012933
I        3.28375815       3.22704950      12.44016854        2      -0.13525758      -0.10218736       0.00125710
I        3.20153224      12.06384854       2.95453322        3      -0.01566470       0.14343776      -0.00083102
I       12.12628825       3.14397949       3.18707088        4       0.42231586       0.00041026       0.00195027
Cs      -0.08663947      12.22433474       6.31185305        5       0.01634586       0.03655098      -0.05620381
Sn       3.21125855       2.93936604       9.33971042        6       0.02753019       0.45907584      -0.13330521
I        3.06057163       3.05051498       6.29826090        7       0.05300775       0.00163091      -0.22169396
Br       3.11653214       0.29323457       9.39470296        8       0.02656972      -0.68441097       0.02588366
I       -0.01209677       3.06749100       9.21418624        9      -0.00321723       0.01738610       0.04832046
Cs       0.03757309       6.08341392      12.33150056       10      -0.01693557      -0.04528184       0.03084836
Sn       2.99666861       9.01592923       2.82220202       11       0.75258368      -0.26895813       0.02719873
Br       3.24838565       8.96173829       0.03370765       12      -0.07909058       0.04771161      -0.04681754
Br       3.04309046       6.00649205       2.92741612       13       0.00576624      -0.03107575       0.05927200
I        0.16713386       9.00470605       3.10776217       14      -0.81022584       0.00880291       0.00577117
Cs       0.12148443       6.07954818       6.34729759       15      -0.00196767      -0.04540580      -0.02433618
Sn       3.21861861       8.92427391       9.20082169       16       0.23579440       0.03438961       0.29372856
I        3.16881923       9.00866233       6.24285163       17      -0.02156568       0.00973313      -0.14210599
Br       3.17629614       6.16844214       9.42448669       18      -0.00338984       0.18127753      -0.08830443
I        0.07672918       9.04375784       9.37151734       19       0.03003408       0.04194746      -0.02500404
Cs       6.04109072      12.02393511      12.35222172       20       0.04862891       0.01741704       0.02367103
Sn       9.07743480       3.20416484       3.17563753       21      -0.30078618      -0.31113610      -0.55570024
I        9.05632575       3.09095847      12.50651659       22       0.04949485       0.02829163      -0.41818751
I        9.10970790       0.04491454       3.03236439       23      -0.00561924      -0.10160422       0.11891463
Br       6.15100355       3.19944987       3.02976199       24      -0.30081176       0.00725646       0.08040932
Cs       6.12395797      12.10037162       6.36582435       25      -0.02787343       0.02065132      -0.04810078
Sn       9.09494644       3.18440301       9.18999926       26      -0.06360428       0.21231096       0.38269349
I        8.94355814       3.25988697       6.15474714       27      -0.01219769      -0.03564300       0.44620364
I        8.99991446      12.20592971       9.30075322       28       0.05376600      -0.18279006      -0.05145791
Br       6.11476688       3.09903444       9.32071279       29      -0.03731833      -0.00761373      -0.03470518
Cs       5.91891980       6.03397299      12.37732742       30       0.11896828       0.05627077       0.03678519
Sn       8.94436767       8.89127820       2.98203233       31      -0.15321858       0.29170717       0.23862720
I        9.07013287       9.04507624      12.49626787       32       0.00545065      -0.01794895      -0.34838349
Br       9.01062007       6.07298060       2.94763621       33       0.01612736       0.09977595       0.02206225
Br       6.12281420       8.96503973       3.12393878       34       0.27996239      -0.03873836      -0.01505805
Cs       5.95757310       6.08397286       6.24233502       35       0.01563441      -0.03822384      -0.01991919
Sn       9.21087884       9.10674489       9.08439706       36      -0.30629804      -0.22461929       1.08300154
I        8.96258851       8.95829848       6.33714567       37       0.04746619       0.02319826      -1.00680659
Br       9.08764187       6.06356164       9.17214643       38       0.03466982       0.12071270       0.04338675
Br       6.18056138       9.06887772       9.27476736       39      -0.08970996       0.00846169       0.01979335
40
Lattice="12.219872691041402 0.0 0.0 0.005092364189500902 12.129682600521546 0.0 -0.008703001504621184 -0.003777711437342884 12.389914178052683" Properties=species:S:1:pos:R:3:spacegroup_kinds:I:1:forces:R:3 spacegroup="P 1" unit_cell=conventional occupancy="_JSON {\"0\": {\"Cs\": 1.0}, \"1\": {\"Sn\": 1.0}, \"2\": {\"I\": 1.0}, \"3\": {\"I\": 1.0}, \"4\": {\"I\": 1.0}, \"5\": {\"Cs\": 1.0}, \"6\": {\"Sn\": 1.0}, \"7\": {\"I\": 1.0}, \"8\": {\"Br\": 1.0}, \"9\": {\"I\": 1.0}, \"10\": {\"Cs\": 1.0}, \"11\": {\"Sn\": 1.0}, \"12\": {\"Br\": 1.0}, \"13\": {\"Br\": 1.0}, \"14\": {\"I\": 1.0}, \"15\": {\"Cs\": 1.0}, \"16\": {\"Sn\": 1.0}, \"17\": {\"I\": 1.0}, \"18\": {\"Br\": 1.0}, \"19\": {\"I\": 1.0}, \"20\": {\"Cs\": 1.0}, \"21\": {\"Sn\": 1.0}, \"22\": {\"I\": 1.0}, \"23\": {\"I\": 1.0}, \"24\": {\"Br\": 1.0}, \"25\": {\"Cs\": 1.0}, \"26\": {\"Sn\": 1.0}, \"27\": {\"I\": 1.0}, \"28\": {\"I\": 1.0}, \"29\": {\"Br\": 1.0}, \"30\": {\"Cs\": 1.0}, \"31\": {\"Sn\": 1.0}, \"32\": {\"I\": 1.0}, \"33\": {\"Br\": 1.0}, \"34\": {\"Br\": 1.0}, \"35\": {\"Cs\": 1.0}, \"36\": {\"Sn\": 1.0}, \"37\": {\"I\": 1.0}, \"38\": {\"Br\": 1.0}, \"39\": {\"Br\": 1.0}}" candidate_id=d1c11c666fdbe733 formula=MASnBr0.43I0.573 config_index=2 rattle_stdev=0.08 method=PBE fidelity=phase2_force energy=-117.80869860697575 stress="-0.00012882787735313484 0.0001312373595501703 4.200653483484218e-05 0.0001312373595501703 0.0005403358824247085 8.40783747219307e-05 4.200653483484218e-05 8.40783747219307e-05 -0.00269524548251236" pbc="T T T"
Cs       0.04675196      12.02064724      12.50603619        0       0.02108048       0.00670212      -0.06882123
Sn       3.08348499       3.14841798       2.98695091        1       0.41245163       0.14914963       0.17773092
I        3.20919182       3.00916087      12.34584129        2      -0.05878264       0.06543553       0.01990643
I        3.22712896      12.17660661       2.90234318        3      -0.04087947      -0.46424755       0.04675182
I       12.36058996       3.19038792       3.08254688        4      -0.61746635      -0.00611788      -0.03714847
Cs       0.01191821      12.04818624       6.18834481        5      -0.00683544      -0.00496262       0.04818459
Sn       3.12224300       3.06809357       9.23046228        6       0.25942538      -0.05967448       0.00710103
I        3.12815348       3.07179145       6.20438851        7       0.01797899      -0.08279603      -0.12907755
Br       3.08033546       0.05505637       9.39211114        8       0.03372748       0.03131551      -0.01433533
I        0.04203711       3.02488655       9.10821308        9      -0.13858829       0.03781591       0.07924724
Cs       0.00200555       5.99722026      12.37893577       10       0.03866352       0.00499380      -0.01835108
Sn       3.13128544       9.05356187       2.93330895       11       0.14108099      -0.14404240       0.05223636
Br       3.15158060       8.88754942       0.04550262       12       0.01918368       0.01569472       0.24477455
Br       3.24172620       5.96197016       3.23144868       13      -0.03940642       0.40171377      -0.08347163
I       -0.06332550       8.94762305       3.05204032       14       0.36754288       0.00526649      -0.00350542
Cs       0.01645599       6.07965482       6.21845127       15      -0.00862878       0.00318599       0.00170675
Sn       3.13470470       9.09241944       9.41144595       16      -0.05186629      -0.08008953      -0.12130830
I        3.20469169       8.99705216       6.33451600       17      -0.05530183       0.10108133      -0.23159359
Br       3.25727765       6.15332814       9.30973291       18      -0.00370700      -0.07040781       0.06217610
I        0.15076751       8.82997705       9.38962363       19      -0.12105108       0.07360600       0.01764250
Cs       6.12981858      11.92454113      12.38803257       20      -0.03907236       0.04456663      -0.03344054
Sn       8.97948907       2.97530538       3.08492166       21      -0.21838743       0.31266852       0.15851485
I        8.89449053       3.19964784      12.34221710       22       0.06982426       0.03030649       0.17759583
I        9.10099073      -0.06398404       3.08493808       23       0.01194756       0.12690115      -0.00691059
Br       6.08800666       3.32663588       3.06952185       24       0.36341016      -0.15147796      -0.01398262
Cs       6.02991398      11.99579911       6.25818514       25       0.02587578       0.02656457       0.02786618
Sn       9.10228038       3.18951047       9.35545492       26      -0.29843987      -0.13672901      -0.29650121
I        8.92479149       3.20103444       6.17859353       27       0.06582423      -0.10116480      -0.08451619
I        9.08297952      12.04211469       9.44675508       28       0.01919814       0.43318077      -0.01684773
Br       6.12496078       3.13471948       9.23710974       29       0.07313993      -0.01992413       0.00736915
Cs       5.93690747       6.05863150      12.36829969       30      -0.01152892      -0.02808295       0.01586390
Sn       9.04968748       8.87376889       2.91019366       31      -0.21957976      -0.16944898       0.64218172
I        9.08558476       8.93914739      12.36936396       32       0.01260639      -0.05646625       0.04850360
Br       8.84276095       6.06160825       3.17393465       33       0.08338226      -0.00847861      -0.07572126
Br       6.16853541       9.14019315       3.05676087       34      -0.30417253       0.00318312      -0.08282421
Cs       6.06295027       6.05565261       6.26096964       35       0.00184883      -0.02502842      -0.02164632
Sn       8.93552508       8.95815799       9.33090594       36       0.33819127       0.12390150      -0.49624641
I        8.96350978       8.98066280       6.26128832       37       0.08617215       0.08166631      -0.16858142
Br       9.02639805       6.15614514       9.17167833       38       0.05419597      -0.52901376       0.06624602
Br       6.22508938       8.90602913       9.27171725       39      -0.28307680       0.05818977       0.10384637
40
Lattice="12.219872691041402 0.0 0.0 0.005092364189500902 12.129682600521546 0.0 -0.008703001504621184 -0.003777711437342884 12.389914178052683" Properties=species:S:1:pos:R:3:spacegroup_kinds:I:1:forces:R:3 spacegroup="P 1" unit_cell=conventional occupancy="_JSON {\"0\": {\"Cs\": 1.0}, \"1\": {\"Sn\": 1.0}, \"2\": {\"I\": 1.0}, \"3\": {\"I\": 1.0}, \"4\": {\"I\": 1.0}, \"5\": {\"Cs\": 1.0}, \"6\": {\"Sn\": 1.0}, \"7\": {\"I\": 1.0}, \"8\": {\"Br\": 1.0}, \"9\": {\"I\": 1.0}, \"10\": {\"Cs\": 1.0}, \"11\": {\"Sn\": 1.0}, \"12\": {\"Br\": 1.0}, \"13\": {\"Br\": 1.0}, \"14\": {\"I\": 1.0}, \"15\": {\"Cs\": 1.0}, \"16\": {\"Sn\": 1.0}, \"17\": {\"I\": 1.0}, \"18\": {\"Br\": 1.0}, \"19\": {\"I\": 1.0}, \"20\": {\"Cs\": 1.0}, \"21\": {\"Sn\": 1.0}, \"22\": {\"I\": 1.0}, \"23\": {\"I\": 1.0}, \"24\": {\"Br\": 1.0}, \"25\": {\"Cs\": 1.0}, \"26\": {\"Sn\": 1.0}, \"27\": {\"I\": 1.0}, \"28\": {\"I\": 1.0}, \"29\": {\"Br\": 1.0}, \"30\": {\"Cs\": 1.0}, \"31\": {\"Sn\": 1.0}, \"32\": {\"I\": 1.0}, \"33\": {\"Br\": 1.0}, \"34\": {\"Br\": 1.0}, \"35\": {\"Cs\": 1.0}, \"36\": {\"Sn\": 1.0}, \"37\": {\"I\": 1.0}, \"38\": {\"Br\": 1.0}, \"39\": {\"Br\": 1.0}}" candidate_id=d1c11c666fdbe733 formula=MASnBr0.43I0.573 config_index=3 rattle_stdev=0.08 method=PBE fidelity=phase2_force energy=-117.64748047008742 stress="-0.0007318253205331831 0.00012536989455694549 -2.7896502292242837e-06 0.00012536989455694549 -0.001346349817088603 0.00020642933263349548 -2.7896502292242837e-06 0.00020642933263349548 -0.0030055773076521405" pbc="T T T"
Cs      -0.04991448      12.26811259      12.36703919        0       0.00918475       0.03601367       0.04620088
Sn       3.18102996       3.18125346       3.16450601        1      -0.33061956      -0.36076731      -0.69149631
I        3.12459462       3.12173829      12.31184589        2       0.02791500      -0.00728983      -0.03919309
I        3.31579264      12.06255922       2.92339194        3       0.00438166      -0.17437138       0.00526289
I       12.15798484       3.02119631       2.99060591        4       0.13456849       0.07420390       0.05513811
Cs       0.02622413      12.05803434       6.16528294        5      -0.04502142       0.01888690      -0.02667441
Sn       3.20073038       2.76596666       9.15901560        6      -0.01194210       0.50110345       0.53293703
I        3.11829672       2.88065890       6.09588734        7      -0.03172618       0.01004271       0.27617944
Br       3.22808135       0.07664905       9.25589787        8       0.02758483      -0.15886715       0.01503863
I       -0.11116621       2.98538487       9.47265004        9       0.25938071       0.04446630      -0.09204442
Cs       0.02684265       6.15123472      12.22707606       10       0.01561087      -0.11223217       0.03773350
Sn       3.13432380       8.89518255       2.88495650       11      -0.10113095       0.37511410      -0.01742000
Br       3.30249478       8.95194514       0.02862565       12      -0.03780134      -0.05152902       0.34584831
Br       3.16552798       5.98165958       3.17577527       13      -0.00556140       0.23562827       0.02841696
I       -0.09111243       9.01943321       3.00712376       14       0.84855141      -0.06583238      -0.01038835
Cs      -0.01604904       6.08654688       6.15733583       15      -0.03840162      -0.02527700      -0.01739902
Sn       3.19468283       9.01527339       9.35412881       16      -0.10545619      -0.23960390       0.07363746
I        3.28633165       9.06201878       6.37281675       17      -0.04477638       0.05114075      -0.44399652
Br       3.20929588       6.26565046       9.30216889       18       0.01270170      -0.11325221       0.01434630
I        0.05666721       8.91081646       9.37029206       19      -0.17017889       0.07027312      -0.02096500
Cs       6.14260652      12.04799322      12.27519733       20      -0.02660943       0.03579156       0.00669347
Sn       8.86777516       3.03962492       3.06212922       21       0.41551841       0.25470110       0.00822337
I        8.98155507       3.21743097      12.43787341       22      -0.04655016      -0.02119538      -0.16709717
I        9.20817703      -0.00802120       3.00987468       23      -0.10314889      -0.26166247       0.01910407
Br       6.06109456       3.22640830       3.13631361       24      -0.11508938      -0.01970571       0.03858333
Cs       6.09443745      12.14113573       6.26646655       25       0.04433254      -0.02265533      -0.01473169
Sn       9.03034972       3.12616036       9.23676668       26       0.01805245      -0.16729373       0.08312733
I        9.15657058       3.08609016       6.16749829       27      -0.01079385       0.01307223       0.11947305
I        9.03806855      12.25682999       9.20042902       28      -0.02354568      -0.83205255       0.07594262
Br       6.07571374       3.06085071       9.33198398       29      -0.22754903      -0.04093838      -0.09076418
Cs       5.97095863       6.12683611      12.42133388       30       0.01725785      -0.05929764      -0.02947652
Sn       9.03999283       8.94166990       3.14806949       31       0.17281942      -0.17246465       0.17830942
I        9.05184073       8.92975401      12.43549544       32       0.03428358      -0.00582542       0.07796255
Br       8.95414484       5.95661587       3.23690827       33       0.04735474       0.22990168       0.00633025
Br       6.36570241       8.92134093       2.99008209       34      -0.94102339       0.00729165       0.00861166
Cs       6.14716225       6.18359396       6.24074088       35       0.02360995      -0.05776604       0.00344082
Sn       9.00157384       8.91032087       9.44535281       36       0.08600517       0.04456187      -0.31794053
I        9.02946740       8.94753751       6.30612872       37       0.03353083       0.03286360      -0.11711872
Br       8.98665894       5.87971427       9.33788756       38      -0.01173501       0.90167436      -0.00763897
Br       6.11386067       8.99409947       9.40334706       39       0.18330769       0.02042821       0.04313573
