40
Lattice="12.167431460240488 0.0 0.0 0.0 12.162825791002307 0.0 0.0 3.586730294962066e-14 12.16743146024042" Properties=species:S:1:pos:R:3:spacegroup_kinds:I:1:forces:R:3 spacegroup="P 1" unit_cell=conventional candidate_id=ac5ef543ce7d4b22 formula=KGe0.58Pb0.42I3 config_index=0 rattle_stdev=0.0 method=PBE fidelity=phase2_force energy=-110.76170645111593 stress="-0.002172128590921056 -3.146187360367815e-16 1.1939754165703253e-09 -3.146187360367815e-16 -0.001788465341251955 3.1989079599612544e-16 1.1939754165703253e-09 3.1989079599612544e-16 -0.0021721285909210787" pbc="T T T"
K       12.09939329      11.95893233       0.06803817        0      -0.00681291      -0.01970125       0.00681291
Pb       3.04185787       3.04070645       3.04185787        1       0.00000000      -0.00000000       0.00000000
I        3.04185787       3.04070645       0.01210836        2       0.00000026      -0.00000000      -0.05297297
I        3.04185787      12.00024465       3.04185787        3       0.00000000       0.26723644      -0.00000000
I       12.00970230       3.04070645       3.04185787        4       0.33245335       0.00000000      -0.00000027
K       12.09939329      11.95893233       6.01567756        5      -0.00681278      -0.01970133      -0.00681278
Pb       3.04185787       3.04070645       9.12557360        6      -0.00000000      -0.00000000       0.00000000
I        3.04185787       3.04070645       6.07160737        7      -0.00000026       0.00000000       0.05297297
I        3.04185787      11.97781357       9.12557360        8      -0.00000000       0.38112135       0.00000000
I       12.15532310       3.04070645       9.12557360        9       0.05297297      -0.00000000      -0.00000026
K       12.09939329       6.28530635       0.06803817       10      -0.00681291       0.01970125       0.00681291
Ge       3.04185787       9.12211934       3.04185787       11      -0.00000000       0.00000000       0.00000000
I        3.04185787       9.12211934       0.00633203       12       0.00000003       0.00000000       0.01553532
I        3.04185787       6.24399404       3.04185787       13       0.00000000      -0.26723644      -0.00000000
I       12.16139400       9.12211934       3.04185787       14      -0.04484153       0.00000000      -0.00000001
K       12.09939329       6.28530635       6.01567756       15      -0.00681278       0.01970133      -0.00681278
Ge       3.04185787       9.12211934       9.12557360       16      -0.00000000      -0.00000000       0.00000000
I        3.04185787       9.12211934       6.07738370       17      -0.00000003      -0.00000000      -0.01553532
I        3.04185787       6.26642512       9.12557360       18      -0.00000000      -0.38112135       0.00000000
I       12.16109943       9.12211934       9.12557360       19      -0.01553532       0.00000000      -0.00000003
K        6.15175390      11.95893233       0.06803817       20       0.00681278      -0.01970133       0.00681278
Ge       9.12557360       3.04070645       3.04185787       21       0.00000000      -0.00000000      -0.00000000
I        9.12557360       3.04070645       0.15772916       22       0.00000027       0.00000000      -0.33245335
I        9.12557360      12.14257353       3.04185787       23      -0.00000000      -0.09430440       0.00000000
I        6.24144489       3.04070645       3.04185787       24      -0.33245335       0.00000000       0.00000027
K        6.15175390      11.95893233       6.01567756       25       0.00681291      -0.01970125      -0.00681291
Pb       9.12557360       3.04070645       9.12557360       26      -0.00000000      -0.00000000      -0.00000000
I        9.12557360       3.04070645       5.92598657       27      -0.00000027       0.00000000       0.33245335
I        9.12557360      12.00024465       9.12557360       28       0.00000000       0.26723644      -0.00000000
I        6.09582409       3.04070645       9.12557360       29      -0.05297297       0.00000000       0.00000026
K        6.15175390       6.28530635       0.06803817       30       0.00681278       0.01970133       0.00681278
Ge       9.12557360       9.12211934       3.04185787       31      -0.00000000      -0.00000000       0.00000000
I        9.12557360       9.12211934       0.00603746       32       0.00000001       0.00000000       0.04484153
I        9.12557360       6.10166516       3.04185787       33      -0.00000000       0.09430440       0.00000000
I        6.08975319       9.12211934       3.04185787       34       0.04484153      -0.00000000       0.00000001
K        6.15175390       6.28530635       6.01567756       35       0.00681291       0.01970125      -0.00681291
Ge       9.12557360       9.12211934       9.12557360       36      -0.00000000       0.00000000       0.00000000
I        9.12557360       9.12211934       6.07767827       37      -0.00000001      -0.00000000      -0.04484153
I        9.12557360       6.24399404       9.12557360       38       0.00000000      -0.26723644      -0.00000000
I        6.09004776       9.12211934       9.12557360       39       0.01553532      -0.00000000       0.00000003
40
Lattice="12.167431460240488 0.0 0.0 0.0 12.162825791002307 0.0 0.0 3.586730294962066e-14 12.16743146024042" Properties=species:S:1:pos:R:3:spacegroup_kinds:I:1:forces:R:3 spacegroup="P 1" unit_cell=conventional candidate_id=ac5ef543ce7d4b22 formula=KGe0.58Pb0.42I3 config_index=1 rattle_stdev=0.08 method=PBE fidelity=phase2_force energy=-110.43296850751075 stress="-0.004077082778844782 -7.434205909872337e-07 8.176585427261982e-05 -7.434205909872337e-07 -0.0023645439949622794 3.789895457748371e-05 8.176585427261982e-05 3.789895457748371e-05 -0.004369232082000078" pbc="T T T"
K       12.01247758      11.88724712       0.04353422        0      -0.03748508       0.00971100       0.03085883
Pb       2.93466317       2.94417960       2.99051972        1       0.19597346       0.18021148       0.55795853
I        3.14649352       3.18834328       0.07843756        2       0.01626483       0.07966193      -0.27804782
I        3.03999396      11.98355953       2.96852829        3       0.05136132       0.31642998      -0.00101668
I       11.92372290       3.03381497       3.13592495        4       0.99619018       0.01605633       0.04885090
K       11.96858595      12.05718785       6.10178846        5       0.01471175       0.04390234      -0.03523966
Pb       3.07343969       3.00969038       9.17264574        6       0.02424783      -0.09642020      -0.07100304
I        2.92719396       3.01482047       6.17184614        7       0.02212656       0.04656474      -0.38863066
I        2.98339846      12.09209238       9.20114591        8      -0.03147293      -0.15667340       0.01968756
I       12.13420287       3.02764938       9.04844501        9       0.38933311       0.00188627       0.02330252
K       12.07198150       6.28921868       0.02806761       10      -0.00911327      -0.01523132       0.02911839
Ge       2.86490550       9.14690629       2.91468576       11       0.24935022      -0.31580270      -0.24803710
I        3.10021423       9.11348724      -0.04568169       12      -0.05078382       0.03162390       0.22490909
I        2.90641334       6.21451611       2.91462813       13       0.01814380      -0.21476484       0.06292374
I       12.27983447       9.16007456       3.11496697       14      -0.43287676       0.02215478       0.01950761
K       12.17623091       6.29206976       6.15305604       15       0.02549473      -0.03185357       0.00191146
Ge       3.11000928       9.06172852       8.94256325       16       0.35163703       0.14454458      -0.02545470
I        3.05059696       9.08610669       6.04434591       17       0.01988498      -0.02621448       0.17833875
I        3.06737657       6.22313648       9.20146691       18      -0.02024228       0.06132002      -0.04204061
I       12.17321423       9.12827154       9.12082156       19       0.03001960       0.04135346      -0.01500247
K        6.14614280      11.91364041       0.09291860       20       0.00550444       0.00097038       0.02608173
Ge       9.18351030       3.08202245       3.12394032       21      -0.49403010      -0.21471459      -0.56773495
I        9.16718580       2.97111936       0.27777437       22       0.06292872       0.00805550      -0.84124712
I        9.21889137      12.18192668       2.98327689       23      -0.01290720      -0.17056994       0.15231099
I        6.29586938       3.08142620       2.97485497       24      -0.73049356      -0.00223201       0.04442855
K        6.20356549      11.95993549       6.14044469       25      -0.01328623      -0.01353545      -0.00266127
Pb       9.20834122       3.06772186       9.02136476       26      -0.40587057       0.28559984       0.25660875
I        9.03609005       3.14546766       5.88452921       27      -0.06003130      -0.01239920       0.90856449
I        9.09412365      12.08368213       9.13155081       28       0.02161095       0.07353871      -0.01174425
I        6.10297906       3.04501904       9.15904935       29       0.03349878       0.00350716       0.00913065
K        6.05353550       6.19814303       0.09340812       30      -0.02451131      -0.03538409       0.04470191
Ge       9.06314115       9.05362886       2.93626815       31      -0.33868920       0.10493563      -0.21429718
I        9.16187613       9.20226133       0.11913623       32      -0.00568512      -0.04052209       0.11128537
I        9.11035896       6.10407400       2.89198453       33       0.04620936       0.27831085       0.02715473
I        6.08041103       9.11192012       3.11403261       34       0.48185025      -0.01393698      -0.00221937
K        6.04660412       6.27734229       6.02692155       35      -0.00503063      -0.00377244      -0.01108437
Ge       9.33587807       9.26258165       8.91472177       36      -0.17970344      -0.37872616       0.27607291
I        9.02264204       9.10838157       6.22171457       37       0.10743430       0.09639889      -0.44259240
I        9.17426925       6.24651608       9.00826062       38       0.00671095      -0.09365296       0.08913412
I        6.11480302       9.21349677       9.08470606       39      -0.31705647      -0.01883819       0.02645099
40
Lattice="12.167431460240488 0.0 0.0 0.0 12.162825791002307 0.0 0.0 3.586730294962066e-14 12.16743146024042" Properties=species:S:1:pos:R:3:spacegroup_kinds:I:1:forces:R:3 spacegroup="P 1" unit_cell=conventional candidate_id=ac5ef543ce7d4b22 formula=KGe0.58Pb0.42I3 config_index=2 rattle_stdev=0.08 method=PBE fidelity=phase2_force energy=-110.39204106726284 stress="-0.003124519306695414 6.704399284889471e-05 8.556097332401167e-05 6.704399284889471e-05 -0.0036893300565757057 -6.781894891336342e-05 8.556097332401167e-05 -6.781894891336342e-05 -0.0030091005965765054" pbc="T T T"
K       12.09037625      11.87280722       0.21084032        0       0.00601403      -0.02368634      -0.01587306
Pb       2.92529920       3.01460078       2.94106615        1       0.50560924       0.24586821       0.34212520
I        3.07192718       2.97045466      -0.01588970        2       0.01073747      -0.00144347      -0.22465659
I        3.06559068      12.09631760       2.91633825        3      -0.02749217      -0.39217580       0.03361535
I       12.15802460       3.08022339       3.03140095        4      -0.64486535       0.05386851      -0.03285532
K       12.06714363      11.88103935       5.97828022        5      -0.02985889      -0.03001076       0.02966759
Pb       2.98442415       3.13841791       9.06339759        6       0.57240040       0.14820713       0.11551903
I        2.99477581       3.03609694       6.07797376        7       0.05060853      -0.11605301      -0.25133267
I        2.94720178      11.85391417       9.19855409        8      -0.00317234       1.11393255       0.00432371
I       12.18833675       2.98504493       8.94247184        9      -0.17272655      -0.04819164      -0.05217416
K       12.03641397       6.20302502       0.07550282       10       0.01433778       0.02958890      -0.01762703
Ge       2.99952233       9.18453893       3.02579269       11       0.21832571      -0.22453751      -0.00356393
I        3.00340918       9.03929837      -0.03388672       12       0.02272131      -0.05894963       0.37991184
I        3.10504908       6.16999423       3.21866069       13       0.01022821       0.29887344      -0.04727727
I       12.04937511       9.10299155       3.05924512       14       0.36175821      -0.02418677       0.02506744
K       12.07120247       6.29217639       6.02420972       15       0.00149050       0.01919392       0.02877812
Ge       3.02609537       9.22987405       9.15318751       16      -0.23600706      -0.67417752      -0.07995789
I        3.08646942       9.07449653       6.13601028       17      -0.02020223       0.11109977      -0.31122005
I        3.14835808       6.20802248       9.08671313       18       0.02443274      -0.42973318       0.02945139
I       12.24725257       8.91449075       9.13892785       19       0.05572140       0.02080907      -0.02003031
K        6.23487067      11.81424643       0.12872945       20      -0.00155377       0.00177485      -0.00684022
Ge       9.08556457       2.85316300       3.03322445       21      -0.19804699       0.02466331       0.14632025
I        9.00535058       3.07980874       0.11347488       22       0.08753517       0.05058451      -0.15973691
I        9.21017420      12.07302810       3.03585058       23       0.00706812       0.25383563      -0.01660029
I        6.23287249       3.20861221       3.01461483       24       0.05180375      -0.11807128      -0.01086461
K        6.10952149      11.85536299       6.03280548       25       0.02273157      -0.04303633       0.01393024
Pb       9.21567516       3.07282932       9.18682042       26      -0.51173435      -0.05740807      -0.10090516
I        9.01732340       3.08661513       5.90837560       27       0.05696982      -0.05572255       0.19492257
I        9.17718871      11.91986710       9.27755268       28       0.05461322       0.81543134       0.02143629
I        6.11317296       3.08070408       9.07544631       29       0.03434012      -0.06538581      -0.02990128
K        6.07152316       6.22280153       0.08438039       30      -0.03186402      -0.04424868       0.00509937
Ge       9.16846096       9.03611955       2.86442948       31      -0.22568744      -0.31313493       0.19001858
I        9.17732801       9.09633248      -0.00776768       32       0.00761284      -0.06371654       0.25736806
I        8.94249985       6.09270165       3.11828297       33       0.12419919       0.29613846      -0.07528439
I        6.12613224       9.28707354       3.04685470       34      -0.30977055       0.01442741      -0.05449096
K        6.15198129       6.24902205       6.04555616       35      -0.00050794      -0.01747956       0.00716531
Ge       9.06052432       9.11399474       9.16123065       36      -0.06069798       0.11008586      -0.44954883
I        9.02356330       9.13074589       6.14585723       37       0.07900492       0.10557338      -0.00929169
I        9.11302543       6.33909958       9.00779252       38       0.06231759      -0.98073422       0.03297310
I        6.15933103       9.05064818       9.08165595       39       0.00948442       0.07911763       0.10187471
40
Lattice="12.167431460240488 0.0 0.0 0.0 12.162825791002307 0.0 0.0 3.586730294962066e-14 12.16743146024042" Properties=species:S:1:pos:R:3:spacegroup_kinds:I:1:forces:R:3 spacegroup="P 1" unit_cell=conventional candidate_id=ac5ef543ce7d4b22 formula=KGe0.58Pb0.42I3 config_index=3 rattle_stdev=0.08 method=PBE fidelity=phase2_force energy=-110.07822384588606 stress="-0.0036335656551307904 9.54256786993577e-05 -6.0341076136191085e-05 9.54256786993577e-05 -0.003187937006514708 -4.795890913404971e-05 -6.0341076136191085e-05 -4.795890913404971e-05 -0.003212793685709936" pbc="T T T"
K       11.99370981      12.12027257       0.07184333        0      -0.00896741       0.09052935       0.03926320
Pb       3.02284417       3.04743626       3.11862125        1      -0.28777807      -0.22407792      -1.14477407
I        2.98732999       3.08303208      -0.04988509        2       0.01782771       0.03357120      -0.08408527
I        3.15425436      11.98227021       2.93738701        3       0.04354780       0.02372445       0.00618677
I       11.95541948       2.91103178       2.93945998        4       0.52960776       0.04801034       0.00704151
K       12.08144955      11.89088745       5.95521835        5      -0.04754067       0.01474843      -0.02708471
Pb       3.06291153       2.83629100       8.99195092        6      -0.16467864       0.30632809       0.57110891
I        2.98491905       2.84496440       5.96947258        7      -0.06148476      -0.09946933       0.72049851
I        3.09494767      11.87550685       9.06234082        8      -0.05529217       1.10100145       0.03372086
I       12.03513343       2.94554325       9.30690881        9       0.88790006       0.00699928       0.10214456
K       12.06125106       6.35703947      -0.07635689       10       0.00519922      -0.04040215      -0.04715780
Ge       3.00256070       9.02615962       2.97744024       11      -0.09701392       0.35936259      -0.14195678
I        3.15432335       9.10369409      -0.05076369       12      -0.05063317      -0.07528120       0.55621510
I        3.02885086       6.18968365       3.16298728       13      -0.00206518      -0.01741642       0.02763154
I       12.02158818       9.17480171       3.01432856       14       0.92182188      -0.08875536       0.03568123
K       12.03869744       6.29906845       5.96309428       15      -0.05798756       0.02015684      -0.00522113
Ge       3.08607350       9.15272800       9.09587037       16      -0.00069532      -0.74432003      -0.08189836
I        3.16810938       9.13946314       6.17431103       17      -0.00919040       0.02205417      -0.38332231
I        3.10037631       6.32034480       9.07914911       18      -0.01638255      -0.74408282      -0.02574547
I       12.15315226       8.99533015       9.11959628       19      -0.21820703       0.02107985       0.02977399
K        6.24765861      11.93769852       0.01589420       20      -0.01711275      -0.00876316      -0.00216704
Ge       8.97385067       2.91748253       3.01043201       21       0.44701715       0.14849998       0.03562421
I        9.09241513       3.09759187       0.20913119       22      -0.08743898      -0.00429981      -0.54039197
I        9.31736050      12.12899094       2.96078717       23      -0.15266154      -0.26804729       0.01993415
I        6.20596039       3.10838462       3.08140659       24      -0.51809777      -0.04130566       0.04586325
K        6.17404496      12.00069961       6.04108690       25       0.01419248      -0.03409793       0.01525348
Pb       9.14374450       3.00947921       9.06813219       26      -0.40293058      -0.04241562      -0.10783648
I        9.24910249       2.97167084       5.89728037       27       0.00659486      -0.03353978       0.50873042
I        9.13227774      12.13458241       9.03122662       28      -0.02640587      -0.73998619       0.06889600
I        6.06392592       3.00683530       9.17032054       29      -0.20392422      -0.01349054      -0.00510502
K        6.10557432       6.29100614       0.13741458       30      -0.00130573      -0.01229045      -0.02539559
Ge       9.15876631       9.10402056       3.10230532       31      -0.22075434      -0.15187012       0.14482153
I        9.14358399       9.08693910       0.05836380       32       0.03370111      -0.00704283      -0.08884248
I        9.05388373       5.98770927       3.18125660       33       0.09645897       0.32188416       0.01186984
I        6.32329924       9.06822132       2.98017592       34      -0.66468357       0.04000383       0.02550689
K        6.23619328       6.37696339       6.02532741       35       0.03761609       0.04727389       0.00440335
Ge       9.12657307       9.06615763       9.27567753       36       0.11488798       0.00683733      -0.15713724
I        9.08952092       9.09762060       6.19069762       37       0.00863339       0.00727088      -0.18403215
I        9.07328631       6.06266871       9.17400175       38      -0.01955282       0.75361368       0.02154055
I        6.04810232       9.13871853       9.21328576       39       0.23476718       0.01194213       0.01773424
