Cs Pb I  Cs Pb Br I  Cs Pb Br I  Cs Pb I  Br I  Cs Pb I  Br Cs Pb I  Br Cs Pb I  Br Cs Pb I  Br
 1.0000000000000000
    13.1019815486055382    0.0000000000000000    0.0000000000000000
     0.0000000000000000   13.1019815486055382    0.0000000000000000
     0.0000000000000000    0.0000000000000000   13.1019815486055382
 Cs  Pb  I   Cs  Pb  Br  I   Cs  Pb  Br  I   Cs  Pb  I   Br  I   Cs  Pb  I   Br  Cs  Pb  I   Br  Cs  Pb  I   Br  Cs  Pb  I   Br 
   1   1   3   1   1   2   1   1   1   2   1   1   1   1   1   1   1   1   2   1   1   1   2   1   1   1   1   2   1   1   1   2
Cartesian
  0.0000000000000000  0.0000000000000000  0.0000000000000000
  3.2754953871513846  3.2754953871513846  3.2754953871513846
  3.2754953871513846  3.2754953871513846  0.0000000000000000
  3.2754953871513846  0.0000000000000000  3.2754953871513846
  0.0000000000000000  3.2754953871513846  3.2754953871513846
  0.0000000000000000  0.0000000000000000  6.5509907743027682
  3.2754953871513846  3.2754953871513846  9.8264861614541541
  3.2754953871513846  3.2754953871513846  6.5509907743027682
  3.2754953871513846  0.0000000000000000  9.8264861614541541
  0.0000000000000000  3.2754953871513846  9.8264861614541541
  0.0000000000000000  6.5509907743027682  0.0000000000000000
  3.2754953871513846  9.8264861614541541  3.2754953871513846
  3.2754953871513846  9.8264861614541541  0.0000000000000000
  3.2754953871513846  6.5509907743027682  3.2754953871513846
  0.0000000000000000  9.8264861614541541  3.2754953871513846
  0.0000000000000000  6.5509907743027682  6.5509907743027682
  3.2754953871513846  9.8264861614541541  9.8264861614541541
  3.2754953871513846  9.8264861614541541  6.5509907743027682
  3.2754953871513846  6.5509907743027682  9.8264861614541541
  0.0000000000000000  9.8264861614541541  9.8264861614541541
  6.5509907743027682  0.0000000000000000  0.0000000000000000
  9.8264861614541541  3.2754953871513846  3.2754953871513846
  9.8264861614541541  3.2754953871513846  0.0000000000000000
  9.8264861614541541  0.0000000000000000  3.2754953871513846
  6.5509907743027682  3.2754953871513846  3.2754953871513846
  6.5509907743027682  0.0000000000000000  6.5509907743027682
  9.8264861614541541  3.2754953871513846  9.8264861614541541
  9.8264861614541541  3.2754953871513846  6.5509907743027682
  9.8264861614541541  0.0000000000000000  9.8264861614541541
  6.5509907743027682  3.2754953871513846  9.8264861614541541
  6.5509907743027682  6.5509907743027682  0.0000000000000000
  9.8264861614541541  9.8264861614541541  3.2754953871513846
  9.8264861614541541  9.8264861614541541  0.0000000000000000
  9.8264861614541541  6.5509907743027682  3.2754953871513846
  6.5509907743027682  9.8264861614541541  3.2754953871513846
  6.5509907743027682  6.5509907743027682  6.5509907743027682
  9.8264861614541541  9.8264861614541541  9.8264861614541541
  9.8264861614541541  9.8264861614541541  6.5509907743027682
  9.8264861614541541  6.5509907743027682  9.8264861614541541
  6.5509907743027682  9.8264861614541541  9.8264861614541541
