Cs Sn I  Cs Sn I  Cs Sn Br I  Cs Sn I  Br I  Cs Sn I  Br Cs Sn I  Cs Sn I  Br I  Cs Sn I  Br
 1.0000000000000000
    13.2934660649508558    0.0000000000000000    0.0000000000000000
     0.0000000000000000   13.2934660649508558    0.0000000000000000
     0.0000000000000000    0.0000000000000000   13.2934660649508558
 Cs  Sn  I   Cs  Sn  I   Cs  Sn  Br  I   Cs  Sn  I   Br  I   Cs  Sn  I   Br  Cs  Sn  I   Cs  Sn  I   Br  I   Cs  Sn  I   Br 
   1   1   3   1   1   3   1   1   2   1   1   1   1   1   1   1   1   2   1   1   1   3   1   1   1   1   1   1   1   2   1
Cartesian
  0.0000000000000000  0.0000000000000000  0.0000000000000000
  3.3233665162377140  3.3233665162377140  3.3233665162377140
  3.3233665162377140  3.3233665162377140  0.0000000000000000
  3.3233665162377140  0.0000000000000000  3.3233665162377140
  0.0000000000000000  3.3233665162377140  3.3233665162377140
  0.0000000000000000  0.0000000000000000  6.6467330324754270
  3.3233665162377140  3.3233665162377140  9.9700995487131419
  3.3233665162377140  3.3233665162377140  6.6467330324754270
  3.3233665162377140  0.0000000000000000  9.9700995487131419
  0.0000000000000000  3.3233665162377140  9.9700995487131419
  0.0000000000000000  6.6467330324754270  0.0000000000000000
  3.3233665162377140  9.9700995487131419  3.3233665162377140
  3.3233665162377140  9.9700995487131419  0.0000000000000000
  3.3233665162377140  6.6467330324754270  3.3233665162377140
  0.0000000000000000  9.9700995487131419  3.3233665162377140
  0.0000000000000000  6.6467330324754270  6.6467330324754270
  3.3233665162377140  9.9700995487131419  9.9700995487131419
  3.3233665162377140  9.9700995487131419  6.6467330324754270
  3.3233665162377140  6.6467330324754270  9.9700995487131419
  0.0000000000000000  9.9700995487131419  9.9700995487131419
  6.6467330324754270  0.0000000000000000  0.0000000000000000
  9.9700995487131419  3.3233665162377140  3.3233665162377140
  9.9700995487131419  3.3233665162377140  0.0000000000000000
  9.9700995487131419  0.0000000000000000  3.3233665162377140
  6.6467330324754270  3.3233665162377140  3.3233665162377140
  6.6467330324754270  0.0000000000000000  6.6467330324754270
  9.9700995487131419  3.3233665162377140  9.9700995487131419
  9.9700995487131419  3.3233665162377140  6.6467330324754270
  9.9700995487131419  0.0000000000000000  9.9700995487131419
  6.6467330324754270  3.3233665162377140  9.9700995487131419
  6.6467330324754270  6.6467330324754270  0.0000000000000000
  9.9700995487131419  9.9700995487131419  3.3233665162377140
  9.9700995487131419  9.9700995487131419  0.0000000000000000
  9.9700995487131419  6.6467330324754270  3.3233665162377140
  6.6467330324754270  9.9700995487131419  3.3233665162377140
  6.6467330324754270  6.6467330324754270  6.6467330324754270
  9.9700995487131419  9.9700995487131419  9.9700995487131419
  9.9700995487131419  9.9700995487131419  6.6467330324754270
  9.9700995487131419  6.6467330324754270  9.9700995487131419
  6.6467330324754270  9.9700995487131419  9.9700995487131419
