Cs Sn I  Cs Sn I  Cs Sn Cl I  Cs Sn I  Cl I  Cs Sn I  Cl Cs Sn I  Cs Sn I  Cl I  Cs Sn I  Cl
 1.0000000000000000
    13.1318214547716110    0.0000000000000000    0.0000000000000000
     0.0000000000000000   13.1318214547716110    0.0000000000000000
     0.0000000000000000    0.0000000000000000   13.1318214547716110
 Cs  Sn  I   Cs  Sn  I   Cs  Sn  Cl  I   Cs  Sn  I   Cl  I   Cs  Sn  I   Cl  Cs  Sn  I   Cs  Sn  I   Cl  I   Cs  Sn  I   Cl 
   1   1   3   1   1   3   1   1   2   1   1   1   1   1   1   1   1   2   1   1   1   3   1   1   1   1   1   1   1   2   1
Cartesian
  0.0000000000000000  0.0000000000000000  0.0000000000000000
  3.2829553636929028  3.2829553636929028  3.2829553636929028
  3.2829553636929028  3.2829553636929028  0.0000000000000000
  3.2829553636929028  0.0000000000000000  3.2829553636929028
  0.0000000000000000  3.2829553636929028  3.2829553636929028
  0.0000000000000000  0.0000000000000000  6.5659107273858046
  3.2829553636929028  3.2829553636929028  9.8488660910787083
  3.2829553636929028  3.2829553636929028  6.5659107273858046
  3.2829553636929028  0.0000000000000000  9.8488660910787083
  0.0000000000000000  3.2829553636929028  9.8488660910787083
  0.0000000000000000  6.5659107273858046  0.0000000000000000
  3.2829553636929028  9.8488660910787083  3.2829553636929028
  3.2829553636929028  9.8488660910787083  0.0000000000000000
  3.2829553636929028  6.5659107273858046  3.2829553636929028
  0.0000000000000000  9.8488660910787083  3.2829553636929028
  0.0000000000000000  6.5659107273858046  6.5659107273858046
  3.2829553636929028  9.8488660910787083  9.8488660910787083
  3.2829553636929028  9.8488660910787083  6.5659107273858046
  3.2829553636929028  6.5659107273858046  9.8488660910787083
  0.0000000000000000  9.8488660910787083  9.8488660910787083
  6.5659107273858046  0.0000000000000000  0.0000000000000000
  9.8488660910787083  3.2829553636929028  3.2829553636929028
  9.8488660910787083  3.2829553636929028  0.0000000000000000
  9.8488660910787083  0.0000000000000000  3.2829553636929028
  6.5659107273858046  3.2829553636929028  3.2829553636929028
  6.5659107273858046  0.0000000000000000  6.5659107273858046
  9.8488660910787083  3.2829553636929028  9.8488660910787083
  9.8488660910787083  3.2829553636929028  6.5659107273858046
  9.8488660910787083  0.0000000000000000  9.8488660910787083
  6.5659107273858046  3.2829553636929028  9.8488660910787083
  6.5659107273858046  6.5659107273858046  0.0000000000000000
  9.8488660910787083  9.8488660910787083  3.2829553636929028
  9.8488660910787083  9.8488660910787083  0.0000000000000000
  9.8488660910787083  6.5659107273858046  3.2829553636929028
  6.5659107273858046  9.8488660910787083  3.2829553636929028
  6.5659107273858046  6.5659107273858046  6.5659107273858046
  9.8488660910787083  9.8488660910787083  9.8488660910787083
  9.8488660910787083  9.8488660910787083  6.5659107273858046
  9.8488660910787083  6.5659107273858046  9.8488660910787083
  6.5659107273858046  9.8488660910787083  9.8488660910787083
