40
Lattice="12.29491834906362 0.0 0.0 0.0 12.284064236127561 0.0 0.0 8.94290748230797e-15 12.294918349063591" Properties=species:S:1:pos:R:3:spacegroup_kinds:I:1:forces:R:3 spacegroup="P 1" unit_cell=conventional occupancy="_JSON {\"0\": {\"Cs\": 1.0}, \"1\": {\"Sn\": 1.0}, \"2\": {\"I\": 1.0}, \"3\": {\"I\": 1.0}, \"4\": {\"I\": 1.0}, \"5\": {\"Cs\": 1.0}, \"6\": {\"Sn\": 1.0}, \"7\": {\"I\": 1.0}, \"8\": {\"I\": 1.0}, \"9\": {\"I\": 1.0}, \"10\": {\"Cs\": 1.0}, \"11\": {\"Sn\": 1.0}, \"12\": {\"I\": 1.0}, \"13\": {\"I\": 1.0}, \"14\": {\"I\": 1.0}, \"15\": {\"Cs\": 1.0}, \"16\": {\"Ge\": 1.0}, \"17\": {\"I\": 1.0}, \"18\": {\"I\": 1.0}, \"19\": {\"I\": 1.0}, \"20\": {\"Cs\": 1.0}, \"21\": {\"Ge\": 1.0}, \"22\": {\"I\": 1.0}, \"23\": {\"I\": 1.0}, \"24\": {\"I\": 1.0}, \"25\": {\"Cs\": 1.0}, \"26\": {\"Sn\": 1.0}, \"27\": {\"I\": 1.0}, \"28\": {\"I\": 1.0}, \"29\": {\"I\": 1.0}, \"30\": {\"Cs\": 1.0}, \"31\": {\"Ge\": 1.0}, \"32\": {\"I\": 1.0}, \"33\": {\"I\": 1.0}, \"34\": {\"I\": 1.0}, \"35\": {\"Cs\": 1.0}, \"36\": {\"Sn\": 1.0}, \"37\": {\"I\": 1.0}, \"38\": {\"I\": 1.0}, \"39\": {\"I\": 1.0}}" candidate_id=363e8073b5bba7ad formula=FAGe0.37Sn0.63I3 config_index=0 rattle_stdev=0.0 method=PBE fidelity=phase2_force energy=-111.94652010016539 stress="-0.0013874782981579555 8.165522221875032e-11 -1.2721506323743767e-10 8.165522221875032e-11 -0.0019782573945984184 -8.165522077983303e-11 -1.2721506323743767e-10 -8.165522077983303e-11 -0.0013874782981579618" pbc="T T T"
Cs      12.25070611      12.22888165       0.04421224        0       0.00434272       0.01161843      -0.00434272
Sn       3.07372959       3.07101606       3.07372959        1       0.00015610       0.00019550       0.00020899
I        3.07372959       3.07101606       0.00028180        2      -0.00000088      -0.00000352       0.01011887
I        3.07372959      12.28015928       3.07372959        3      -0.00000257       0.00566588      -0.00000120
I       12.19776808       3.07101606       3.07372959        4       0.10277197      -0.00000363      -0.00000149
Cs      12.25070611      12.22888165       6.10324694        5       0.00434599       0.01162226       0.00434549
Sn       3.07372959       3.07101606       9.22118876        6       0.00020967       0.00015002      -0.00020967
I        3.07372959       3.07101606       6.14717737        7      -0.00000133      -0.00000410      -0.01011835
I        3.07372959      12.19066016       9.22118876        8      -0.00000118       0.09985798       0.00000118
I       12.29463655       3.07101606       9.22118876        9      -0.01011887      -0.00000352       0.00000088
Cs      12.25070611       6.19721470       0.04421224       10       0.00434291      -0.01162194      -0.00434291
Sn       3.07372959       9.21304818       3.07372959       11       0.00015713      -0.00019902       0.00016414
I        3.07372959       9.21304818      12.20685608       12      -0.00000275       0.00000405       0.10691685
I        3.07372959       6.14593707       3.07372959       13      -0.00000296      -0.00566655      -0.00000167
I       12.20155094       9.21304818       3.07372959       14       0.08966712       0.00000362      -0.00000290
Cs      12.25070611       6.19721470       6.10324694       15       0.00434644      -0.01162497       0.00434616
Ge       3.07372959       9.21304818       9.22118876       16       0.00000242       0.00000076      -0.00000242
I        3.07372959       9.21304818       6.23552145       17      -0.00000294       0.00000424      -0.10688563
I        3.07372959       6.23543620       9.22118876       18      -0.00000138      -0.09982958       0.00000138
I        0.08806227       9.21304818       9.22118876       19      -0.10691685       0.00000405       0.00000275
Cs       6.19167141      12.22888165       0.04421224       20      -0.00434549       0.01162226      -0.00434599
Ge       9.22118876       3.07101606       3.07372959       21      -0.00000393      -0.00000687       0.00000393
I        9.22118876       3.07101606       0.09715026       22       0.00000149      -0.00000363      -0.10277197
I        9.22118876      12.27956520       3.07372959       23       0.00000308      -0.00397505      -0.00000308
I        6.24460944       3.07101606       3.07372959       24      -0.10274493      -0.00000370      -0.00000165
Cs       6.19167141      12.22888165       6.10324694       25      -0.00434899       0.01162530       0.00434899
Sn       9.22118876       3.07101606       9.22118876       26      -0.00020899       0.00019550      -0.00015610
I        9.22118876       3.07101606       6.05030891       27       0.00000165      -0.00000370       0.10274493
I        9.22118876      12.28015928       9.22118876       28       0.00000120       0.00566588       0.00000257
I        6.14774097       3.07101606       9.22118876       29       0.01011835      -0.00000410       0.00000133
Cs       6.19167141       6.19721470       0.04421224       30      -0.00434616      -0.01162497      -0.00434644
Ge       9.22118876       9.21304818       3.07372959       31      -0.00000233       0.00000735       0.00000233
I        9.22118876       9.21304818       0.09336741       32       0.00000290       0.00000362      -0.08966712
I        9.22118876       6.14653116       3.07372959       33       0.00000336       0.00397481      -0.00000336
I        6.24082658       9.21304818       3.07372959       34      -0.08963878       0.00000374      -0.00000313
Cs       6.19167141       6.19721470       6.10324694       35      -0.00434939      -0.01162872       0.00434939
Sn       9.22118876       9.21304818       9.22118876       36      -0.00016414      -0.00019902      -0.00015713
I        9.22118876       9.21304818       6.05409177       37       0.00000313       0.00000374       0.08963878
I        9.22118876       6.14593707       9.22118876       38       0.00000167      -0.00566655       0.00000296
I        6.05939690       9.21304818       9.22118876       39       0.10688563       0.00000424       0.00000294
40
Lattice="12.29491834906362 0.0 0.0 0.0 12.284064236127561 0.0 0.0 8.94290748230797e-15 12.294918349063591" Properties=species:S:1:pos:R:3:spacegroup_kinds:I:1:forces:R:3 spacegroup="P 1" unit_cell=conventional occupancy="_JSON {\"0\": {\"Cs\": 1.0}, \"1\": {\"Sn\": 1.0}, \"2\": {\"I\": 1.0}, \"3\": {\"I\": 1.0}, \"4\": {\"I\": 1.0}, \"5\": {\"Cs\": 1.0}, \"6\": {\"Sn\": 1.0}, \"7\": {\"I\": 1.0}, \"8\": {\"I\": 1.0}, \"9\": {\"I\": 1.0}, \"10\": {\"Cs\": 1.0}, \"11\": {\"Sn\": 1.0}, \"12\": {\"I\": 1.0}, \"13\": {\"I\": 1.0}, \"14\": {\"I\": 1.0}, \"15\": {\"Cs\": 1.0}, \"16\": {\"Ge\": 1.0}, \"17\": {\"I\": 1.0}, \"18\": {\"I\": 1.0}, \"19\": {\"I\": 1.0}, \"20\": {\"Cs\": 1.0}, \"21\": {\"Ge\": 1.0}, \"22\": {\"I\": 1.0}, \"23\": {\"I\": 1.0}, \"24\": {\"I\": 1.0}, \"25\": {\"Cs\": 1.0}, \"26\": {\"Sn\": 1.0}, \"27\": {\"I\": 1.0}, \"28\": {\"I\": 1.0}, \"29\": {\"I\": 1.0}, \"30\": {\"Cs\": 1.0}, \"31\": {\"Ge\": 1.0}, \"32\": {\"I\": 1.0}, \"33\": {\"I\": 1.0}, \"34\": {\"I\": 1.0}, \"35\": {\"Cs\": 1.0}, \"36\": {\"Sn\": 1.0}, \"37\": {\"I\": 1.0}, \"38\": {\"I\": 1.0}, \"39\": {\"I\": 1.0}}" candidate_id=363e8073b5bba7ad formula=FAGe0.37Sn0.63I3 config_index=1 rattle_stdev=0.08 method=PBE fidelity=phase2_force energy=-111.54405789393252 stress="-0.003252355306556426 1.4132194216323348e-05 1.2242977887670501e-05 1.4132194216323348e-05 -0.0031341719984857444 -6.250369098662139e-05 1.2242977887670501e-05 -6.250369098662139e-05 -0.0036799808912728" pbc="T T T"
Cs      12.16379040      12.15719644       0.01970829        0       0.01766650       0.06452270       0.02130558
Sn       2.96653489       2.97448921       3.02239144        1       0.19482910       0.32197487       0.26932696
I        3.17836524       3.21865289       0.06661100        2      -0.07137782      -0.06257026      -0.05183069
I        3.07186568      12.26347416       3.00040001        3       0.02495294       0.01156004       0.00762352
I       12.11178868       3.06412458       3.16779667        4       0.55648333       0.01177914       0.01138234
Cs      12.11989877      12.32713717       6.18935784        5       0.05521318       0.03094861      -0.05032545
Sn       3.10531142       3.03999999       9.26826090        6       0.08664213      -0.07988963      -0.16393911
I        2.95906568       3.04513008       6.24741615        7       0.06180951       0.02284013      -0.22170423
I        3.01527018      12.30493896       9.29676107        8      -0.00531867      -0.23186817      -0.00132993
I       12.27351633       3.05795899       9.14406018        9       0.10399916       0.01285039       0.05625551
Cs      12.22329433       6.20112703       0.00424168       10      -0.00500940      -0.04003422       0.01011499
Sn       2.89677723       9.23783513       2.94655749       11       0.49427499      -0.31770961      -0.17571871
I        3.13208595       9.20441608      12.15484236       12      -0.06037549       0.03125141       0.24031858
I        2.93828507       6.11645915       2.94649985       13       0.01530746       0.05007597       0.09436055
I       12.31999141       9.25100339       3.14683869       14      -0.49313067       0.00664488       0.03930881
Cs      12.32754373       6.20397811       6.24062541       15       0.01730721      -0.04600168      -0.04050003
Ge       3.14188100       9.15265735       9.03817842       16       0.29550846      -0.02116946       0.14078790
I        3.08246868       9.17703553       6.20248365       17       0.00681624       0.00657189      -0.05102077
I        3.09924829       6.19214756       9.29708208       18      -0.01732043       0.31594332      -0.07865405
I        0.10017708       9.21920037       9.21643673       19       0.06578808       0.02708160      -0.00853114
Cs       6.18606031      12.18358973       0.06909266       20       0.00868584       0.04174980       0.01684571
Ge       9.27912547       3.11233206       3.15581204       21      -0.35064451      -0.20486816      -0.48868285
I        9.26280097       3.00142898       0.21719548       22       0.04661132       0.03870604      -0.46276459
I        9.31450653      12.31891836       3.01514861       23      -0.04611303      -0.06519988       0.16033412
I        6.29903393       3.11173581       3.00672669       24      -0.40723700      -0.02747871       0.07884720
Cs       6.24348300      12.22988481       6.22801407       25      -0.05100401       0.03883370      -0.04953367
Sn       9.30395639       3.09803147       9.11697993       26      -0.19169828       0.30075608       0.21057008
I        9.13170522       3.17577727       6.00885155       27      -0.01162861      -0.03630841       0.51266213
I        9.18973882      12.36359676       9.22716598       28       0.01003958      -0.20301148      -0.01009953
I        6.15489594       3.07532865       9.25466452       29      -0.02092428      -0.00056095      -0.00723994
Cs       6.09345301       6.11005138       0.06958219       30       0.03481784       0.00294748       0.00692514
Ge       9.15875632       9.14455769       2.96813988       31      -0.26373460       0.06809370      -0.05263643
I        9.25749129       9.29319016       0.20646618       32      -0.02363032      -0.05203857      -0.17696834
I        9.20597413       6.14894000       2.92385625       33       0.04405494       0.18145233       0.07982935
I        6.23148443       9.20284895       3.14590433       34       0.25923120       0.00108151      -0.01617666
Cs       6.08652164       6.18925064       6.11449093       35      -0.00759167      -0.03549659      -0.01035004
Sn       9.43149324       9.35351048       9.01033694       36      -0.33244568      -0.35520951       0.57416762
I        9.11825720       9.19931040       6.19812806       37       0.07599950       0.04220753      -0.51258793
I        9.26988441       6.14845912       9.10387579       38      -0.01024429       0.18001746       0.08027298
I        6.08415216       9.30442560       9.18032123       39      -0.10566308      -0.03169854       0.01703707
40
Lattice="12.29491834906362 0.0 0.0 0.0 12.284064236127561 0.0 0.0 8.94290748230797e-15 12.294918349063591" Properties=species:S:1:pos:R:3:spacegroup_kinds:I:1:forces:R:3 spacegroup="P 1" unit_cell=conventional occupancy="_JSON {\"0\": {\"Cs\": 1.0}, \"1\": {\"Sn\": 1.0}, \"2\": {\"I\": 1.0}, \"3\": {\"I\": 1.0}, \"4\": {\"I\": 1.0}, \"5\": {\"Cs\": 1.0}, \"6\": {\"Sn\": 1.0}, \"7\": {\"I\": 1.0}, \"8\": {\"I\": 1.0}, \"9\": {\"I\": 1.0}, \"10\": {\"Cs\": 1.0}, \"11\": {\"Sn\": 1.0}, \"12\": {\"I\": 1.0}, \"13\": {\"I\": 1.0}, \"14\": {\"I\": 1.0}, \"15\": {\"Cs\": 1.0}, \"16\": {\"Ge\": 1.0}, \"17\": {\"I\": 1.0}, \"18\": {\"I\": 1.0}, \"19\": {\"I\": 1.0}, \"20\": {\"Cs\": 1.0}, \"21\": {\"Ge\": 1.0}, \"22\": {\"I\": 1.0}, \"23\": {\"I\": 1.0}, \"24\": {\"I\": 1.0}, \"25\": {\"Cs\": 1.0}, \"26\": {\"Sn\": 1.0}, \"27\": {\"I\": 1.0}, \"28\": {\"I\": 1.0}, \"29\": {\"I\": 1.0}, \"30\": {\"Cs\": 1.0}, \"31\": {\"Ge\": 1.0}, \"32\": {\"I\": 1.0}, \"33\": {\"I\": 1.0}, \"34\": {\"I\": 1.0}, \"35\": {\"Cs\": 1.0}, \"36\": {\"Sn\": 1.0}, \"37\": {\"I\": 1.0}, \"38\": {\"I\": 1.0}, \"39\": {\"I\": 1.0}}" candidate_id=363e8073b5bba7ad formula=FAGe0.37Sn0.63I3 config_index=2 rattle_stdev=0.08 method=PBE fidelity=phase2_force energy=-111.52952892089073 stress="-0.002645730778267461 2.200100416654453e-05 -2.942203909606111e-05 2.200100416654453e-05 -0.003487396595847859 1.2851863482885513e-06 -2.942203909606111e-05 1.2851863482885513e-06 -0.0024875496556190026" pbc="T T T"
Cs      12.24168907      12.14275653       0.18701439        0       0.02737862       0.02355336      -0.08526727
Sn       2.95717092       3.04491040       2.97293787        1       0.40667450       0.31648224       0.14252435
I        3.10379891       3.00076427      -0.02771626        2      -0.03856566       0.04554203      -0.01941533
I        3.09746240      12.37623223       2.94820997        3       0.00563838      -0.63762664       0.06235496
I       12.34609038       3.11053300       3.06327267        4      -0.57740448       0.00994900      -0.03115316
Cs      12.21845645      12.15098867       6.06584960        5      -0.00582553       0.00224847       0.06232093
Sn       3.01629587       3.16872752       9.15901276        6       0.42879889       0.13031599      -0.01479102
I        3.02664754       3.06640655       6.15354377        7       0.03971454      -0.10172952      -0.11104659
I        2.97907350      12.06676076       9.29416926        8       0.02797535       0.36809293      -0.01569523
I       12.32765021       3.01535454       9.03808701        9      -0.17388978       0.00924911       0.04159749
Cs      12.18772679       6.11493337       0.05167688       10       0.03043794       0.00554841      -0.01233586
Sn       3.03139405       9.27546777       3.05766441       11       0.21077004      -0.23686267       0.03237507
I        3.03528090       9.13022721      12.16663733       12       0.03462449      -0.04392766       0.45656533
I        3.13692080       6.07193726       3.25053241       13      -0.01734646       0.51724845      -0.07169003
I       12.08953204       9.19392039       3.09111684       14       0.54732200      -0.03848955       0.02755160
Cs      12.22251529       6.20408475       6.11177910       15       0.00010102      -0.00151109       0.00810305
Ge       3.05796709       9.32080289       9.24880268       16      -0.17520529      -0.15914999      -0.09251891
I        3.11834114       9.16542536       6.29414802       17      -0.02612353       0.07427031      -0.40865107
I        3.18022980       6.17703356       9.18232830       18      -0.03219584      -0.29655972       0.03631859
I        0.17421541       9.00541958       9.23454302       19      -0.14132768       0.03840838      -0.01410312
Cs       6.27478818      12.08419574       0.10490351       20      -0.04031942       0.07473556      -0.05137676
Ge       9.18117974       2.88347261       3.06509617       21      -0.31935664       0.08193386       0.17413995
I        9.10096575       3.11011835       0.05289598       22       0.11092335       0.01597044      -0.00175308
I        9.30578936      12.21001977       3.06772230       23      -0.02668097       0.32593201      -0.00685680
I        6.23603704       3.23892182       3.04648655       24       0.28594486      -0.20316134      -0.00225322
Cs       6.14943900      12.12531230       6.12037486       25       0.01416932       0.04598806       0.03424040
Sn       9.31129033       3.10313893       9.28243559       26      -0.40656882      -0.08046199      -0.12019000
I        9.11293857       3.11692474       6.03269794       27       0.08041510      -0.10219095      -0.03727461
I        9.27280388      12.19978174       9.37316785       28       0.03209520       0.51273912      -0.00972948
I        6.16508984       3.11101369       9.17106148       29       0.06986278      -0.07357341      -0.00083921
Cs       6.11144067       6.13470989       0.06055445       30      -0.01693962      -0.02313803      -0.00620270
Ge       9.26407612       9.12704838       2.89630121       31      -0.31571790      -0.30400540       0.36085936
I        9.27294318       9.18726131       0.07956227       32      -0.00169676      -0.05807859       0.03003902
I        9.03811502       6.13756765       3.15015469       33       0.16140225       0.20947434      -0.10768431
I        6.27720564       9.37800237       3.07872642       34      -0.45132503      -0.02993099      -0.04236894
Cs       6.19189881       6.16093040       6.13312554       35      -0.01246524      -0.01544217       0.00312948
Sn       9.15613948       9.20492358       9.25684582       36       0.08264177       0.10576163      -0.44506043
I        9.11917847       9.22167472       6.12227072       37       0.07783628       0.06095014       0.08841825
I        9.20864059       6.24104262       9.10340769       38       0.05601299      -0.62250742       0.05239434
I        6.12868017       9.14157701       9.17727111       39       0.04338171       0.05691356       0.09235779
40
Lattice="12.29491834906362 0.0 0.0 0.0 12.284064236127561 0.0 0.0 8.94290748230797e-15 12.294918349063591" Properties=species:S:1:pos:R:3:spacegroup_kinds:I:1:forces:R:3 spacegroup="P 1" unit_cell=conventional occupancy="_JSON {\"0\": {\"Cs\": 1.0}, \"1\": {\"Sn\": 1.0}, \"2\": {\"I\": 1.0}, \"3\": {\"I\": 1.0}, \"4\": {\"I\": 1.0}, \"5\": {\"Cs\": 1.0}, \"6\": {\"Sn\": 1.0}, \"7\": {\"I\": 1.0}, \"8\": {\"I\": 1.0}, \"9\": {\"I\": 1.0}, \"10\": {\"Cs\": 1.0}, \"11\": {\"Sn\": 1.0}, \"12\": {\"I\": 1.0}, \"13\": {\"I\": 1.0}, \"14\": {\"I\": 1.0}, \"15\": {\"Cs\": 1.0}, \"16\": {\"Ge\": 1.0}, \"17\": {\"I\": 1.0}, \"18\": {\"I\": 1.0}, \"19\": {\"I\": 1.0}, \"20\": {\"Cs\": 1.0}, \"21\": {\"Ge\": 1.0}, \"22\": {\"I\": 1.0}, \"23\": {\"I\": 1.0}, \"24\": {\"I\": 1.0}, \"25\": {\"Cs\": 1.0}, \"26\": {\"Sn\": 1.0}, \"27\": {\"I\": 1.0}, \"28\": {\"I\": 1.0}, \"29\": {\"I\": 1.0}, \"30\": {\"Cs\": 1.0}, \"31\": {\"Ge\": 1.0}, \"32\": {\"I\": 1.0}, \"33\": {\"I\": 1.0}, \"34\": {\"I\": 1.0}, \"35\": {\"Cs\": 1.0}, \"36\": {\"Sn\": 1.0}, \"37\": {\"I\": 1.0}, \"38\": {\"I\": 1.0}, \"39\": {\"I\": 1.0}}" candidate_id=363e8073b5bba7ad formula=FAGe0.37Sn0.63I3 config_index=3 rattle_stdev=0.08 method=PBE fidelity=phase2_force energy=-111.15909843273921 stress="-0.003142239713944038 7.159996361687427e-05 4.8151571271658884e-05 7.159996361687427e-05 -0.003799365093736459 3.249021743083493e-06 4.8151571271658884e-05 3.249021743083493e-06 -0.0025794450783441347" pbc="T T T"
Cs      12.14502263      12.39022188       0.04801739        0       0.06773218       0.01210341      -0.00298642
Sn       3.05471589       3.07774587       3.15049297        1      -0.26750486      -0.33327338      -0.73957877
I        3.01920171       3.11334169      -0.06171166        2       0.03012876      -0.00043433      -0.07735047
I        3.18612608      12.26218484       2.96925873        3       0.02214840      -0.17607741      -0.00336681
I       12.14348527       2.94134140       2.97133170        4       0.32181155       0.09310135       0.05528501
Cs      12.23276238      12.16083677       6.04278773        5      -0.00565911       0.01917971       0.00138041
Sn       3.09478325       2.86660062       9.08756609        6      -0.00388378       0.30148131       0.52510758
I        3.01679077       2.87527401       6.04504259        7      -0.03964841      -0.00885024       0.39533066
I        3.12681939      12.08835344       9.15795598        8      -0.06066642       0.59425421       0.04107357
I       12.17444688       2.97585286       9.40252397        9       0.44523076       0.04943932      -0.03440421
Cs      12.21256389       6.26894782      -0.10018282       10       0.04487733      -0.08622025       0.01722181
Sn       3.03443242       9.11708845       3.00931196       11      -0.01953493       0.35432625      -0.05359267
I        3.18619508       9.19462292      12.14976036       12      -0.07971596      -0.03315511       0.61068508
I        3.06072258       6.09162668       3.19485900       13      -0.01386296       0.21069357       0.01596779
I       12.06174511       9.26573054       3.04620029       14       1.12682776      -0.09415334       0.02557568
Cs      12.19001026       6.21097681       6.05066366       15      -0.01229463      -0.01652427       0.02224174
Ge       3.11794522       9.24365684       9.19148553       16      -0.05477238      -0.56893276      -0.03503466
I        3.19998110       9.23039198       6.33244878       17      -0.03222480       0.00837289      -0.56099407
I        3.13224803       6.28935588       9.17476427       18      -0.02397730      -0.33549033      -0.02772069
I        0.08011510       9.08625898       9.21521145       19      -0.26082403       0.05484052       0.00509858
Cs       6.28757612      12.20764783      -0.00793173       20      -0.04486406       0.03400952       0.01745356
Ge       9.06946583       2.94779214       3.04230373       21       0.31092385       0.17988946      -0.02808687
I        9.18803030       3.12790148       0.14855230       22      -0.08348757      -0.03368081      -0.19070418
I        9.41297567      12.26598261       2.99265889       23      -0.21359671      -0.12714752       0.05475747
I        6.20912494       3.13869423       3.11327831       24      -0.15808220      -0.07281110       0.02668860
Cs       6.21396247      12.27064893       6.12865627       25       0.01326660      -0.02916291      -0.01323040
Sn       9.23935967       3.03978882       9.16374735       26      -0.14037095      -0.05512986      -0.07053137
I        9.34471766       3.00198045       6.02160270       27      -0.03584499      -0.00767906       0.27657498
I        9.22789291      12.41449704       9.12684178       28      -0.03410439      -1.02204613       0.06455678
I        6.11584280       3.03714491       9.26593571       29      -0.19576831      -0.02495685      -0.05295152
Cs       6.14549183       6.20291449       0.11358864       30      -0.01057630      -0.04783359      -0.04605383
Ge       9.25438148       9.19494940       3.13417704       31      -0.17868819      -0.13477432       0.15383269
I        9.23919915       9.17786793       0.14569375       32       0.02955405      -0.01125659      -0.13972926
I        9.14949890       6.03257526       3.21312832       33       0.09942367       0.19016560      -0.04668568
I        6.47437263       9.15915016       3.01204765       34      -0.99148674       0.05689815       0.04063276
Cs       6.27611079       6.28887174       6.11289678       35      -0.01575024      -0.01078048       0.03545102
Sn       9.22218823       9.15708646       9.37129269       36       0.09023554       0.02037023      -0.21662963
I        9.18513609       9.18854943       6.16711111       37       0.02402833       0.02823439      -0.03172949
I        9.16890148       5.96461175       9.26961692       38      -0.01305686       1.01427818       0.00061261
I        6.01745146       9.22964736       9.30890093       39       0.36050735       0.00638698      -0.01468381
