Cs Sn I  Cs Sn I  Cs Sn I  K  Sn I  Cs Sn I  Cs Sn I  K  Sn I  Cs Sn I 
 1.0000000000000000
    13.5200230776430246    0.0000000000000000    0.0000000000000000
     0.0000000000000000   13.5200230776430246    0.0000000000000000
     0.0000000000000000    0.0000000000000000   13.5200230776430246
 Cs  Sn  I   Cs  Sn  I   Cs  Sn  I   K   Sn  I   Cs  Sn  I   Cs  Sn  I   K   Sn  I   Cs  Sn  I  
   1   1   3   1   1   3   1   1   3   1   1   3   1   1   3   1   1   3   1   1   3   1   1   3
Cartesian
  0.0000000000000000  0.0000000000000000  0.0000000000000000
  3.3800057694107561  3.3800057694107561  3.3800057694107561
  3.3800057694107561  3.3800057694107561  0.0000000000000000
  3.3800057694107561  0.0000000000000000  3.3800057694107561
  0.0000000000000000  3.3800057694107561  3.3800057694107561
  0.0000000000000000  0.0000000000000000  6.7600115388215114
  3.3800057694107561  3.3800057694107561 10.1400173082322684
  3.3800057694107561  3.3800057694107561  6.7600115388215114
  3.3800057694107561  0.0000000000000000 10.1400173082322684
  0.0000000000000000  3.3800057694107561 10.1400173082322684
  0.0000000000000000  6.7600115388215114  0.0000000000000000
  3.3800057694107561 10.1400173082322684  3.3800057694107561
  3.3800057694107561 10.1400173082322684  0.0000000000000000
  3.3800057694107561  6.7600115388215114  3.3800057694107561
  0.0000000000000000 10.1400173082322684  3.3800057694107561
  0.0000000000000000  6.7600115388215114  6.7600115388215114
  3.3800057694107561 10.1400173082322684 10.1400173082322684
  3.3800057694107561 10.1400173082322684  6.7600115388215114
  3.3800057694107561  6.7600115388215114 10.1400173082322684
  0.0000000000000000 10.1400173082322684 10.1400173082322684
  6.7600115388215114  0.0000000000000000  0.0000000000000000
 10.1400173082322684  3.3800057694107561  3.3800057694107561
 10.1400173082322684  3.3800057694107561  0.0000000000000000
 10.1400173082322684  0.0000000000000000  3.3800057694107561
  6.7600115388215114  3.3800057694107561  3.3800057694107561
  6.7600115388215114  0.0000000000000000  6.7600115388215114
 10.1400173082322684  3.3800057694107561 10.1400173082322684
 10.1400173082322684  3.3800057694107561  6.7600115388215114
 10.1400173082322684  0.0000000000000000 10.1400173082322684
  6.7600115388215114  3.3800057694107561 10.1400173082322684
  6.7600115388215114  6.7600115388215114  0.0000000000000000
 10.1400173082322684 10.1400173082322684  3.3800057694107561
 10.1400173082322684 10.1400173082322684  0.0000000000000000
 10.1400173082322684  6.7600115388215114  3.3800057694107561
  6.7600115388215114 10.1400173082322684  3.3800057694107561
  6.7600115388215114  6.7600115388215114  6.7600115388215114
 10.1400173082322684 10.1400173082322684 10.1400173082322684
 10.1400173082322684 10.1400173082322684  6.7600115388215114
 10.1400173082322684  6.7600115388215114 10.1400173082322684
  6.7600115388215114 10.1400173082322684 10.1400173082322684
