Cs Sn I  Cs Sn I  Cs Ge I  Cs Ge I  Cs Ge I  Cs Sn I  Cs Ge I  Cs Ge I 
 1.0000000000000000
    12.4537060516137128    0.0000000000000000    0.0000000000000000
     0.0000000000000000   12.4537060516137128    0.0000000000000000
     0.0000000000000000    0.0000000000000000   12.4537060516137128
 Cs  Sn  I   Cs  Sn  I   Cs  Ge  I   Cs  Ge  I   Cs  Ge  I   Cs  Sn  I   Cs  Ge  I   Cs  Ge  I  
   1   1   3   1   1   3   1   1   3   1   1   3   1   1   3   1   1   3   1   1   3   1   1   3
Cartesian
  0.0000000000000000  0.0000000000000000  0.0000000000000000
  3.1134265129034282  3.1134265129034282  3.1134265129034282
  3.1134265129034282  3.1134265129034282  0.0000000000000000
  3.1134265129034282  0.0000000000000000  3.1134265129034282
  0.0000000000000000  3.1134265129034282  3.1134265129034282
  0.0000000000000000  0.0000000000000000  6.2268530258068555
  3.1134265129034282  3.1134265129034282  9.3402795387102842
  3.1134265129034282  3.1134265129034282  6.2268530258068555
  3.1134265129034282  0.0000000000000000  9.3402795387102842
  0.0000000000000000  3.1134265129034282  9.3402795387102842
  0.0000000000000000  6.2268530258068555  0.0000000000000000
  3.1134265129034282  9.3402795387102842  3.1134265129034282
  3.1134265129034282  9.3402795387102842  0.0000000000000000
  3.1134265129034282  6.2268530258068555  3.1134265129034282
  0.0000000000000000  9.3402795387102842  3.1134265129034282
  0.0000000000000000  6.2268530258068555  6.2268530258068555
  3.1134265129034282  9.3402795387102842  9.3402795387102842
  3.1134265129034282  9.3402795387102842  6.2268530258068555
  3.1134265129034282  6.2268530258068555  9.3402795387102842
  0.0000000000000000  9.3402795387102842  9.3402795387102842
  6.2268530258068555  0.0000000000000000  0.0000000000000000
  9.3402795387102842  3.1134265129034282  3.1134265129034282
  9.3402795387102842  3.1134265129034282  0.0000000000000000
  9.3402795387102842  0.0000000000000000  3.1134265129034282
  6.2268530258068555  3.1134265129034282  3.1134265129034282
  6.2268530258068555  0.0000000000000000  6.2268530258068555
  9.3402795387102842  3.1134265129034282  9.3402795387102842
  9.3402795387102842  3.1134265129034282  6.2268530258068555
  9.3402795387102842  0.0000000000000000  9.3402795387102842
  6.2268530258068555  3.1134265129034282  9.3402795387102842
  6.2268530258068555  6.2268530258068555  0.0000000000000000
  9.3402795387102842  9.3402795387102842  3.1134265129034282
  9.3402795387102842  9.3402795387102842  0.0000000000000000
  9.3402795387102842  6.2268530258068555  3.1134265129034282
  6.2268530258068555  9.3402795387102842  3.1134265129034282
  6.2268530258068555  6.2268530258068555  6.2268530258068555
  9.3402795387102842  9.3402795387102842  9.3402795387102842
  9.3402795387102842  9.3402795387102842  6.2268530258068555
  9.3402795387102842  6.2268530258068555  9.3402795387102842
  6.2268530258068555  9.3402795387102842  9.3402795387102842
