40
Lattice="11.949011536352636 0.0 0.0 0.010457162940806359 11.909496143655572 0.0 0.006987739388897484 -0.005261309527465705 11.997979211237714" Properties=species:S:1:pos:R:3:spacegroup_kinds:I:1:forces:R:3 spacegroup="P 1" unit_cell=conventional occupancy="_JSON {\"0\": {\"Cs\": 1.0}, \"1\": {\"Sn\": 1.0}, \"2\": {\"I\": 1.0}, \"3\": {\"Br\": 1.0}, \"4\": {\"Br\": 1.0}, \"5\": {\"Cs\": 1.0}, \"6\": {\"Sn\": 1.0}, \"7\": {\"Br\": 1.0}, \"8\": {\"Br\": 1.0}, \"9\": {\"Br\": 1.0}, \"10\": {\"Cs\": 1.0}, \"11\": {\"Sn\": 1.0}, \"12\": {\"Cl\": 1.0}, \"13\": {\"Cl\": 1.0}, \"14\": {\"I\": 1.0}, \"15\": {\"Cs\": 1.0}, \"16\": {\"Sn\": 1.0}, \"17\": {\"I\": 1.0}, \"18\": {\"Cl\": 1.0}, \"19\": {\"I\": 1.0}, \"20\": {\"Cs\": 1.0}, \"21\": {\"Sn\": 1.0}, \"22\": {\"Br\": 1.0}, \"23\": {\"Br\": 1.0}, \"24\": {\"Cl\": 1.0}, \"25\": {\"Cs\": 1.0}, \"26\": {\"Sn\": 1.0}, \"27\": {\"Br\": 1.0}, \"28\": {\"I\": 1.0}, \"29\": {\"Br\": 1.0}, \"30\": {\"Cs\": 1.0}, \"31\": {\"Sn\": 1.0}, \"32\": {\"I\": 1.0}, \"33\": {\"Cl\": 1.0}, \"34\": {\"Br\": 1.0}, \"35\": {\"Cs\": 1.0}, \"36\": {\"Sn\": 1.0}, \"37\": {\"Br\": 1.0}, \"38\": {\"Br\": 1.0}, \"39\": {\"Cl\": 1.0}}" candidate_id=277a5040704f2f6c formula=FASnBr0.5Cl0.25I0.253 config_index=0 rattle_stdev=0.0 method=PBE fidelity=phase2_force energy=-126.0979969047858 stress="0.0004966020222909766 -0.00017335535052029902 8.636483792887944e-05 -0.00017335535052029902 0.001160467267308537 2.4510877027371806e-06 8.636483792887944e-05 2.4510877027371806e-06 -0.0006337390636839266" pbc="T T T"
Cs      11.93685351       0.09407342       0.06142363        0      -0.02092584      -0.02002691      -0.02176016
Sn       3.14523404       3.01948672       3.07229348        1      -0.00469787      -0.03378482       0.05433862
I        3.03224890       2.96637933      11.98271631        2      -0.01686480       0.01602801       0.01199106
Br       3.10385300       0.24569644       3.06513982        3      -0.02547788      -0.06123405       0.00155019
Br      11.70690440       3.04167090       2.99846352        4       0.05582674       0.03997725       0.00923074
Cs       0.06202492       0.10989626       5.93336708        5      -0.00876193      -0.01827422       0.00935266
Sn       3.05648533       3.13349376       8.90115888        6       0.05947981       0.00199406      -0.04120236
Br       3.06347860       3.07037353       5.98440863        7      -0.02443611       0.00724285       0.00570108
Br       3.18960104      11.62136286       9.18462264        8       0.02860719       0.14672162       0.03549324
Br      11.86241291       3.12868904       8.96840637        9       0.05619333      -0.00245643      -0.01150508
Cs      11.92480831       5.82368919      11.98065358       10      -0.00925190       0.02808945      -0.02478058
Sn       3.10432045       8.74503244       2.80021421       11       0.10213268       0.06750700       0.01560281
Cl       3.22595305       8.78033530       0.04723915       12       0.03638476      -0.01410326       0.03103531
Cl       3.16466867       6.15904162       2.79796836       13      -0.00984156      -0.04932892      -0.00465166
I        0.01982349       8.87162253       2.99932141       14      -0.02859051      -0.01538232      -0.02159582
Cs      11.92450538       5.81598330       6.00964880       15      -0.01643380       0.03480031       0.03539053
Sn       3.16741510       8.86783802       9.17489774       16      -0.07337191      -0.00786015      -0.09796439
I        3.11503872       8.91128555       6.03847270       17       0.02724067      -0.02919891      -0.02419702
Cl       3.07246248       5.72091709       8.92891600       18      -0.00096742      -0.09250380       0.01413149
I        0.10213272       8.84665444       9.07204972       19      -0.01996387      -0.01875115       0.03795620
Cs       5.94431760       0.02312445       0.09262339       20      -0.00574180      -0.03464397      -0.01365088
Sn       8.91947367       3.00075053       3.02125370       21       0.05818353      -0.04632345       0.04061155
Br       8.94990470       3.05831032      11.93656958       22      -0.01170879       0.02888328       0.09480884
Br       8.92148706       0.22648874       3.00931722       23      -0.04377579      -0.01083272       0.00805252
Cl       5.76022819       2.97934318       3.11234356       24       0.00299357       0.05185526       0.00084366
Cs       5.96183039       0.09492441       5.89456921       25      -0.00241427      -0.02202342       0.00911586
Sn       8.98790233       3.08366631       9.00243390       26      -0.02781178       0.02447631      -0.00793129
Br       8.97182293       3.03829632       5.98223885       27      -0.01609938       0.02477752      -0.12553598
I        8.89999579       0.02213631       8.93316376       28      -0.00423276       0.01555553      -0.00651985
Br       5.92022962       3.09544178       8.96018492       29      -0.05951676       0.00418703      -0.02916600
Cs       5.96167255       5.91074938       0.00949656       30      -0.01421395       0.04443763      -0.01402786
Sn       8.86044947       8.74206359       3.10241190       31      -0.04832204       0.07944290       0.02722959
I        8.84813861       8.86049684       0.01316881       32      -0.01783652      -0.00680180       0.02451694
Cl       8.83954757       6.15318408       3.14671996       33      -0.00415005      -0.08112573       0.00147189
Br       5.98511491       8.80339092       2.98157676       34       0.01196796       0.02949405      -0.00017767
Cs       6.03708753       5.83882768       5.93877909       35       0.00531636       0.04308767       0.01940267
Sn       8.71020518       8.83422752       8.90187549       36       0.11780959      -0.01858610      -0.00010867
Br       8.82704084       8.83397814       6.01932338       37      -0.02854062      -0.00653630      -0.03910433
Br       8.87970066       5.97669564       8.95237140       38      -0.01921150      -0.04919534      -0.02027962
Cl       6.07340648       8.81185167       8.94980155       39      -0.00824053      -0.03958934       0.01873959
40
Lattice="11.949011536352636 0.0 0.0 0.010457162940806359 11.909496143655572 0.0 0.006987739388897484 -0.005261309527465705 11.997979211237714" Properties=species:S:1:pos:R:3:spacegroup_kinds:I:1:forces:R:3 spacegroup="P 1" unit_cell=conventional occupancy="_JSON {\"0\": {\"Cs\": 1.0}, \"1\": {\"Sn\": 1.0}, \"2\": {\"I\": 1.0}, \"3\": {\"Br\": 1.0}, \"4\": {\"Br\": 1.0}, \"5\": {\"Cs\": 1.0}, \"6\": {\"Sn\": 1.0}, \"7\": {\"Br\": 1.0}, \"8\": {\"Br\": 1.0}, \"9\": {\"Br\": 1.0}, \"10\": {\"Cs\": 1.0}, \"11\": {\"Sn\": 1.0}, \"12\": {\"Cl\": 1.0}, \"13\": {\"Cl\": 1.0}, \"14\": {\"I\": 1.0}, \"15\": {\"Cs\": 1.0}, \"16\": {\"Sn\": 1.0}, \"17\": {\"I\": 1.0}, \"18\": {\"Cl\": 1.0}, \"19\": {\"I\": 1.0}, \"20\": {\"Cs\": 1.0}, \"21\": {\"Sn\": 1.0}, \"22\": {\"Br\": 1.0}, \"23\": {\"Br\": 1.0}, \"24\": {\"Cl\": 1.0}, \"25\": {\"Cs\": 1.0}, \"26\": {\"Sn\": 1.0}, \"27\": {\"Br\": 1.0}, \"28\": {\"I\": 1.0}, \"29\": {\"Br\": 1.0}, \"30\": {\"Cs\": 1.0}, \"31\": {\"Sn\": 1.0}, \"32\": {\"I\": 1.0}, \"33\": {\"Cl\": 1.0}, \"34\": {\"Br\": 1.0}, \"35\": {\"Cs\": 1.0}, \"36\": {\"Sn\": 1.0}, \"37\": {\"Br\": 1.0}, \"38\": {\"Br\": 1.0}, \"39\": {\"Cl\": 1.0}}" candidate_id=277a5040704f2f6c formula=FASnBr0.5Cl0.25I0.253 config_index=1 rattle_stdev=0.08 method=PBE fidelity=phase2_force energy=-125.44051804851195 stress="-0.0009902511162729669 -0.00024528760636489895 -4.810771891576497e-05 -0.00024528760636489895 0.00018818188297679226 0.00015973750539172087 -4.810771891576497e-05 0.00015973750539172087 -0.003568252326559978" pbc="T T T"
Cs      11.84993780       0.02238821       0.03691968        0      -0.02867890       0.03229448      -0.00820701
Sn       3.03803934       2.92295987       3.02095534        1       0.50683074       0.33889419       0.28998831
I        3.13688455       3.11401616      12.04904551        2      -0.14594948      -0.09881034      -0.02557099
Br       3.10198909       0.22901132       2.99181024        3      -0.04012475      -0.28296433       0.00034126
Br      11.62092500       3.03477942       3.09253060        4       0.89503098       0.08210305       0.03414885
Cs      -0.06878242       0.20815178       6.01947798        5       0.05647393       0.00181874      -0.02528359
Sn       3.08806716       3.10247769       8.94823102        6       0.13301923      -0.30391175      -0.16724548
Br       2.94881469       3.04448755       6.08464740        7       0.00721495       0.00647603      -0.11001453
Br       3.13114163      11.73564166       9.26019495        8       0.02752427      -0.27870110      -0.07683086
Br      11.84129268       3.11563198       8.89127779        9       0.23576305      -0.01801252      -0.00194265
Cs      11.89739652       5.82760151      11.94068302       10      -0.03071119      -0.00198593       0.00166183
Sn       2.92736809       8.76981939       2.67304210       11       1.08186463      -0.24528254      -0.15598702
Cl       3.28430942       8.77170320      -0.00477457       12      -0.07942241      -0.00972658       0.05068563
Cl       3.02922415       6.12956370       2.67073862       13      -0.07762946       0.15266174       0.03632681
I        0.13826396       8.90957775       3.07243051       14      -0.94946634       0.01344336       0.02846409
Cs      12.00134300       5.82274671       6.14702728       15       0.01026508       0.01444033       0.00197234
Sn       3.23556652       8.80744719       8.99188740       16       0.19018639       0.40009088       0.25906454
I        3.12377782       8.87527290       6.00543490       17       0.01253880       0.00552190      -0.08523562
Cl       3.09798119       5.67762846       9.00480932       18      -0.03264454       0.29712121      -0.04599563
I        0.11424752       8.85280664       9.06729769       19       0.02822536      -0.01172015      -0.00354189
Cs       5.93870650      -0.02216747       0.11750382       20      -0.00339069      -0.00534330      -0.00570635
Sn       8.97741038       3.04206653       3.10333615       21      -0.74356159      -0.15086228      -0.57237420
Br       8.99151691       2.98872324      12.05661480       22       0.05020223       0.08640521      -0.23096357
Br       9.01480483       0.26584190       2.95073624       23      -0.05494145      -0.11747071       0.13616573
Cl       5.81465268       3.02006293       3.04534067       24      -0.50884721       0.00680508       0.07010872
Cs       6.01364197       0.09592757       6.01933634       25      -0.07135405      -0.00856313      -0.03594739
Sn       9.07066996       3.11068173       8.89822507       26      -0.31014909       0.36427897       0.32251936
Br       8.88233938       3.14305753       5.94078149       27       0.02293684      -0.03642932       0.36733735
I        8.86854585       0.10557379       8.93914098       28       0.01879268      -0.18787377      -0.03839009
Br       5.92738458       3.09975437       8.99366068       29      -0.09622729      -0.00451261      -0.07197436
Cs       5.86345414       5.82358605       0.03486651       30       0.08884781       0.10017007       0.02395053
Sn       8.79801703       8.67357310       2.99682219       31      -0.17400111       0.46157468       0.21445823
I        8.88444114       8.94063883       0.12626758       32       0.00643587      -0.02532620      -0.36623831
Cl       8.82433293       6.15559292       2.99684663       33       0.01356893      -0.32636565      -0.00047720
Br       5.97577276       8.79319169       3.05375150       34       0.24073209       0.00400749       0.01036466
Cs       5.93193775       5.83086362       5.95002308       35       0.00851627       0.00526727      -0.00582405
Sn       8.92050966       8.97468983       8.69102366       36      -0.27584400      -0.38895283       1.34859228
Br       8.72410928       8.82024037       6.16335967       37      -0.01292258       0.01527009      -1.18144428
Br       8.92839631       5.97921769       8.83505842       38       0.02499624       0.11605814       0.01518860
Cl       6.09816174       8.90322910       8.90893402       39      -0.02656112      -0.00375521       0.00363328
40
Lattice="11.949011536352636 0.0 0.0 0.010457162940806359 11.909496143655572 0.0 0.006987739388897484 -0.005261309527465705 11.997979211237714" Properties=species:S:1:pos:R:3:spacegroup_kinds:I:1:forces:R:3 spacegroup="P 1" unit_cell=conventional occupancy="_JSON {\"0\": {\"Cs\": 1.0}, \"1\": {\"Sn\": 1.0}, \"2\": {\"I\": 1.0}, \"3\": {\"Br\": 1.0}, \"4\": {\"Br\": 1.0}, \"5\": {\"Cs\": 1.0}, \"6\": {\"Sn\": 1.0}, \"7\": {\"Br\": 1.0}, \"8\": {\"Br\": 1.0}, \"9\": {\"Br\": 1.0}, \"10\": {\"Cs\": 1.0}, \"11\": {\"Sn\": 1.0}, \"12\": {\"Cl\": 1.0}, \"13\": {\"Cl\": 1.0}, \"14\": {\"I\": 1.0}, \"15\": {\"Cs\": 1.0}, \"16\": {\"Sn\": 1.0}, \"17\": {\"I\": 1.0}, \"18\": {\"Cl\": 1.0}, \"19\": {\"I\": 1.0}, \"20\": {\"Cs\": 1.0}, \"21\": {\"Sn\": 1.0}, \"22\": {\"Br\": 1.0}, \"23\": {\"Br\": 1.0}, \"24\": {\"Cl\": 1.0}, \"25\": {\"Cs\": 1.0}, \"26\": {\"Sn\": 1.0}, \"27\": {\"Br\": 1.0}, \"28\": {\"I\": 1.0}, \"29\": {\"Br\": 1.0}, \"30\": {\"Cs\": 1.0}, \"31\": {\"Sn\": 1.0}, \"32\": {\"I\": 1.0}, \"33\": {\"Cl\": 1.0}, \"34\": {\"Br\": 1.0}, \"35\": {\"Cs\": 1.0}, \"36\": {\"Sn\": 1.0}, \"37\": {\"Br\": 1.0}, \"38\": {\"Br\": 1.0}, \"39\": {\"Cl\": 1.0}}" candidate_id=277a5040704f2f6c formula=FASnBr0.5Cl0.25I0.253 config_index=2 rattle_stdev=0.08 method=PBE fidelity=phase2_force energy=-125.32827764570035 stress="-0.00044872044941766763 5.195011530301344e-05 6.916543899270733e-05 5.195011530301344e-05 -0.003289056123946959 1.8661887543020694e-06 6.916543899270733e-05 1.8661887543020694e-06 -0.0019047663203760285" pbc="T T T"
Cs      11.92783647       0.00794830       0.20422579        0       0.00781358       0.00592930      -0.07433771
Sn       3.02867537       2.99338106       2.97150176        1       0.22836689       0.73988451       0.26496705
I        3.06231822       2.89612754      11.95471825        2      -0.05729158       0.02556531      -0.03775748
Br       3.12758581       0.34176939       2.93962020        3      -0.02758359      -0.87809627       0.05674966
Br      11.85522670       3.08118784       2.98800661        4      -0.34778398      -0.04917286      -0.02752035
Cs       0.02977526       0.03200328       5.89596974        5      -0.02221399       0.00570424       0.05947858
Sn       2.99905162       3.23120522       8.83898288        6       0.35726091      -0.69576927      -0.11041203
Br       3.01639655       3.06576402       5.99077502        7      -0.04244566      -0.04746812      -0.07754273
Br       3.09494495      11.49746346       9.25760314        8       0.00058285       1.45897505       0.07736214
Br      11.89542657       3.07302752       8.78530462        9       0.05856272       0.04501589       0.07750421
Cs      11.86182899       5.74140786      11.98811823       10       0.03127249       0.01977879      -0.01428238
Sn       3.06198491       8.80745203       2.78414903       11       0.36919423      -0.51822501       0.13573133
Cl       3.18750436       8.69751433       0.00702040       12       0.02878608      -0.00634897       0.38180548
Cl       3.22785988       6.08504181       2.97477118       13      -0.08549700       0.58386137      -0.12851078
I       -0.09219540       8.85249474       3.01670866       14       0.63813356      -0.02746352       0.00427036
Cs      11.89631456       5.82285334       6.01818096       15      -0.01817596       0.02237905      -0.00144727
Sn       3.15165260       8.97559273       9.20251166       16      -0.00808336      -1.38672615      -0.14033954
I        3.15965027       8.86366274       6.09709927       17      -0.03230187       0.06633038      -0.37405016
Cl       3.17896270       5.66251446       8.89005553       18      -0.06378139       0.58033165       0.02957433
I        0.18828586       8.63902585       9.08540398       19      -0.19817924       0.02279047       0.05598819
Cs       6.02743437      -0.12156146       0.15331467       20      -0.04778079       0.04266824      -0.02983015
Sn       8.87946465       2.81320707       3.01262028       21       0.07601190       0.67348952       0.22969749
Br       8.82968169       3.09741262      11.89231530       22       0.09017525       0.03227367       0.25217428
Br       9.00608766       0.15694331       3.00330993       23      -0.01599654      -0.34468297      -0.00491146
Cl       5.75165579       3.14724895       3.08510053       24       0.11822958      -0.10798936      -0.04669937
Cs       5.91959798      -0.00864493       5.91169714       25       0.03777680       0.00582649       0.02447390
Sn       9.07800390       3.11578918       9.06368073       26      -0.45771472      -0.13235540      -0.29362555
Br       8.86357273       3.08420500       5.96462788       27       0.04717699      -0.10924298      -0.24657104
I        8.95161091      -0.05824123       9.08514285       28       0.03931105       0.59526271      -0.00754327
Br       5.93757849       3.13543941       8.91005763       29      -0.02731245      -0.07028771      -0.00993044
Cs       5.88144181       5.84824456       0.02583878       30      -0.03136122      -0.00870385       0.02703296
Sn       8.90333683       8.65606379       2.92498352       31      -0.57876318       0.13551908       0.71907776
I        8.89989303       8.83470998      -0.00063633       32       0.00648308      -0.08678186       0.02666352
Cl       8.65647382       6.14422057       3.22314507       33       0.09450180      -0.25205920      -0.13454431
Br       6.02149397       8.96834511       2.98657360       34      -0.39863849       0.11002349      -0.08622503
Cs       6.03731492       5.80254337       5.96865769       35      -0.01358575       0.01827965      -0.03321298
Sn       8.64515590       8.82610292       8.93753254       36       0.57630687       0.05535930      -0.53483937
Br       8.72503055       8.84260469       6.08750233       37       0.03487368       0.09133326      -0.14617243
Br       8.86715249       6.07180118       8.83459033       38       0.06418415      -0.63626357       0.04772154
Cl       6.14268975       8.74038051       8.90588390       39      -0.43121384       0.01967340       0.09272328
40
Lattice="11.949011536352636 0.0 0.0 0.010457162940806359 11.909496143655572 0.0 0.006987739388897484 -0.005261309527465705 11.997979211237714" Properties=species:S:1:pos:R:3:spacegroup_kinds:I:1:forces:R:3 spacegroup="P 1" unit_cell=conventional occupancy="_JSON {\"0\": {\"Cs\": 1.0}, \"1\": {\"Sn\": 1.0}, \"2\": {\"I\": 1.0}, \"3\": {\"Br\": 1.0}, \"4\": {\"Br\": 1.0}, \"5\": {\"Cs\": 1.0}, \"6\": {\"Sn\": 1.0}, \"7\": {\"Br\": 1.0}, \"8\": {\"Br\": 1.0}, \"9\": {\"Br\": 1.0}, \"10\": {\"Cs\": 1.0}, \"11\": {\"Sn\": 1.0}, \"12\": {\"Cl\": 1.0}, \"13\": {\"Cl\": 1.0}, \"14\": {\"I\": 1.0}, \"15\": {\"Cs\": 1.0}, \"16\": {\"Sn\": 1.0}, \"17\": {\"I\": 1.0}, \"18\": {\"Cl\": 1.0}, \"19\": {\"I\": 1.0}, \"20\": {\"Cs\": 1.0}, \"21\": {\"Sn\": 1.0}, \"22\": {\"Br\": 1.0}, \"23\": {\"Br\": 1.0}, \"24\": {\"Cl\": 1.0}, \"25\": {\"Cs\": 1.0}, \"26\": {\"Sn\": 1.0}, \"27\": {\"Br\": 1.0}, \"28\": {\"I\": 1.0}, \"29\": {\"Br\": 1.0}, \"30\": {\"Cs\": 1.0}, \"31\": {\"Sn\": 1.0}, \"32\": {\"I\": 1.0}, \"33\": {\"Cl\": 1.0}, \"34\": {\"Br\": 1.0}, \"35\": {\"Cs\": 1.0}, \"36\": {\"Sn\": 1.0}, \"37\": {\"Br\": 1.0}, \"38\": {\"Br\": 1.0}, \"39\": {\"Cl\": 1.0}}" candidate_id=277a5040704f2f6c formula=FASnBr0.5Cl0.25I0.253 config_index=3 rattle_stdev=0.08 method=PBE fidelity=phase2_force energy=-125.19886597031504 stress="-0.0009542090027838397 -0.00014867172897939758 0.00017109530693561347 -0.00014867172897939758 -0.0003554079814243699 8.074336293770185e-05 0.00017109530693561347 8.074336293770185e-05 -0.0013565627623603651" pbc="T T T"
Cs      11.83117003       0.25541365       0.06522879        0      -0.00046977       0.03103901      -0.00631320
Sn       3.12622034       3.02621653       3.14905686        1      -0.19076325      -0.26615326      -0.72279348
I        2.97772102       3.00870496      11.92072285        2       0.00256977      -0.00267476      -0.11882479
Br       3.21624949       0.22772200       2.96066897        3      -0.02654289      -0.04050137       0.04362268
Br      11.65262158       2.91199623       2.89606564        4      -0.00780256       0.15940876       0.06598861
Cs       0.04408118       0.04185138       5.87290787        5      -0.03726129      -0.01253351      -0.01069445
Sn       3.07753900       2.92907832       8.76753620        6       0.19413652       0.76014858       0.68339534
Br       3.00653978       2.87463148       5.88227384        7      -0.03752633      -0.01871297       0.36377938
Br       3.24269084      11.51905614       9.12138986        8       0.01054565       1.10009151       0.05896989
Br      11.74222324       3.03352585       9.14974158        9       0.46678904       0.02035367      -0.07682647
Cs      11.88666608       5.89542231      11.83625852       10       0.01676640      -0.08382747      -0.00577238
Sn       3.06502328       8.64907272       2.73579658       11       0.13492686       0.35088250       0.07094525
Cl       3.33841854       8.76191005      -0.00985657       12      -0.01526125      -0.08258501       0.48097626
Cl       3.15166166       6.10473123       2.91909777       13      -0.03254000      -0.02358044      -0.03969961
I       -0.11998233       8.92430490       2.97179211       14       1.15604131      -0.06280412      -0.05870974
Cs      11.86380953       5.82974540       5.95706552       15      -0.03664460       0.02740439       0.03642521
Sn       3.21163074       8.89844668       9.14519451       16      -0.13843040      -0.97292189      -0.02608589
I        3.24129024       8.92862935       6.13540003       17      -0.01801105      -0.01899533      -0.55247973
Cl       3.13098093       5.77483678       8.88249151       18      -0.05104048      -0.70125024      -0.09943900
I        0.09418555       8.71986525       9.06607241       19      -0.16524736       0.05632672      -0.01119195
Cs       6.04022231       0.00189064       0.04047942       20      -0.06718538      -0.00001891      -0.01672797
Sn       8.76775074       2.87752661       2.98982784       21       0.53256476       0.47585906      -0.06036544
Br       8.91674624       3.11519575      11.98797162       22      -0.09643875      -0.04400918       0.04124757
Br       9.11327397       0.21290615       2.92824652       23      -0.21069633      -0.52645061       0.01350936
Cl       5.72474370       3.04702136       3.15189229       24       0.10039674       0.02786058       0.05389890
Cs       5.98412145       0.13669169       5.91997855       25       0.00555970      -0.07063750       0.00048718
Sn       9.00607324       3.05243907       8.94499249       26      -0.20675198       0.06161172       0.08820823
Br       9.09535182       2.96926071       5.95353264       27      -0.04559606       0.02873497      -0.00959927
I        8.90669994       0.15647408       8.83881678       28      -0.03786146      -1.11157909       0.05420696
Br       5.88833145       3.06157063       9.00493186       29      -0.29517192      -0.09656258      -0.14166295
Cs       5.91549297       5.91644917       0.07887297       30      -0.01935539      -0.01327041      -0.07166552
Sn       8.89364219       8.72396480       3.16285935       31      -0.20236818      -0.31761205       0.28440441
I        8.86614900       8.82531660       0.06549515       32       0.03241869       0.00928000       0.09695006
Cl       8.76785770       6.03922818       3.28611869       33       0.10517760       0.24596259      -0.02467575
Br       6.21866096       8.74949290       2.91989482       34      -1.12059814       0.07218111      -0.00867963
Cs       6.12152691       5.93048472       5.94842893       35      -0.00235799       0.04035583       0.05146669
Sn       8.71120465       8.77826580       9.05197942       36       0.17743993       0.02146514      -0.32746816
Br       8.79098817       8.80947940       6.13234272       37      -0.00186977       0.00700623      -0.12923299
Br       8.82741338       5.79537032       9.00079955       38      -0.04607602       0.98087063      -0.02454329
Cl       6.03146104       8.82845085       9.03751372       39       0.17834926      -0.02940106       0.05885585
