Cs Pb Br Cs Pb Br Cs Pb Cl Br Cs Pb Br Cl Br Cs Pb Br Cl Cs Pb Br Cs Pb Br Cl Br Cs Pb Br Cl
 1.0000000000000000
    12.4500290963515408    0.0000000000000000    0.0000000000000000
     0.0000000000000000   12.4500290963515408    0.0000000000000000
     0.0000000000000000    0.0000000000000000   12.4500290963515408
 Cs  Pb  Br  Cs  Pb  Br  Cs  Pb  Cl  Br  Cs  Pb  Br  Cl  Br  Cs  Pb  Br  Cl  Cs  Pb  Br  Cs  Pb  Br  Cl  Br  Cs  Pb  Br  Cl 
   1   1   3   1   1   3   1   1   2   1   1   1   1   1   1   1   1   2   1   1   1   3   1   1   1   1   1   1   1   2   1
Cartesian
  0.0000000000000000  0.0000000000000000  0.0000000000000000
  3.1125072740878852  3.1125072740878852  3.1125072740878852
  3.1125072740878852  3.1125072740878852  0.0000000000000000
  3.1125072740878852  0.0000000000000000  3.1125072740878852
  0.0000000000000000  3.1125072740878852  3.1125072740878852
  0.0000000000000000  0.0000000000000000  6.2250145481757695
  3.1125072740878852  3.1125072740878852  9.3375218222636551
  3.1125072740878852  3.1125072740878852  6.2250145481757695
  3.1125072740878852  0.0000000000000000  9.3375218222636551
  0.0000000000000000  3.1125072740878852  9.3375218222636551
  0.0000000000000000  6.2250145481757695  0.0000000000000000
  3.1125072740878852  9.3375218222636551  3.1125072740878852
  3.1125072740878852  9.3375218222636551  0.0000000000000000
  3.1125072740878852  6.2250145481757695  3.1125072740878852
  0.0000000000000000  9.3375218222636551  3.1125072740878852
  0.0000000000000000  6.2250145481757695  6.2250145481757695
  3.1125072740878852  9.3375218222636551  9.3375218222636551
  3.1125072740878852  9.3375218222636551  6.2250145481757695
  3.1125072740878852  6.2250145481757695  9.3375218222636551
  0.0000000000000000  9.3375218222636551  9.3375218222636551
  6.2250145481757695  0.0000000000000000  0.0000000000000000
  9.3375218222636551  3.1125072740878852  3.1125072740878852
  9.3375218222636551  3.1125072740878852  0.0000000000000000
  9.3375218222636551  0.0000000000000000  3.1125072740878852
  6.2250145481757695  3.1125072740878852  3.1125072740878852
  6.2250145481757695  0.0000000000000000  6.2250145481757695
  9.3375218222636551  3.1125072740878852  9.3375218222636551
  9.3375218222636551  3.1125072740878852  6.2250145481757695
  9.3375218222636551  0.0000000000000000  9.3375218222636551
  6.2250145481757695  3.1125072740878852  9.3375218222636551
  6.2250145481757695  6.2250145481757695  0.0000000000000000
  9.3375218222636551  9.3375218222636551  3.1125072740878852
  9.3375218222636551  9.3375218222636551  0.0000000000000000
  9.3375218222636551  6.2250145481757695  3.1125072740878852
  6.2250145481757695  9.3375218222636551  3.1125072740878852
  6.2250145481757695  6.2250145481757695  6.2250145481757695
  9.3375218222636551  9.3375218222636551  9.3375218222636551
  9.3375218222636551  9.3375218222636551  6.2250145481757695
  9.3375218222636551  6.2250145481757695  9.3375218222636551
  6.2250145481757695  9.3375218222636551  9.3375218222636551
