Cs Sn I  Cs Pb I  Cs Sn I  Cs Sn I  Cs Sn I  Cs Pb I  Cs Sn I  Cs Sn I 
 1.0000000000000000
    13.5285083590172643    0.0000000000000000    0.0000000000000000
     0.0000000000000000   13.5285083590172643    0.0000000000000000
     0.0000000000000000    0.0000000000000000   13.5285083590172643
 Cs  Sn  I   Cs  Pb  I   Cs  Sn  I   Cs  Sn  I   Cs  Sn  I   Cs  Pb  I   Cs  Sn  I   Cs  Sn  I  
   1   1   3   1   1   3   1   1   3   1   1   3   1   1   3   1   1   3   1   1   3   1   1   3
Cartesian
  0.0000000000000000  0.0000000000000000  0.0000000000000000
  3.3821270897543161  3.3821270897543161  3.3821270897543161
  3.3821270897543161  3.3821270897543161  0.0000000000000000
  3.3821270897543161  0.0000000000000000  3.3821270897543161
  0.0000000000000000  3.3821270897543161  3.3821270897543161
  0.0000000000000000  0.0000000000000000  6.7642541795086313
  3.3821270897543161  3.3821270897543161 10.1463812692629478
  3.3821270897543161  3.3821270897543161  6.7642541795086313
  3.3821270897543161  0.0000000000000000 10.1463812692629478
  0.0000000000000000  3.3821270897543161 10.1463812692629478
  0.0000000000000000  6.7642541795086313  0.0000000000000000
  3.3821270897543161 10.1463812692629478  3.3821270897543161
  3.3821270897543161 10.1463812692629478  0.0000000000000000
  3.3821270897543161  6.7642541795086313  3.3821270897543161
  0.0000000000000000 10.1463812692629478  3.3821270897543161
  0.0000000000000000  6.7642541795086313  6.7642541795086313
  3.3821270897543161 10.1463812692629478 10.1463812692629478
  3.3821270897543161 10.1463812692629478  6.7642541795086313
  3.3821270897543161  6.7642541795086313 10.1463812692629478
  0.0000000000000000 10.1463812692629478 10.1463812692629478
  6.7642541795086313  0.0000000000000000  0.0000000000000000
 10.1463812692629478  3.3821270897543161  3.3821270897543161
 10.1463812692629478  3.3821270897543161  0.0000000000000000
 10.1463812692629478  0.0000000000000000  3.3821270897543161
  6.7642541795086313  3.3821270897543161  3.3821270897543161
  6.7642541795086313  0.0000000000000000  6.7642541795086313
 10.1463812692629478  3.3821270897543161 10.1463812692629478
 10.1463812692629478  3.3821270897543161  6.7642541795086313
 10.1463812692629478  0.0000000000000000 10.1463812692629478
  6.7642541795086313  3.3821270897543161 10.1463812692629478
  6.7642541795086313  6.7642541795086313  0.0000000000000000
 10.1463812692629478 10.1463812692629478  3.3821270897543161
 10.1463812692629478 10.1463812692629478  0.0000000000000000
 10.1463812692629478  6.7642541795086313  3.3821270897543161
  6.7642541795086313 10.1463812692629478  3.3821270897543161
  6.7642541795086313  6.7642541795086313  6.7642541795086313
 10.1463812692629478 10.1463812692629478 10.1463812692629478
 10.1463812692629478 10.1463812692629478  6.7642541795086313
 10.1463812692629478  6.7642541795086313 10.1463812692629478
  6.7642541795086313 10.1463812692629478 10.1463812692629478
