40
Lattice="11.238367035505323 0.0 0.0 0.0 11.238367035505323 0.0 0.0 -3.424771124673391e-14 11.238367035505256" Properties=species:S:1:pos:R:3:spacegroup_kinds:I:1:forces:R:3 spacegroup="P 1" unit_cell=conventional occupancy="_JSON {\"0\": {\"Cs\": 1.0}, \"1\": {\"Sn\": 1.0}, \"2\": {\"Cl\": 1.0}, \"3\": {\"Cl\": 1.0}, \"4\": {\"Cl\": 1.0}, \"5\": {\"Cs\": 1.0}, \"6\": {\"Sn\": 1.0}, \"7\": {\"Cl\": 1.0}, \"8\": {\"Cl\": 1.0}, \"9\": {\"Cl\": 1.0}, \"10\": {\"Cs\": 1.0}, \"11\": {\"Sn\": 1.0}, \"12\": {\"Cl\": 1.0}, \"13\": {\"Cl\": 1.0}, \"14\": {\"Cl\": 1.0}, \"15\": {\"Cs\": 1.0}, \"16\": {\"Sn\": 1.0}, \"17\": {\"Cl\": 1.0}, \"18\": {\"Cl\": 1.0}, \"19\": {\"Cl\": 1.0}, \"20\": {\"Cs\": 1.0}, \"21\": {\"Sn\": 1.0}, \"22\": {\"Cl\": 1.0}, \"23\": {\"Cl\": 1.0}, \"24\": {\"Cl\": 1.0}, \"25\": {\"Cs\": 1.0}, \"26\": {\"Sn\": 1.0}, \"27\": {\"Cl\": 1.0}, \"28\": {\"Cl\": 1.0}, \"29\": {\"Cl\": 1.0}, \"30\": {\"K\": 1.0}, \"31\": {\"Sn\": 1.0}, \"32\": {\"Cl\": 1.0}, \"33\": {\"Cl\": 1.0}, \"34\": {\"Cl\": 1.0}, \"35\": {\"Cs\": 1.0}, \"36\": {\"Sn\": 1.0}, \"37\": {\"Cl\": 1.0}, \"38\": {\"Cl\": 1.0}, \"39\": {\"Cl\": 1.0}}" candidate_id=be227340e4d4d5b5 formula=FA0.88K0.12SnCl3 config_index=0 rattle_stdev=0.0 method=PBE fidelity=phase2_force energy=-139.64485219696323 stress="0.0019886094020399817 0.0 0.0 0.0 0.0019886094020399817 6.060072639418337e-18 0.0 6.060072639418337e-18 0.001988609402044476" pbc="T T T"
Cs       0.00000000      -0.00000000      11.23836704        0      -0.00000000       0.00000000       0.00000000
Sn       2.81758151       2.81758151       2.80160201        1       0.01110471       0.01110471      -0.01110471
Cl       2.85389932       2.85389932       0.00000000        2      -0.00342870      -0.00342870       0.00000000
Cl       2.83025188      11.23836704       2.78893164        3      -0.00315789      -0.00000000       0.00315789
Cl      11.23836704       2.83025188       2.78893164        4       0.00000000      -0.00315789       0.00315789
Cs       0.00000000      -0.00000000       5.61918352        5      -0.00000000       0.00000000       0.00000000
Sn       2.81758151       2.81758151       8.43676503        6       0.01110471       0.01110471       0.01110471
Cl       2.83025188       2.83025188       5.61918352        7      -0.00315789      -0.00315789       0.00000000
Cl       2.83025188      11.23836704       8.44943540        8      -0.00315789       0.00000000      -0.00315789
Cl      11.23836704       2.83025188       8.44943540        9       0.00000000      -0.00315789      -0.00315789
Cs       0.00000000       5.61918352      11.23836704       10      -0.00000000      -0.00000000       0.00000000
Sn       2.81758151       8.42078553       2.80160201       11       0.01110471      -0.01110471      -0.01110471
Cl       2.85389932       8.38446771       0.00000000       12      -0.00342870       0.00342870       0.00000000
Cl       2.85389932       5.61918352       2.76528419       13      -0.00342870      -0.00000000       0.00342870
Cl      11.23836704       8.40811516       2.78893164       14      -0.00000000       0.00315789       0.00315789
Cs       0.00000000       5.61918352       5.61918352       15       0.00000000      -0.00000000       0.00000000
Sn       2.81758151       8.42078553       8.43676503       16       0.01110471      -0.01110471       0.01110471
Cl       2.83025188       8.40811516       5.61918352       17      -0.00315789       0.00315789       0.00000000
Cl       2.85389932       5.61918352       8.47308284       18      -0.00342870       0.00000000      -0.00342870
Cl      11.23836704       8.40811516       8.44943540       19       0.00000000       0.00315789      -0.00315789
Cs       5.61918352      -0.00000000      11.23836704       20       0.00000000       0.00000000       0.00000000
Sn       8.42078553       2.81758151       2.80160201       21      -0.01110471       0.01110471      -0.01110471
Cl       8.38446771       2.85389932       0.00000000       22       0.00342870      -0.00342870       0.00000000
Cl       8.40811516      11.23836704       2.78893164       23       0.00315789      -0.00000000       0.00315789
Cl       5.61918352       2.85389932       2.76528419       24       0.00000000      -0.00342870       0.00342870
Cs       5.61918352      -0.00000000       5.61918352       25       0.00000000       0.00000000       0.00000000
Sn       8.42078553       2.81758151       8.43676503       26      -0.01110471       0.01110471       0.01110471
Cl       8.40811516       2.83025188       5.61918352       27       0.00315789      -0.00315789       0.00000000
Cl       8.40811516      11.23836704       8.44943540       28       0.00315789       0.00000000      -0.00315789
Cl       5.61918352       2.85389932       8.47308284       29       0.00000000      -0.00342870      -0.00342870
K        5.61918352       5.61918352      11.23836704       30      -0.00000000       0.00000000       0.00000000
Sn       8.42078553       8.42078553       2.80160201       31      -0.01110471      -0.01110471      -0.01110471
Cl       8.38446771       8.38446771       0.00000000       32       0.00342870       0.00342870       0.00000000
Cl       8.38446771       5.61918352       2.76528419       33       0.00342870      -0.00000000       0.00342870
Cl       5.61918352       8.38446771       2.76528419       34       0.00000000       0.00342870       0.00342870
Cs       5.61918352       5.61918352       5.61918352       35      -0.00000000      -0.00000000       0.00000000
Sn       8.42078553       8.42078553       8.43676503       36      -0.01110471      -0.01110471       0.01110471
Cl       8.40811516       8.40811516       5.61918352       37       0.00315789       0.00315789       0.00000000
Cl       8.38446771       5.61918352       8.47308284       38       0.00342870       0.00000000      -0.00342870
Cl       5.61918352       8.38446771       8.47308284       39       0.00000000       0.00342870      -0.00342870
40
Lattice="11.238367035505323 0.0 0.0 0.0 11.238367035505323 0.0 0.0 -3.424771124673391e-14 11.238367035505256" Properties=species:S:1:pos:R:3:spacegroup_kinds:I:1:forces:R:3 spacegroup="P 1" unit_cell=conventional occupancy="_JSON {\"0\": {\"Cs\": 1.0}, \"1\": {\"Sn\": 1.0}, \"2\": {\"Cl\": 1.0}, \"3\": {\"Cl\": 1.0}, \"4\": {\"Cl\": 1.0}, \"5\": {\"Cs\": 1.0}, \"6\": {\"Sn\": 1.0}, \"7\": {\"Cl\": 1.0}, \"8\": {\"Cl\": 1.0}, \"9\": {\"Cl\": 1.0}, \"10\": {\"Cs\": 1.0}, \"11\": {\"Sn\": 1.0}, \"12\": {\"Cl\": 1.0}, \"13\": {\"Cl\": 1.0}, \"14\": {\"Cl\": 1.0}, \"15\": {\"Cs\": 1.0}, \"16\": {\"Sn\": 1.0}, \"17\": {\"Cl\": 1.0}, \"18\": {\"Cl\": 1.0}, \"19\": {\"Cl\": 1.0}, \"20\": {\"Cs\": 1.0}, \"21\": {\"Sn\": 1.0}, \"22\": {\"Cl\": 1.0}, \"23\": {\"Cl\": 1.0}, \"24\": {\"Cl\": 1.0}, \"25\": {\"Cs\": 1.0}, \"26\": {\"Sn\": 1.0}, \"27\": {\"Cl\": 1.0}, \"28\": {\"Cl\": 1.0}, \"29\": {\"Cl\": 1.0}, \"30\": {\"K\": 1.0}, \"31\": {\"Sn\": 1.0}, \"32\": {\"Cl\": 1.0}, \"33\": {\"Cl\": 1.0}, \"34\": {\"Cl\": 1.0}, \"35\": {\"Cs\": 1.0}, \"36\": {\"Sn\": 1.0}, \"37\": {\"Cl\": 1.0}, \"38\": {\"Cl\": 1.0}, \"39\": {\"Cl\": 1.0}}" candidate_id=be227340e4d4d5b5 formula=FA0.88K0.12SnCl3 config_index=1 rattle_stdev=0.08 method=PBE fidelity=phase2_force energy=-139.02093736418018 stress="-0.0004803527260206283 0.00013942741847888134 9.515236935164584e-05 0.00013942741847888134 0.0005855315598843482 -0.00017016515253581724 9.515236935164584e-05 -0.00017016515253581724 -0.0010113561422803498" pbc="T T T"
Cs      -0.08691571      -0.07168521      11.21386309        0      -0.04101456       0.05876728       0.03646651
Sn       2.71038682       2.72105466       2.75026386        1       0.42418176       0.42051219       0.15295681
Cl       2.95853497       3.00153616       0.06632920        2      -0.10651285      -0.10889021       0.07110795
Cl       2.82838797      11.22168192       2.71560206        3      -0.07871966       0.03928049      -0.04243714
Cl      11.15238763       2.82336040       2.88299872        4       0.51479061      -0.02135640      -0.01094486
Cs      -0.13080734       0.09825552       5.70529442        5       0.09247577       0.04728715      -0.09086025
Sn       2.84916334       2.78656544       8.48383717        6       0.12738165       0.01468329      -0.16241180
Cl       2.71558797       2.80436590       5.71942229        7       0.04580042      -0.00355542      -0.09182952
Cl       2.77179247      11.35264584       8.52500771        8      -0.00595282      -0.41863611      -0.04204082
Cl      11.21724681       2.81719482       8.37230682        9       0.03601185      -0.00622538      -0.00583840
Cs      -0.02741179       5.62309584      11.19839648       10      -0.01296967      -0.04767103       0.02145316
Sn       2.64062915       8.44557248       2.67442991       11       0.88406179      -0.33380591      -0.08353505
Cl       2.91225569       8.37583561      -0.05201372       12      -0.11979626       0.03142025       0.01719430
Cl       2.71845480       5.58970559       2.63805446       13      -0.05821992       0.01592110       0.08723733
Cl      11.35680750       8.44607037       2.86204074       14      -0.70418280       0.01302671      -0.01278161
Cs       0.07683762       5.62594692       5.75656199       15       0.02504954      -0.06320918      -0.06465629
Sn       2.88573293       8.36039470       8.25375468       16       0.34361801       0.08735753       0.45273322
Cl       2.83899097       8.37210251       5.58614572       17      -0.03734997      -0.02820174      -0.01509927
Cl       2.87941802       5.57589488       8.54897616       18      -0.01989689       0.45808181      -0.13291520
Cl      11.25048184       8.41426735       8.44468337       19       0.27642823       0.02214827      -0.12882393
Cs       5.61357242      -0.04529192      11.26324746       20       0.04145071       0.03473951       0.03068595
Sn       8.47872223       2.85889751       2.88368446       21      -0.56191284      -0.26124987      -0.71225011
Cl       8.42607992       2.78431224       0.12004521       22       0.11702896       0.02540385      -0.34061267
Cl       8.50143293      11.27772019       2.73035066       23      -0.00341789      -0.12447423       0.11778065
Cl       5.67360801       2.89461907       2.69828130       24      -0.34353890      -0.02944639       0.09228858
Cs       5.67099511       0.00100316       5.74395065       25      -0.05987370       0.01956368      -0.07348671
Sn       8.50355316       2.84459692       8.33255619       26      -0.29870818       0.34264644       0.45090333
Cl       8.31863161       2.93501309       5.57772616       27       0.03928919      -0.06311701       0.53854118
Cl       8.37666521      11.32180451       8.45541261       28       0.11312048      -0.16590398      -0.16752051
Cl       5.62633848       2.85821191       8.50655860       29      -0.06093072      -0.02820827      -0.07065506
K        5.52096511       5.53202019      11.26373699       30      -0.03676414      -0.06884040       0.05568837
Sn       8.35835308       8.35229504       2.69601230       31      -0.29570200       0.22651114       0.06075067
Cl       8.42077024       8.46460970       0.11309877       32       0.02493472      -0.01605924      -0.05536683
Cl       8.36925308       5.62159236       2.61541086       33       0.03732902       0.17958859       0.00008894
Cl       5.60984136       8.37426849       2.83745894       34       0.39752215      -0.00033435      -0.04610719
Cs       5.51403374       5.61121946       5.63042751       35       0.01260025      -0.03026426      -0.04488908
Sn       8.63109000       8.56124783       8.22591320       36      -0.74062238      -0.41929883       0.95363532
Cl       8.30518360       8.39437738       5.76321981       37       0.10728017       0.06617961      -0.63312280
Cl       8.43316336       5.62170556       8.35576987       38       0.10295047       0.13515557      -0.01834460
Cl       5.64393878       8.47584514       8.43221531       39      -0.17439571      -0.00109250      -0.08846083
40
Lattice="11.238367035505323 0.0 0.0 0.0 11.238367035505323 0.0 0.0 -3.424771124673391e-14 11.238367035505256" Properties=species:S:1:pos:R:3:spacegroup_kinds:I:1:forces:R:3 spacegroup="P 1" unit_cell=conventional occupancy="_JSON {\"0\": {\"Cs\": 1.0}, \"1\": {\"Sn\": 1.0}, \"2\": {\"Cl\": 1.0}, \"3\": {\"Cl\": 1.0}, \"4\": {\"Cl\": 1.0}, \"5\": {\"Cs\": 1.0}, \"6\": {\"Sn\": 1.0}, \"7\": {\"Cl\": 1.0}, \"8\": {\"Cl\": 1.0}, \"9\": {\"Cl\": 1.0}, \"10\": {\"Cs\": 1.0}, \"11\": {\"Sn\": 1.0}, \"12\": {\"Cl\": 1.0}, \"13\": {\"Cl\": 1.0}, \"14\": {\"Cl\": 1.0}, \"15\": {\"Cs\": 1.0}, \"16\": {\"Sn\": 1.0}, \"17\": {\"Cl\": 1.0}, \"18\": {\"Cl\": 1.0}, \"19\": {\"Cl\": 1.0}, \"20\": {\"Cs\": 1.0}, \"21\": {\"Sn\": 1.0}, \"22\": {\"Cl\": 1.0}, \"23\": {\"Cl\": 1.0}, \"24\": {\"Cl\": 1.0}, \"25\": {\"Cs\": 1.0}, \"26\": {\"Sn\": 1.0}, \"27\": {\"Cl\": 1.0}, \"28\": {\"Cl\": 1.0}, \"29\": {\"Cl\": 1.0}, \"30\": {\"K\": 1.0}, \"31\": {\"Sn\": 1.0}, \"32\": {\"Cl\": 1.0}, \"33\": {\"Cl\": 1.0}, \"34\": {\"Cl\": 1.0}, \"35\": {\"Cs\": 1.0}, \"36\": {\"Sn\": 1.0}, \"37\": {\"Cl\": 1.0}, \"38\": {\"Cl\": 1.0}, \"39\": {\"Cl\": 1.0}}" candidate_id=be227340e4d4d5b5 formula=FA0.88K0.12SnCl3 config_index=2 rattle_stdev=0.08 method=PBE fidelity=phase2_force energy=-138.99659993109475 stress="0.0002919367323908473 -7.889137727111645e-06 4.683554282247921e-05 -7.889137727111645e-06 0.00016196782305850989 -3.873755032845405e-06 4.683554282247921e-05 -3.873755032845405e-06 0.000705909864483981" pbc="T T T"
Cs      -0.00901704      -0.08612512      11.38116919        0       0.03914294      -0.00037796      -0.13345087
Sn       2.70102284       2.79147585       2.70081029        1       0.84378147       0.36506305       0.21624864
Cl       2.88396864       2.78364753      -0.02799806        2      -0.13827638       0.08575853       0.02481465
Cl       2.85398470      11.33443999       2.66341202        3      -0.08014739      -0.64196118       0.03777775
Cl      11.38668933       2.86976882       2.77847472        4      -0.84187792      -0.02674580      -0.07212726
Cs      -0.03224966      -0.07789298       5.58178618        5      -0.02269346      -0.00936411       0.09532287
Sn       2.76014779       2.91529297       8.37458903        6       0.50736327      -0.06207045      -0.09006210
Cl       2.78316983       2.82564237       5.62554991        7      -0.04018247      -0.08484685       0.01041024
Cl       2.73559579      11.11446764       8.52241589        8      -0.02901893       0.32810672      -0.01733605
Cl      11.27138069       2.77459036       8.26633365        9      -0.13899228       0.07463377       0.08556396
Cs      -0.06297932       5.53690218      11.24583168       10       0.04556842       0.04522647      -0.03922307
Sn       2.77524598       8.48320511       2.78553683       11       0.35707257      -0.33678954       0.10410031
Cl       2.81545064       8.30164674      -0.04021875       12      -0.00410650       0.01033174       0.45707862
Cl       2.91709054       5.54518371       2.94208702       13      -0.12706524       0.54078929      -0.14230409
Cl      11.12634814       8.38898737       2.80631889       14       0.55027288       0.00305135      -0.03199541
Cs      -0.02819082       5.62605356       5.62771568       15      -0.00530300       0.02196023       0.01505962
Sn       2.80181901       8.52854023       8.46437895       16      -0.10378322      -0.46155990      -0.16247486
Cl       2.87486343       8.36049234       5.67781009       17      -0.07677121       0.16226897      -0.37562761
Cl       2.96039954       5.56078088       8.43422238       18      -0.10275997      -0.14196867       0.05383406
Cl      11.32452017       8.20048656       8.46278965       19       0.01407323       0.07915915       0.00117809
Cs       5.70230029      -0.14468591      11.29905831       20      -0.06506658       0.09491661      -0.06447372
Sn       8.38077650       2.63003806       2.79296859       21      -0.42733402       0.63134821       0.23428348
Cl       8.26424470       2.89300162      -0.04425428       22       0.12235953       0.00457456       0.14436190
Cl       8.49271576      11.16882161       2.78292435       23       0.00082874       0.15234132      -0.04059326
Cl       5.61061112       3.02180508       2.73804116       24       0.51794727      -0.26128287      -0.03724551
Cs       5.57695111      -0.10356935       5.63631144       25       0.03385605       0.02886884       0.03039342
Sn       8.51088709       2.84970438       8.49801185       26      -0.57263537      -0.07264627      -0.33026105
Cl       8.29986496       2.87616056       5.60157255       27       0.08802181      -0.16021569      -0.13637682
Cl       8.45973027      11.15798949       8.60141448       28       0.01227642       0.49604322       0.00808048
Cl       5.63653238       2.89389695       8.42295555       29       0.12159666      -0.06755449       0.01559448
K        5.53895278       5.55667870      11.25470925       30      -0.03830067      -0.10800172       0.01877969
Sn       8.46367289       8.33478573       2.62417363       31      -0.51104307      -0.28767228       0.72695207
Cl       8.43622213       8.35868085      -0.01380513       32       0.01066935      -0.04562352       0.12761608
Cl       8.20139397       5.61022001       2.84170930       33       0.17994498      -0.04639103      -0.14529270
Cl       5.65556257       8.54942191       2.77028103       34      -0.43867398       0.04556116      -0.08689793
Cs       5.61941091       5.58289921       5.64906212       35       0.00817950      -0.02093225      -0.02933082
Sn       8.35573625       8.41266093       8.47242208       36       0.20752305       0.01505779      -0.62858080
Cl       8.30610487       8.41674170       5.68736247       37       0.08319104       0.09447830      -0.07967672
Cl       8.37191954       5.71428906       8.35530177       38       0.08334794      -0.55420555       0.11161932
Cl       5.68846679       8.31299655       8.42916519       39      -0.05359523       0.11162958       0.11706258
40
Lattice="11.238367035505323 0.0 0.0 0.0 11.238367035505323 0.0 0.0 -3.424771124673391e-14 11.238367035505256" Properties=species:S:1:pos:R:3:spacegroup_kinds:I:1:forces:R:3 spacegroup="P 1" unit_cell=conventional occupancy="_JSON {\"0\": {\"Cs\": 1.0}, \"1\": {\"Sn\": 1.0}, \"2\": {\"Cl\": 1.0}, \"3\": {\"Cl\": 1.0}, \"4\": {\"Cl\": 1.0}, \"5\": {\"Cs\": 1.0}, \"6\": {\"Sn\": 1.0}, \"7\": {\"Cl\": 1.0}, \"8\": {\"Cl\": 1.0}, \"9\": {\"Cl\": 1.0}, \"10\": {\"Cs\": 1.0}, \"11\": {\"Sn\": 1.0}, \"12\": {\"Cl\": 1.0}, \"13\": {\"Cl\": 1.0}, \"14\": {\"Cl\": 1.0}, \"15\": {\"Cs\": 1.0}, \"16\": {\"Sn\": 1.0}, \"17\": {\"Cl\": 1.0}, \"18\": {\"Cl\": 1.0}, \"19\": {\"Cl\": 1.0}, \"20\": {\"Cs\": 1.0}, \"21\": {\"Sn\": 1.0}, \"22\": {\"Cl\": 1.0}, \"23\": {\"Cl\": 1.0}, \"24\": {\"Cl\": 1.0}, \"25\": {\"Cs\": 1.0}, \"26\": {\"Sn\": 1.0}, \"27\": {\"Cl\": 1.0}, \"28\": {\"Cl\": 1.0}, \"29\": {\"Cl\": 1.0}, \"30\": {\"K\": 1.0}, \"31\": {\"Sn\": 1.0}, \"32\": {\"Cl\": 1.0}, \"33\": {\"Cl\": 1.0}, \"34\": {\"Cl\": 1.0}, \"35\": {\"Cs\": 1.0}, \"36\": {\"Sn\": 1.0}, \"37\": {\"Cl\": 1.0}, \"38\": {\"Cl\": 1.0}, \"39\": {\"Cl\": 1.0}}" candidate_id=be227340e4d4d5b5 formula=FA0.88K0.12SnCl3 config_index=3 rattle_stdev=0.08 method=PBE fidelity=phase2_force energy=-138.83352934698166 stress="0.00014680071831648964 0.00019511109434796852 0.00010996819564516852 0.00019511109434796852 4.6672475847853555e-05 0.00011941558847578093 0.00010996819564516852 0.00011941558847578093 0.000870524211558535" pbc="T T T"
Cs      -0.10568348       0.16134023      11.24217219        0       0.06559026       0.04264765       0.04030573
Sn       2.79856782       2.82431132       2.87836539        1      -0.28447138      -0.36285499      -0.78172167
Cl       2.79937144       2.89622496      -0.06199346        2       0.06163707      -0.06544620      -0.16111331
Cl       2.94264838      11.22039260       2.68446078        3       0.00905738      -0.21103112       0.05507069
Cl      11.18408422       2.70057722       2.68653376        4       0.12198278       0.07160864       0.10072992
Cs      -0.01794374      -0.06804488       5.55872431        5      -0.04836267       0.02190891      -0.02311245
Sn       2.83863517       2.61316607       8.30314235        6       0.07153641       0.62939151       0.70946043
Cl       2.77331306       2.63450983       5.51704873        7       0.00677478      -0.03168365       0.30195670
Cl       2.88334168      11.13606032       8.38620262        8       0.01719694       0.57070730      -0.01674961
Cl      11.11817737       2.73508868       8.63077061        9       0.33066524      -0.00220088      -0.11721749
Cs      -0.03814223       5.69091664      11.09397198       10       0.04548408      -0.13878090       0.01557409
Sn       2.77828434       8.32482580       2.73718438       11       0.13199113       0.38347332      -0.04052379
Cl       2.96636481       8.36604246      -0.05709572       12      -0.05514746      -0.06343171       0.62537145
Cl       2.84089232       5.56487313       2.88641361       13      -0.03751198       0.29981585       0.02603368
Cl      11.09856121       8.46079752       2.76140234       14       1.13038679      -0.08828285      -0.00302481
Cs      -0.06069585       5.63294562       5.56660024       15      -0.03528935      -0.02317048       0.02125159
Sn       2.86179715       8.45139419       8.40706180       16      -0.11056608      -0.74101932       0.04236949
Cl       2.95650340       8.42545896       5.71611085       17      -0.01640836       0.02279075      -0.53499006
Cl       2.91241777       5.67310320       8.42665835       18      -0.01881516      -0.25051264      -0.09236707
Cl      11.23041987       8.28132596       8.44345808       19      -0.24848891       0.04331855       0.00741942
Cs       5.71508823      -0.02123382      11.18622307       20      -0.07197970       0.03161064       0.02802009
Sn       8.26906260       2.69435759       2.77017615       21       0.53567029       0.44515787      -0.01552385
Cl       8.35130925       2.91078475       0.05140203       22      -0.07706657      -0.08291732      -0.11013505
Cl       8.59990206      11.22478445       2.70786094       23      -0.16034887      -0.32018292       0.01213365
Cl       5.58369902       2.92157750       2.80483292       24      -0.21125646      -0.06555365       0.04942398
Cs       5.64147458       0.04176727       5.64459285       25       0.02820838      -0.06162846      -0.01370731
Sn       8.43895644       2.78635427       8.37932362       26      -0.07583821      -0.04211394       0.08202707
Cl       8.53164405       2.76121627       5.59047731       27      -0.02512561      -0.01761478       0.14084553
Cl       8.41481930      11.37270480       8.35508842       28      -0.01199123      -0.87456326       0.08207559
Cl       5.58728535       2.82002818       8.51782979       29      -0.37476817      -0.13203588      -0.13221798
K        5.57300394       5.62488331      11.30774344       30      -0.02078009      -0.04772071      -0.04454783
Sn       8.45397824       8.40268675       2.86204946       31      -0.18025638      -0.22783386       0.14940941
Cl       8.40247810       8.34928747       0.05232634       32       0.04209172       0.00561879       0.03374474
Cl       8.31277785       5.50522762       2.90468292       33       0.08848072       0.21674614      -0.00554332
Cl       5.85272957       8.33056969       2.70360225       34      -1.03068005       0.03011750      -0.00971326
Cs       5.70362290       5.71084056       5.62883336       35       0.00137582       0.00119779       0.03781992
Sn       8.42178500       8.36482381       8.58686896       36       0.06518037      -0.01910696      -0.39540036
Cl       8.37206248       8.38361641       5.73220287       37       0.01930445       0.01919349      -0.02379860
Cl       8.33218043       5.43785819       8.52151100       38       0.02752704       0.99282452      -0.01676751
Cl       5.57723808       8.40106689       8.56079501       39       0.25868071       0.03444685      -0.01541558
