40
Lattice="12.642380184948406 0.0 0.0 0.004970505874570585 12.642379207840902 0.0 -0.0010585726920616803 0.0010589889646399771 12.639359395295719" Properties=species:S:1:pos:R:3:spacegroup_kinds:I:1:forces:R:3 spacegroup="P 1" unit_cell=conventional occupancy="_JSON {\"0\": {\"Cs\": 1.0}, \"1\": {\"Pb\": 1.0}, \"2\": {\"I\": 1.0}, \"3\": {\"I\": 1.0}, \"4\": {\"I\": 1.0}, \"5\": {\"Cs\": 1.0}, \"6\": {\"Pb\": 1.0}, \"7\": {\"I\": 1.0}, \"8\": {\"I\": 1.0}, \"9\": {\"I\": 1.0}, \"10\": {\"Cs\": 1.0}, \"11\": {\"Pb\": 1.0}, \"12\": {\"Br\": 1.0}, \"13\": {\"I\": 1.0}, \"14\": {\"I\": 1.0}, \"15\": {\"Cs\": 1.0}, \"16\": {\"Pb\": 1.0}, \"17\": {\"I\": 1.0}, \"18\": {\"I\": 1.0}, \"19\": {\"I\": 1.0}, \"20\": {\"Cs\": 1.0}, \"21\": {\"Pb\": 1.0}, \"22\": {\"I\": 1.0}, \"23\": {\"I\": 1.0}, \"24\": {\"Br\": 1.0}, \"25\": {\"Cs\": 1.0}, \"26\": {\"Pb\": 1.0}, \"27\": {\"I\": 1.0}, \"28\": {\"I\": 1.0}, \"29\": {\"I\": 1.0}, \"30\": {\"Cs\": 1.0}, \"31\": {\"Pb\": 1.0}, \"32\": {\"I\": 1.0}, \"33\": {\"Br\": 1.0}, \"34\": {\"I\": 1.0}, \"35\": {\"Cs\": 1.0}, \"36\": {\"Pb\": 1.0}, \"37\": {\"I\": 1.0}, \"38\": {\"I\": 1.0}, \"39\": {\"I\": 1.0}}" candidate_id=0c64d877aaa7c25a formula=FAPbBr0.12I0.883 config_index=0 rattle_stdev=0.0 method=PBE fidelity=phase2_force energy=-114.89222032850657 stress="-0.001089109994783044 3.946731336322455e-06 1.5586627851248757e-05 3.946731336322455e-06 -0.0010891130981943475 -1.559275712912164e-05 1.5586627851248757e-05 -1.559275712912164e-05 -0.0011073850467741171" pbc="T T T"
Cs       0.02240731      12.62493554       0.01370531        0       0.01517683      -0.01518280      -0.00392251
Pb       3.29614762       3.16735099       3.15353372        1      -0.00800508       0.01370501      -0.00364750
I        3.25392975       3.14342311       0.00529817        2       0.00028781      -0.00369793      -0.00837355
I        3.23901411      12.64113691       3.06853032        3      -0.00019312      -0.00222549       0.00138547
I       12.63593946       3.25203289       3.17724458        4      -0.01768911      -0.00535874       0.00138240
Cs       0.00926876      12.63807927       6.30604839        5       0.00232791      -0.00232883       0.00381103
Pb       3.16493602       3.16249658       9.48398500        6       0.01156244      -0.00062543       0.00763168
I        3.24966538       3.14373333       6.31373340        7      -0.00103018      -0.00453458       0.00727643
I        3.14390473      12.64043532       9.57803521        8      -0.00369887       0.00659270       0.00194226
I       12.64097346       3.14128130       9.45868552        9       0.00012129      -0.00308918      -0.00574625
Cs      12.63996181       6.33100724       0.02933957       10       0.00083600       0.00927025       0.00459754
Pb       3.16902984       9.47707564       3.04300701       11       0.00323847      -0.00323975       0.00348083
Br       3.15117188       9.49494062       0.00559193       12      -0.00470346       0.00470531       0.00086370
I        3.25357326       6.32027024       3.06705245       13       0.00005770      -0.00341345       0.00098754
I        0.00494130       9.40833537       3.06853032       14       0.00222557       0.00019224       0.00138547
Cs      12.62674721       6.32285850       6.28664980       15      -0.01174225      -0.00068666      -0.00763012
Pb       3.16274788       9.48336008       9.60113994       16      -0.00309330       0.00309451      -0.00426580
I        3.14723027       9.49888378       6.31787925       17      -0.00183147       0.00183219       0.00056186
I        3.14686099       6.32565450       9.57984314       18      -0.00503050      -0.00747821       0.00170230
I        0.00568029       9.50344446       9.57803521       19      -0.00659125       0.00370146       0.00194226
Cs       6.31137438       0.00490749       0.02933957       20      -0.00927058      -0.00083236       0.00459754
Pb       9.37905513       3.26460832       3.16132799       21       0.01478247      -0.01478829       0.00542962
I        9.37080713       3.27285957       0.01265177       22      -0.00240441       0.00240535      -0.03010535
I        9.39035008       0.00771930       3.17724458       23       0.00536570       0.01768701       0.00138240
Br       6.31229846       3.20631771       3.17365432       24       0.02261787       0.01382519       0.00482576
Cs       6.31952832       0.01811888       6.28664980       25       0.00069127       0.01174198      -0.00763012
Pb       9.47670633       3.16691873       9.48055020       26      -0.00832164       0.00832491      -0.00100908
I        9.37143407       3.27223238       6.30744344       27      -0.00307322       0.00307443       0.02752179
I        9.50109968       0.00264175       9.45868552       28       0.00308913      -0.00012251      -0.00574625
I        6.32087980       3.14457071       9.45942805       29      -0.00273455      -0.00667976      -0.00456301
Cs       6.32576661       6.31909752       0.02891199       30      -0.00020726       0.00020734       0.01212210
Pb       9.47870403       9.34747713       3.15353372       31      -0.01370186       0.00801047      -0.00364750
I        9.50264850       9.38968559       0.00529817       32       0.00369781      -0.00028927      -0.00837355
Br       9.43855148       6.33134184       3.17365432       33      -0.01383408      -0.02261243       0.00482576
I        6.32580175       9.39129109       3.06705245       34       0.00341343      -0.00005904       0.00098754
Cs       6.33423505       6.31062574       6.28146661       35       0.01010309      -0.01010706      -0.01919853
Pb       9.48361002       9.47868681       9.48398500       36       0.00062088      -0.01156268       0.00763168
I        9.50233996       9.39395008       6.31373340       37       0.00453498       0.00102840       0.00727643
I        9.50029509       6.32273622       9.45942805       38       0.00668084       0.00273192      -0.00456301
I        6.32045946       9.49800547       9.57984314       39       0.00748019       0.00502756       0.00170230
40
Lattice="12.642380184948406 0.0 0.0 0.004970505874570585 12.642379207840902 0.0 -0.0010585726920616803 0.0010589889646399771 12.639359395295719" Properties=species:S:1:pos:R:3:spacegroup_kinds:I:1:forces:R:3 spacegroup="P 1" unit_cell=conventional occupancy="_JSON {\"0\": {\"Cs\": 1.0}, \"1\": {\"Pb\": 1.0}, \"2\": {\"I\": 1.0}, \"3\": {\"I\": 1.0}, \"4\": {\"I\": 1.0}, \"5\": {\"Cs\": 1.0}, \"6\": {\"Pb\": 1.0}, \"7\": {\"I\": 1.0}, \"8\": {\"I\": 1.0}, \"9\": {\"I\": 1.0}, \"10\": {\"Cs\": 1.0}, \"11\": {\"Pb\": 1.0}, \"12\": {\"Br\": 1.0}, \"13\": {\"I\": 1.0}, \"14\": {\"I\": 1.0}, \"15\": {\"Cs\": 1.0}, \"16\": {\"Pb\": 1.0}, \"17\": {\"I\": 1.0}, \"18\": {\"I\": 1.0}, \"19\": {\"I\": 1.0}, \"20\": {\"Cs\": 1.0}, \"21\": {\"Pb\": 1.0}, \"22\": {\"I\": 1.0}, \"23\": {\"I\": 1.0}, \"24\": {\"Br\": 1.0}, \"25\": {\"Cs\": 1.0}, \"26\": {\"Pb\": 1.0}, \"27\": {\"I\": 1.0}, \"28\": {\"I\": 1.0}, \"29\": {\"I\": 1.0}, \"30\": {\"Cs\": 1.0}, \"31\": {\"Pb\": 1.0}, \"32\": {\"I\": 1.0}, \"33\": {\"Br\": 1.0}, \"34\": {\"I\": 1.0}, \"35\": {\"Cs\": 1.0}, \"36\": {\"Pb\": 1.0}, \"37\": {\"I\": 1.0}, \"38\": {\"I\": 1.0}, \"39\": {\"I\": 1.0}}" candidate_id=0c64d877aaa7c25a formula=FAPbBr0.12I0.883 config_index=1 rattle_stdev=0.08 method=PBE fidelity=phase2_force energy=-114.25875507556604 stress="-0.002739069912593253 -1.7133685145915056e-05 -9.367565713513481e-06 -1.7133685145915056e-05 -0.002067053270632179 -0.00014415616200243243 -9.367565713513481e-06 -0.00014415616200243243 -0.0035204052104983417" pbc="T T T"
Cs      -0.06450840      12.55325033      -0.01079864        0      -0.02241058       0.01840573       0.03018916
Pb       3.18895292       3.07082414       3.10219558        1       0.19990712       0.31027063       0.29345095
I        3.35856540       3.29105995       0.07162736        2      -0.03921107      -0.04513660      -0.11366890
I        3.23715020      12.62445180       2.99520074        3       0.01103629       0.00092544       0.00000491
I       12.54996005       3.24514141       3.27131166        4       0.40297637      -0.01168413       0.01687578
Cs      -0.12153858      12.73633479       6.39215929        5       0.03686360       0.03719449      -0.04374337
Pb       3.19651785       3.13148052       9.53105714        6       0.07038055       0.06162615      -0.10716931
I        3.13500147       3.11784735       6.41397218        7       0.02659313       0.01486336      -0.21931172
I        3.08544532      12.75471412       9.65360752        8      -0.02824504      -0.56087086       0.02791443
I       12.61985324       3.12822423       9.38155694        9       0.15157565       0.00876783       0.00940150
Cs      12.61255002       6.33491957      -0.01063099       10      -0.01805701      -0.02338040       0.02919004
Pb       2.99207748       9.50186259       2.91583491       11       0.92397337      -0.27185037      -0.13327015
Br       3.20952825       9.48630852      -0.04642179       12      -0.05978542       0.02297944      -0.00334236
I        3.11812874       6.29079232       2.93982271       13       0.00442925       0.04346252       0.07222069
I        0.12338177       9.44629058       3.14163943       14      -0.96989812       0.01004025       0.06631230
Cs      12.70358483       6.32962190       6.42402827       15       0.01755893      -0.03978246      -0.02145313
Pb       3.23089929       9.42296925       9.41812959       16       0.18786460       0.12005242       0.15425812
I        3.15596937       9.46287113       6.28484145       17      -0.00242932      -0.00916328       0.00357775
I        3.17237969       6.28236586       9.65573645       18      -0.03312026       0.35587220      -0.02897429
I        0.01779509       9.50959666       9.57328318       19       0.36784672       0.00924098       0.03321933
Cs       6.30576328      -0.04038444       0.05422000       20       0.01772663       0.01553160       0.02593903
Pb       9.43699184       3.30592432       3.24341044       21      -0.32001332      -0.19093920      -0.51503134
I        9.41241934       3.20327248       0.13269698       22       0.03793312       0.01242154      -0.50719008
I        9.48366785       0.04707246       3.11866360       23       0.00361739      -0.09897272       0.09877467
Br       6.36672295       3.24703745       3.10665142       24      -0.26471775       0.00249283       0.06043576
Cs       6.37133991       0.01912204       6.41141692       25      -0.02201673       0.01399121      -0.03247492
Pb       9.55947396       3.19393414       9.37634137       26      -0.22798398       0.27429426       0.36094906
I        9.28195053       3.37699359       6.26598608       27      -0.03642891      -0.02777579       0.49429274
I        9.46964974       0.08607923       9.46466274       28       0.00943452      -0.18130948      -0.02810585
I        6.32803476       3.14888330       9.49290381       29       0.00981074      -0.00785012      -0.00740505
Cs       6.22754820       6.23193420       0.05428194       30       0.03629423      -0.00619521       0.05248228
Pb       9.41627158       9.27898665       3.04794401       31      -0.10386717       0.16698519       0.32883548
I        9.53895103       9.46982757       0.11839694       32       0.02822484       0.00700799      -0.48796585
Br       9.42333685       6.33375068       3.02378098       33       0.02189319       0.06240593       0.02145093
I        6.31645960       9.38109186       3.13922719       34       0.14028607      -0.01108709       0.03215586
Cs       6.22908528       6.30266168       6.29271059       35      -0.00781274      -0.01941301      -0.03384362
Pb       9.69391449       9.61914911       9.27313318       36      -0.54724179      -0.26228334       1.02767816
I        9.39940840       9.38021230       6.45776970       37      -0.01436051       0.00689319      -1.05765636
I        9.54899074       6.32525827       9.34211508       38       0.01752167       0.18596827       0.08004374
I        6.34521472       9.58938290       9.53897560       39      -0.00853974       0.00662669       0.02330514
40
Lattice="12.642380184948406 0.0 0.0 0.004970505874570585 12.642379207840902 0.0 -0.0010585726920616803 0.0010589889646399771 12.639359395295719" Properties=species:S:1:pos:R:3:spacegroup_kinds:I:1:forces:R:3 spacegroup="P 1" unit_cell=conventional occupancy="_JSON {\"0\": {\"Cs\": 1.0}, \"1\": {\"Pb\": 1.0}, \"2\": {\"I\": 1.0}, \"3\": {\"I\": 1.0}, \"4\": {\"I\": 1.0}, \"5\": {\"Cs\": 1.0}, \"6\": {\"Pb\": 1.0}, \"7\": {\"I\": 1.0}, \"8\": {\"I\": 1.0}, \"9\": {\"I\": 1.0}, \"10\": {\"Cs\": 1.0}, \"11\": {\"Pb\": 1.0}, \"12\": {\"Br\": 1.0}, \"13\": {\"I\": 1.0}, \"14\": {\"I\": 1.0}, \"15\": {\"Cs\": 1.0}, \"16\": {\"Pb\": 1.0}, \"17\": {\"I\": 1.0}, \"18\": {\"I\": 1.0}, \"19\": {\"I\": 1.0}, \"20\": {\"Cs\": 1.0}, \"21\": {\"Pb\": 1.0}, \"22\": {\"I\": 1.0}, \"23\": {\"I\": 1.0}, \"24\": {\"Br\": 1.0}, \"25\": {\"Cs\": 1.0}, \"26\": {\"Pb\": 1.0}, \"27\": {\"I\": 1.0}, \"28\": {\"I\": 1.0}, \"29\": {\"I\": 1.0}, \"30\": {\"Cs\": 1.0}, \"31\": {\"Pb\": 1.0}, \"32\": {\"I\": 1.0}, \"33\": {\"Br\": 1.0}, \"34\": {\"I\": 1.0}, \"35\": {\"Cs\": 1.0}, \"36\": {\"Pb\": 1.0}, \"37\": {\"I\": 1.0}, \"38\": {\"I\": 1.0}, \"39\": {\"I\": 1.0}}" candidate_id=0c64d877aaa7c25a formula=FAPbBr0.12I0.883 config_index=2 rattle_stdev=0.08 method=PBE fidelity=phase2_force energy=-114.38165264255782 stress="-0.002033318078708235 2.7734114273900657e-05 6.489550520197672e-06 2.7734114273900657e-05 -0.0024954347725467353 -1.5243616005731013e-05 6.489550520197672e-06 -1.5243616005731013e-05 -0.0018753321766119407" pbc="T T T"
Cs       0.01339027      12.53881042       0.15650747        0       0.02988413      -0.02070748      -0.06703893
Pb       3.17958895       3.14124532       3.05274200        1       0.37413483       0.31371086       0.19560951
I        3.28399907       3.07317132      -0.02269989        2      -0.02139081       0.02985464      -0.08715944
I        3.26274692      12.73720987       2.94301070        3      -0.01692686      -0.64921949       0.03522901
I       12.78426176       3.29154984       3.16678766        4      -0.61567058      -0.00870878      -0.02960442
Cs      -0.02298090      12.56018629       6.26865105        5      -0.00720737      -0.01543533       0.05500931
Pb       3.10750230       3.26020805       9.42180900        6       0.39134228      -0.16373688       0.02213232
I        3.20258333       3.13912382       6.32009980        7       0.01685483      -0.08286520      -0.11469125
I        3.04924865      12.51653592       9.65101570        8      -0.00373447       0.64020975       0.01054075
I       12.67398712       3.08561978       9.27558377        9      -0.17181007       0.00096093       0.00404443
Cs      12.57698249       6.24872591       0.03680422       10       0.03778633       0.02862351      -0.02639605
Pb       3.12669430       9.53949523       3.02694184       11       0.22362559      -0.24088105       0.04376047
Br       3.11272319       9.41211965      -0.03462682       12       0.00618979      -0.00896141       0.34432941
I        3.31676448       6.24627043       3.24385527       13      -0.01603210       0.52890137      -0.04046756
I       -0.10707760       9.38920758       3.08591758       14       0.61710786       0.01369058       0.04122590
Cs      12.59855639       6.32972854       6.29518195       15      -0.00988180       0.01209959       0.01643041
Pb       3.14698538       9.59111478       9.62875385       16       0.03337203      -0.51396481      -0.09774788
I        3.19184183       9.45126097       6.37650583       17      -0.02614251       0.06896888      -0.29120658
I        3.25336121       6.26725186       9.54098267       18      -0.01591827       0.11400828       0.02169605
I        0.09183342       9.29581587       9.59138946       19      -0.19859832      -0.02450271      -0.00497238
Cs       6.39449115      -0.13977842       0.09003085       20      -0.02806680       0.03214905      -0.04201624
Pb       9.33904611       3.07706487       3.15269457       21      -0.20979633       0.27619252       0.13836799
I        9.25058411       3.31196186      -0.03160251       22       0.05512235       0.03300389       0.15802554
I        9.47495068      -0.06182613       3.17123729       23       0.02011168       0.12148367      -0.01283037
Br       6.30372606       3.37422347       3.14641129       24       0.33886173      -0.10759866      -0.02018692
Cs       6.27729591      -0.08545047       6.30377772       25       0.01453402       0.00714959       0.02288970
Pb       9.56680789       3.19904159       9.54179703       26      -0.35057918      -0.05547825      -0.24681703
I        9.26318388       3.31814106       6.28983247       27       0.05398425      -0.06527225      -0.03291004
I        9.55271480      -0.07773579       9.61066461       28       0.03644161       0.48662921       0.01777153
I        6.33822866       3.18456834       9.40930077       29       0.05760630      -0.06405757       0.00053626
Cs       6.24553587       6.25659270       0.04525421       30      -0.02538275      -0.03493179       0.03120430
Pb       9.52159139       9.26147733       2.97610534       31      -0.46469625      -0.21163857       0.65079179
I        9.55440292       9.36389872      -0.00850697       32       0.01926048      -0.02576432      -0.04095725
Br       9.25547773       6.32237833       3.25007943       33       0.08034248      -0.04824649      -0.07180198
I        6.36218081       9.55624529       3.07204928       34      -0.37417943       0.04493415      -0.02708652
Cs       6.33446245       6.27434144       6.31134521       35       0.01228310      -0.01853260      -0.03529162
Pb       9.41856074       9.47056221       9.51964206       36       0.28634042       0.10055559      -0.38772939
I        9.40032967       9.40257662       6.38191236       37       0.04815149       0.08189325      -0.22847504
I        9.48774692       6.41784177       9.34164698       38       0.05515020      -0.60275765       0.03815982
I        6.38974272       9.42653431       9.53592549       39      -0.25092026       0.02974089       0.05549643
40
Lattice="12.642380184948406 0.0 0.0 0.004970505874570585 12.642379207840902 0.0 -0.0010585726920616803 0.0010589889646399771 12.639359395295719" Properties=species:S:1:pos:R:3:spacegroup_kinds:I:1:forces:R:3 spacegroup="P 1" unit_cell=conventional occupancy="_JSON {\"0\": {\"Cs\": 1.0}, \"1\": {\"Pb\": 1.0}, \"2\": {\"I\": 1.0}, \"3\": {\"I\": 1.0}, \"4\": {\"I\": 1.0}, \"5\": {\"Cs\": 1.0}, \"6\": {\"Pb\": 1.0}, \"7\": {\"I\": 1.0}, \"8\": {\"I\": 1.0}, \"9\": {\"I\": 1.0}, \"10\": {\"Cs\": 1.0}, \"11\": {\"Pb\": 1.0}, \"12\": {\"Br\": 1.0}, \"13\": {\"I\": 1.0}, \"14\": {\"I\": 1.0}, \"15\": {\"Cs\": 1.0}, \"16\": {\"Pb\": 1.0}, \"17\": {\"I\": 1.0}, \"18\": {\"I\": 1.0}, \"19\": {\"I\": 1.0}, \"20\": {\"Cs\": 1.0}, \"21\": {\"Pb\": 1.0}, \"22\": {\"I\": 1.0}, \"23\": {\"I\": 1.0}, \"24\": {\"Br\": 1.0}, \"25\": {\"Cs\": 1.0}, \"26\": {\"Pb\": 1.0}, \"27\": {\"I\": 1.0}, \"28\": {\"I\": 1.0}, \"29\": {\"I\": 1.0}, \"30\": {\"Cs\": 1.0}, \"31\": {\"Pb\": 1.0}, \"32\": {\"I\": 1.0}, \"33\": {\"Br\": 1.0}, \"34\": {\"I\": 1.0}, \"35\": {\"Cs\": 1.0}, \"36\": {\"Pb\": 1.0}, \"37\": {\"I\": 1.0}, \"38\": {\"I\": 1.0}, \"39\": {\"I\": 1.0}}" candidate_id=0c64d877aaa7c25a formula=FAPbBr0.12I0.883 config_index=3 rattle_stdev=0.08 method=PBE fidelity=phase2_force energy=-114.17966873119461 stress="-0.0024619391818012735 7.767089129204468e-05 3.65839600030621e-05 7.767089129204468e-05 -0.0024713296919072407 0.000105966463717659 3.65839600030621e-05 0.000105966463717659 -0.0018959818361779309" pbc="T T T"
Cs      -0.08327617      12.78627577       0.01751047        0       0.02839650       0.04793234       0.02546671
Pb       3.27713392       3.17408080       3.23029710        1      -0.24239035      -0.27773482      -0.71309937
I        3.19940187       3.18574875      -0.05669529        2       0.01114121      -0.00442774      -0.06904467
I        3.35141060      12.62316247       2.96405947        3       0.02369280      -0.19289405       0.00134612
I       12.58165664       3.12235823       3.07484669        4       0.11482403       0.03952314       0.03615724
Cs      -0.00867498      12.57003438       6.24558918        5      -0.03004628       0.01946676      -0.01272847
Pb       3.18598968       2.95808114       9.35036233        6      -0.04316752       0.48329469       0.45881161
I        3.19272656       2.94799128       6.21159862        7      -0.03475452      -0.04162730       0.40357722
I        3.19699454      12.53812860       9.51480243        8      -0.03433916       0.48822558       0.01607588
I       12.52078380       3.04611810       9.64002073        9       0.51786283       0.02544927      -0.00093680
Cs      12.60181958       6.40274037      -0.11505549       10       0.02491502      -0.07217082      -0.01332819
Pb       3.12973267       9.38111592       2.97858939       11       0.06587575       0.29997606      -0.01898231
Br       3.26363737       9.47651537      -0.05150379       12      -0.03818207      -0.04796382       0.43028554
I        3.24056626       6.26595985       3.18818186       13      -0.01709984       0.24335441       0.02357563
I       -0.13486453       9.46101774       3.04100102       14       1.11893412      -0.02263498      -0.00781575
Cs      12.56605136       6.33662060       6.23406651       15      -0.04750782      -0.01589517      -0.00202977
Pb       3.20696351       9.51396874       9.57143671       16      -0.17941630      -0.58735659      -0.00382833
I        3.27348179       9.51622758       6.41480658       17      -0.01894707       0.00956558      -0.43181674
I        3.20537944       6.37957418       9.53341865       18      -0.02008822      -0.35857322      -0.03788293
I       -0.00226688       9.37665527       9.57205790       19      -0.11238766       0.01644186      -0.00138186
Cs       6.40727909      -0.01632633      -0.02280440       20      -0.04086137       0.02155277       0.00710415
Pb       9.22733221       3.14138440       3.12990213       21       0.27681820       0.23176228       0.05032919
I        9.33764866       3.32974499       0.06405380       22      -0.03878069      -0.01800070      -0.22342734
I        9.58213698      -0.00586329       3.09617388       23      -0.07793572      -0.18941583       0.01300407
Br       6.27681397       3.27399588       3.21320304       24      -0.05163968      -0.01857646       0.03169606
Cs       6.34181938       0.05988615       6.31205913       25       0.01791228      -0.01537452      -0.00115187
Pb       9.49487724       3.13569149       9.42310879       26      -0.19657513      -0.01369631       0.04237171
I        9.49496297       3.20319677       6.27873724       27       0.00602964       0.00169605       0.12499082
I        9.50780383       0.13697952       9.36433854       28      -0.02940737      -1.00102540       0.04122040
I        6.28898163       3.11069957       9.50417500       29      -0.17749635      -0.03322131      -0.04991973
Cs       6.27958703       6.32479731       0.09828839       30      -0.01154331      -0.03746815      -0.03138912
Pb       9.51189675       9.32937835       3.21398117       31      -0.11257599      -0.19776974       0.24763736
I        9.52065889       9.35450534       0.05762451       32       0.02414629      -0.00840334       0.03946729
Br       9.36686162       6.21738594       3.31305305       33       0.03382787       0.16623759       0.01042100
I        6.55934780       9.33739307       3.00537051       34      -1.11397348       0.02618976      -0.01229190
Cs       6.41867444       6.40228278       6.29111645       35       0.03517240      -0.00466120      -0.00572864
Pb       9.48460949       9.42272509       9.63408893       36       0.03554965       0.00386593      -0.27664444
I        9.46628729       9.36945133       6.42675275       37       0.00627368       0.00916833      -0.10187804
I        9.44800781       6.14141090       9.50785621       38      -0.00594007       0.99142504      -0.00135932
I        6.27851401       9.51460465       9.66755530       39       0.32330516       0.01529219       0.01481350
