40
Lattice="12.312638623450491 0.0 0.0 0.0 12.301918653176072 0.0 0.0 0.0 12.312638623450587" Properties=species:S:1:pos:R:3:spacegroup_kinds:I:1:forces:R:3 spacegroup="P 1" unit_cell=conventional candidate_id=91c447869c659657 formula=MAGe0.35Sn0.65I3 config_index=0 rattle_stdev=0.0 method=PBE fidelity=phase2_force energy=-111.96859828347404 stress="-0.0009207226810928555 7.943294685617809e-11 -1.5301151592262355e-10 7.943294685617809e-11 -0.001496885486886948 -7.943294685617748e-11 -1.5301151592262355e-10 -7.943294685617748e-11 -0.0009207226810928409" pbc="T T T"
Cs      12.27003231      12.24852459       0.04260631        0       0.00337482       0.01041215      -0.00337482
Sn       3.07815966       3.07547966       3.07815966        1       0.00016183       0.00020576       0.00021157
I        3.07815966       3.07547966      12.31256305        2      -0.00000048      -0.00000273       0.01166730
I        3.07815966      12.29928134       3.07815966        3      -0.00000217      -0.00286607      -0.00000094
I       12.21676190       3.07547966       3.07815966        4       0.09261050      -0.00000276      -0.00000114
Cs      12.27003231      12.24852459       6.11371300        5       0.00337769       0.01041557       0.00337676
Sn       3.07815966       3.07547966       9.23447897        6       0.00021373       0.00015741      -0.00021373
I        3.07815966       3.07547966       6.15639488        7      -0.00000089      -0.00000322      -0.01166660
I        3.07815966      12.20894358       9.23447897        8      -0.00000080       0.09499470       0.00000080
I        0.00007557       3.07547966       9.23447897        9      -0.01166730      -0.00000273       0.00000048
Cs      12.27003231       6.20435339       0.04260631       10       0.00337487      -0.01041502      -0.00337487
Sn       3.07815966       9.22643899       3.07815966       11       0.00016426      -0.00020563       0.00016616
I        3.07815966       9.22643899      12.22360129       12      -0.00000219       0.00000347       0.10880964
I        3.07815966       6.15359664       3.07815966       13      -0.00000253       0.00286500      -0.00000127
I       12.21971205       9.22643899       3.07815966       14       0.08481228       0.00000285      -0.00000248
Cs      12.27003231       6.20435339       6.11371300       15       0.00337815      -0.01041788       0.00337725
Ge       3.07815966       9.22643899       9.23447897       16       0.00000164       0.00000083      -0.00000164
I        3.07815966       9.22643899       6.24535665       17      -0.00000258       0.00000347      -0.10877661
I        3.07815966       6.24393440       9.23447897       18      -0.00000085      -0.09496489       0.00000085
I        0.08903734       9.22643899       9.23447897       19      -0.10880964       0.00000347       0.00000219
Cs       6.19892562      12.24852459       0.04260631       20      -0.00337676       0.01041557      -0.00337769
Ge       9.23447897       3.07547966       3.07815966       21      -0.00000199      -0.00000734       0.00000199
I        9.23447897       3.07547966       0.09587673       22       0.00000114      -0.00000276      -0.09261050
I        9.23447897      12.29788511       3.07815966       23       0.00000272      -0.00500586      -0.00000272
I        6.25219604       3.07547966       3.07815966       24      -0.09258155      -0.00000277      -0.00000119
Cs       6.19892562      12.24852459       6.11371300       25      -0.00337983       0.01041885       0.00337983
Sn       9.23447897       3.07547966       9.23447897       26      -0.00021157       0.00020576      -0.00016183
I        9.23447897       3.07547966       6.06044259       27       0.00000119      -0.00000277       0.09258155
I        9.23447897      12.29928134       9.23447897       28       0.00000094      -0.00286607       0.00000217
I        6.15624374       3.07547966       9.23447897       29       0.01166660      -0.00000322       0.00000089
Cs       6.19892562       6.20435339       0.04260631       30      -0.00337725      -0.01041788      -0.00337815
Ge       9.23447897       9.22643899       3.07815966       31      -0.00000277       0.00000618       0.00000277
I        9.23447897       9.22643899       0.09292657       32       0.00000248       0.00000285      -0.08481228
I        9.23447897       6.15499287       3.07815966       33       0.00000298       0.00500480      -0.00000298
I        6.24924588       9.22643899       3.07815966       34      -0.08478193       0.00000294      -0.00000286
Cs       6.19892562       6.20435339       6.11371300       35      -0.00338013      -0.01042159       0.00338013
Sn       9.23447897       9.22643899       9.23447897       36      -0.00016616      -0.00020563      -0.00016426
I        9.23447897       9.22643899       6.06339274       37       0.00000286       0.00000294       0.08478193
I        9.23447897       6.15359664       9.23447897       38       0.00000127       0.00286500       0.00000253
I        6.06728197       9.22643899       9.23447897       39       0.10877661       0.00000347       0.00000258
40
Lattice="12.312638623450491 0.0 0.0 0.0 12.301918653176072 0.0 0.0 0.0 12.312638623450587" Properties=species:S:1:pos:R:3:spacegroup_kinds:I:1:forces:R:3 spacegroup="P 1" unit_cell=conventional candidate_id=91c447869c659657 formula=MAGe0.35Sn0.65I3 config_index=1 rattle_stdev=0.08 method=PBE fidelity=phase2_force energy=-111.58241292493382 stress="-0.002753377926182698 1.2896795917983415e-05 1.1540577128856435e-05 1.2896795917983415e-05 -0.0026455370382417786 -6.274793563171569e-05 1.1540577128856435e-05 -6.274793563171569e-05 -0.0031739300669980444" pbc="T T T"
Cs      12.18311660      12.17683938       0.01810236        0       0.01504307       0.06209123       0.02250079
Sn       2.97096496       2.97895282       3.02682151        1       0.19311412       0.31913991       0.25959882
I        3.18279531       3.22311650      12.37889225        2      -0.07144673      -0.06280548      -0.04475892
I        3.07629575      12.28259622       3.00483008        3       0.02359304       0.00341671       0.00677775
I       12.13078249       3.06858818       3.17222674        4       0.53672607       0.01140264       0.01136395
Cs      12.13922497      12.34678011       6.19982390        5       0.05330009       0.03057166      -0.05056019
Sn       3.10974149       3.04446360       9.28155111        6       0.08808278      -0.08275464      -0.16545904
I        2.96349575       3.04959369       6.25663366        7       0.06111053       0.02244635      -0.21590000
I        3.01970025      12.32322238       9.31005128        8      -0.00489502      -0.22533378      -0.00171588
I       -0.02104465       3.06242260       9.15735039        9       0.09598726       0.01269266       0.05510756
Cs      12.24262052       6.20826572       0.00263575       10      -0.00582175      -0.03877308       0.01143591
Sn       2.90120730       9.25122594       2.95098755       11       0.47899798      -0.31264504      -0.17928455
I        3.13651602       9.21780689      12.17158757       12      -0.06041777       0.03094732       0.24632457
I        2.94271514       6.12411872       2.95092992       13       0.01472156       0.05677929       0.09279049
I       12.33815252       9.26439421       3.15126876       14      -0.47698495       0.00671865       0.03755759
Cs      12.34686993       6.21111680       6.25109147       15       0.01675511      -0.04484068      -0.03992516
Ge       3.14631107       9.16604816       9.05146862       16       0.29724470      -0.02539637       0.13483775
I        3.08689875       9.19042634       6.21231885       17       0.00669365       0.00577241      -0.04521804
I        3.10367836       6.20064577       9.31037229       18      -0.01703968       0.31808796      -0.07869179
I        0.10115214       9.23259118       9.22972694       19       0.05256756       0.02732994      -0.00994439
Cs       6.19331453      12.20323266       0.06748674       20       0.00958200       0.04009397       0.01790395
Ge       9.29241567       3.11679567       3.16024211       21      -0.34314130      -0.20436949      -0.48384915
I        9.27609118       3.00589258       0.21592194       22       0.04640428       0.03862040      -0.44449062
I        9.32779674      12.33723827       3.01957868       23      -0.04459174      -0.06352800       0.15790380
I        6.30662053       3.11619941       3.01115676       24      -0.39281234      -0.02679943       0.07811265
Cs       6.25073721      12.24952774       6.23848013       25      -0.04905322       0.03681056      -0.04882153
Sn       9.31724660       3.10249508       9.13027013       26      -0.18529267       0.29898957       0.20669676
I        9.14499542       3.18024087       6.01898523       27      -0.01042245      -0.03650954       0.49581635
I        9.20302902      12.38271882       9.24045618       28       0.01135212      -0.21109914      -0.01188100
I        6.16339871       3.07979225       9.26795473       29      -0.02201465      -0.00069510      -0.00763559
Cs       6.10070722       6.11719007       0.06797626       30       0.03441841       0.00281488       0.00873216
Ge       9.17204652       9.15794851       2.97256994       31      -0.27051201       0.06440304      -0.07082725
I        9.27078150       9.30658098       0.20602534       32      -0.02300123      -0.05140813      -0.15285325
I        9.21926434       6.15740171       2.92828632       33       0.04347606       0.18433356       0.07811345
I        6.23990372       9.21623976       3.15033440       34       0.26890646       0.00073170      -0.01641750
Cs       6.09377585       6.19638934       6.12495699       35      -0.00670293      -0.03398767      -0.01107390
Sn       9.44478344       9.36690130       9.02362714       36      -0.32149780      -0.34811595       0.55328683
I        9.13154741       9.21270121       6.20742904       37       0.07643652       0.04319240      -0.49201867
I        9.28317462       6.15611869       9.11716599       38      -0.00875929       0.18120922       0.07847466
I        6.09203723       9.31781642       9.19361143       39      -0.10908526      -0.03083401       0.01526407
40
Lattice="12.312638623450491 0.0 0.0 0.0 12.301918653176072 0.0 0.0 0.0 12.312638623450587" Properties=species:S:1:pos:R:3:spacegroup_kinds:I:1:forces:R:3 spacegroup="P 1" unit_cell=conventional candidate_id=91c447869c659657 formula=MAGe0.35Sn0.65I3 config_index=2 rattle_stdev=0.08 method=PBE fidelity=phase2_force energy=-111.56208623617576 stress="-0.0021645631960616734 2.1048553006466048e-05 -2.9145749467516076e-05 2.1048553006466048e-05 -0.002977591301817745 5.948033853235594e-07 -2.9145749467516076e-05 5.948033853235594e-07 -0.0020055659792381137" pbc="T T T"
Cs      12.26101527      12.16239947       0.18540847        0       0.02575621       0.02145523      -0.08230152
Sn       2.96160099       3.04937400       2.97736794        1       0.39772131       0.31330767       0.13764079
I        3.10822898       3.00522787      12.28456499        2      -0.03927611       0.04561492      -0.01381346
I        3.10189247      12.39535429       2.95264004        3       0.00473804      -0.63856237       0.06165271
I       12.36508420       3.11499661       3.06770274        4      -0.56962334       0.00926081      -0.03145932
Cs      12.23778265      12.17063160       6.07631566        5      -0.00698441       0.00112644       0.06050879
Sn       3.02072594       3.17319113       9.17230297        6       0.42309607       0.13705224      -0.01872349
I        3.03107760       3.07087015       6.16276127        7       0.03857237      -0.10025879      -0.10640681
I        2.98350357      12.08504418       9.30745946        8       0.02808292       0.34618822      -0.01605216
I        0.03308923       3.01981814       9.05137722        9      -0.17403806       0.01026190       0.04208557
Cs      12.20705299       6.12207206       0.05007096       10       0.02900161       0.00680270      -0.01188329
Sn       3.03582412       9.28885858       3.06209448       11       0.21147259      -0.23268704       0.03136306
I        3.03971097       9.14361802      12.18338254       12       0.03441136      -0.04249578       0.45494250
I        3.14135087       6.07959683       3.25496248       13      -0.01793205       0.51696360      -0.07149633
I       12.10769316       9.20731120       3.09554691       14       0.53131908      -0.03711725       0.02591511
Cs      12.24184149       6.21122344       6.12224516       15      -0.00062362      -0.00047055       0.00775195
Ge       3.06239716       9.33419370       9.26209289       16      -0.17908561      -0.14487562      -0.09144623
I        3.12277121       9.17881618       6.30398322       17      -0.02587776       0.07419747      -0.40678238
I        3.18465987       6.18553177       9.19561850       18      -0.03247747      -0.29969691       0.03585904
I        0.17519048       9.01881040       9.24783322       19      -0.13567518       0.03826313      -0.01389685
Cs       6.28204239      12.10383868       0.10329759       20      -0.03823803       0.07140266      -0.04897291
Ge       9.19446994       2.88793621       3.06952624       21      -0.32568349       0.07727928       0.17565242
I        9.11425595       3.11458196       0.05162244       22       0.11019873       0.01567286       0.00356949
I        9.31907957      12.22833968       3.07215237       23      -0.02569879       0.32770602      -0.00771993
I        6.24362364       3.24338542       3.05091662       24       0.29779625      -0.20173017      -0.00252386
Cs       6.15669322      12.14495524       6.13084092       25       0.01504103       0.04297852       0.03299212
Sn       9.32458053       3.10760253       9.29572579       26      -0.40177398      -0.07909397      -0.11786161
I        9.12622877       3.12138834       6.04283162       27       0.07974437      -0.10164681      -0.04838242
I        9.28609409      12.21890379       9.38645805       28       0.03111522       0.49590485      -0.00957091
I        6.17359261       3.11547729       9.18435168       29       0.07124831      -0.07222693      -0.00065203
Cs       6.11869489       6.14184858       0.05894853       30      -0.01594219      -0.02286112      -0.00530384
Ge       9.27736633       9.14043919       2.90073128       31      -0.30782045      -0.30528545       0.34744079
I        9.28623339       9.20065213       0.07912143       32      -0.00165175      -0.05692349       0.04168316
I        9.05140522       6.14602936       3.15458476       33       0.15947595       0.21484352      -0.10719947
I        6.28562493       9.39139319       3.08315649       34      -0.44370881      -0.02810547      -0.04298445
Cs       6.19915302       6.16806909       6.14359160       35      -0.01079457      -0.01467006       0.00228391
Sn       9.16942969       9.21831439       9.27013602       36       0.07278157       0.10254595      -0.44486448
I        9.13246868       9.23506553       6.13157169       37       0.07656109       0.06045105       0.09161376
I        9.22193080       6.24870218       9.11669790       38       0.05550446      -0.60384429       0.05274306
I        6.13656524       9.15496783       9.19056132       39       0.05383974       0.05657776       0.09161085
40
Lattice="12.312638623450491 0.0 0.0 0.0 12.301918653176072 0.0 0.0 0.0 12.312638623450587" Properties=species:S:1:pos:R:3:spacegroup_kinds:I:1:forces:R:3 spacegroup="P 1" unit_cell=conventional candidate_id=91c447869c659657 formula=MAGe0.35Sn0.65I3 config_index=3 rattle_stdev=0.08 method=PBE fidelity=phase2_force energy=-111.19462085206307 stress="-0.0026410777304732755 6.999619209562884e-05 4.798369512667091e-05 6.999619209562884e-05 -0.0033032851401799557 1.5237434654697324e-06 4.798369512667091e-05 1.5237434654697324e-06 -0.0020954316014548256" pbc="T T T"
Cs      12.16434883      12.40986482       0.04641147        0       0.06467494       0.01306669      -0.00036191
Sn       3.05914596       3.08220948       3.15492304        1      -0.26589887      -0.33123683      -0.72525055
I        3.02363178       3.11780530      12.25056960        2       0.02997339      -0.00108752      -0.07781496
I        3.19055615      12.28130690       2.97368880        3       0.02137545      -0.18183215      -0.00270171
I       12.16247908       2.94580500       2.97576177        4       0.31311417       0.09111797       0.05484884
Cs      12.25208858      12.18047970       6.05325379        5      -0.00761188       0.01811076      -0.00048386
Sn       3.09921332       2.87106422       9.10085629        6       0.00100768       0.29486952       0.52148620
I        3.02122084       2.87973761       6.05426010        7      -0.03873956      -0.00831466       0.38459302
I        3.13124946      12.10663686       9.17124619        8      -0.05965335       0.58373339       0.03993395
I       -0.12011410       2.98031647       9.41581418        9       0.43233642       0.04859771      -0.03518096
Cs      12.23189008       6.27608652      -0.10178875       10       0.04306821      -0.08401908       0.01619738
Sn       3.03886249       9.13047926       3.01374203       11      -0.02090287       0.34839633      -0.05747345
I        3.19062515       9.20801374      12.16650557       12      -0.07878836      -0.03324342       0.61070448
I        3.06515265       6.09928625       3.19928907       13      -0.01377780       0.21946926       0.01529437
I       12.07990623       9.27912136       3.05063036       14       1.10536226      -0.09296305       0.02592491
Cs      12.20933646       6.21811550       6.06112972       15      -0.01410251      -0.01510943       0.02076974
Ge       3.12237529       9.25704765       9.20477574       16      -0.05066465      -0.56257462      -0.03786314
I        3.20441117       9.24378279       6.34228398       17      -0.03209857       0.00829686      -0.55250856
I        3.13667810       6.29785409       9.18805448       18      -0.02377414      -0.32329979      -0.02758277
I        0.08109017       9.09964980       9.22850165       19      -0.26441180       0.05369647       0.00582248
Cs       6.29483033      12.22729077      -0.00953766       20      -0.04348944       0.03233807       0.01778513
Ge       9.08275604       2.95225574       3.04673380       21       0.30366290       0.17887788      -0.03191249
I        9.20132050       3.13236509       0.14727876       22      -0.08279779      -0.03473122      -0.17434540
I        9.42626587      12.28430252       2.99708896       23      -0.20988103      -0.12511353       0.05348663
I        6.21671154       3.14315784       3.11770838       24      -0.14351169      -0.07248941       0.02616514
Cs       6.22121668      12.29029186       6.13912234       25       0.01382092      -0.02963265      -0.01317861
Sn       9.25264988       3.04425242       9.17703756       26      -0.13290440      -0.05582169      -0.07037897
I        9.35800786       3.00644405       6.03173638       27      -0.03609536      -0.00775279       0.26625048
I        9.24118311      12.43361910       9.14013199       28      -0.03397492      -1.01312183       0.06456526
I        6.12434557       3.04160852       9.27922591       29      -0.19698789      -0.02568800      -0.05339488
Cs       6.15274605       6.21005318       0.11198272       30      -0.00972789      -0.04609477      -0.04442606
Ge       9.26767169       9.20834021       3.13860711       31      -0.18000073      -0.13263876       0.15092996
I        9.25248936       9.19125875       0.14525291       32       0.02918808      -0.01116859      -0.13850246
I        9.16278911       6.04103698       3.21755839       33       0.09724148       0.18774301      -0.04498985
I        6.48279193       9.17254097       3.01647771       34      -0.96554174       0.05539834       0.04012253
Cs       6.28336501       6.29601044       6.12336284       35      -0.01327587      -0.00856983       0.03344408
Sn       9.23547844       9.17047727       9.38458290       36       0.09176382       0.01837040      -0.21315042
I        9.19842630       9.20194025       6.17641209       37       0.02366949       0.02718287      -0.03390444
I        9.18219169       5.97227132       9.28290712       38      -0.01243812       1.00832542       0.00085236
I        6.02533653       9.24303817       9.32219113       39       0.35726226       0.00656196      -0.01429374
