Cs Sn I  Cs Pb I  Cs Sn I  Cs Sn I  Cs Sn I  Cs Sn I  Cs Sn I  Cs Sn I 
 1.0000000000000000
    13.5262456173174677    0.0000000000000000    0.0000000000000000
     0.0000000000000000   13.5262456173174677    0.0000000000000000
     0.0000000000000000    0.0000000000000000   13.5262456173174677
 Cs  Sn  I   Cs  Pb  I   Cs  Sn  I   Cs  Sn  I   Cs  Sn  I   Cs  Sn  I   Cs  Sn  I   Cs  Sn  I  
   1   1   3   1   1   3   1   1   3   1   1   3   1   1   3   1   1   3   1   1   3   1   1   3
Cartesian
  0.0000000000000000  0.0000000000000000  0.0000000000000000
  3.3815614043293660  3.3815614043293660  3.3815614043293660
  3.3815614043293660  3.3815614043293660  0.0000000000000000
  3.3815614043293660  0.0000000000000000  3.3815614043293660
  0.0000000000000000  3.3815614043293660  3.3815614043293660
  0.0000000000000000  0.0000000000000000  6.7631228086587329
  3.3815614043293660  3.3815614043293660 10.1446842129880999
  3.3815614043293660  3.3815614043293660  6.7631228086587329
  3.3815614043293660  0.0000000000000000 10.1446842129880999
  0.0000000000000000  3.3815614043293660 10.1446842129880999
  0.0000000000000000  6.7631228086587329  0.0000000000000000
  3.3815614043293660 10.1446842129880999  3.3815614043293660
  3.3815614043293660 10.1446842129880999  0.0000000000000000
  3.3815614043293660  6.7631228086587329  3.3815614043293660
  0.0000000000000000 10.1446842129880999  3.3815614043293660
  0.0000000000000000  6.7631228086587329  6.7631228086587329
  3.3815614043293660 10.1446842129880999 10.1446842129880999
  3.3815614043293660 10.1446842129880999  6.7631228086587329
  3.3815614043293660  6.7631228086587329 10.1446842129880999
  0.0000000000000000 10.1446842129880999 10.1446842129880999
  6.7631228086587329  0.0000000000000000  0.0000000000000000
 10.1446842129880999  3.3815614043293660  3.3815614043293660
 10.1446842129880999  3.3815614043293660  0.0000000000000000
 10.1446842129880999  0.0000000000000000  3.3815614043293660
  6.7631228086587329  3.3815614043293660  3.3815614043293660
  6.7631228086587329  0.0000000000000000  6.7631228086587329
 10.1446842129880999  3.3815614043293660 10.1446842129880999
 10.1446842129880999  3.3815614043293660  6.7631228086587329
 10.1446842129880999  0.0000000000000000 10.1446842129880999
  6.7631228086587329  3.3815614043293660 10.1446842129880999
  6.7631228086587329  6.7631228086587329  0.0000000000000000
 10.1446842129880999 10.1446842129880999  3.3815614043293660
 10.1446842129880999 10.1446842129880999  0.0000000000000000
 10.1446842129880999  6.7631228086587329  3.3815614043293660
  6.7631228086587329 10.1446842129880999  3.3815614043293660
  6.7631228086587329  6.7631228086587329  6.7631228086587329
 10.1446842129880999 10.1446842129880999 10.1446842129880999
 10.1446842129880999 10.1446842129880999  6.7631228086587329
 10.1446842129880999  6.7631228086587329 10.1446842129880999
  6.7631228086587329 10.1446842129880999 10.1446842129880999
