Cs Pb I  Cs Pb I  Cs Ge I  Cs Ge I  Cs Ge I  Cs Pb I  Cs Ge I  Cs Ge I 
 1.0000000000000000
    12.3251540387939968    0.0000000000000000    0.0000000000000000
     0.0000000000000000   12.3251540387939968    0.0000000000000000
     0.0000000000000000    0.0000000000000000   12.3251540387939968
 Cs  Pb  I   Cs  Pb  I   Cs  Ge  I   Cs  Ge  I   Cs  Ge  I   Cs  Pb  I   Cs  Ge  I   Cs  Ge  I  
   1   1   3   1   1   3   1   1   3   1   1   3   1   1   3   1   1   3   1   1   3   1   1   3
Cartesian
  0.0000000000000000  0.0000000000000000  0.0000000000000000
  3.0812885096984992  3.0812885096984992  3.0812885096984992
  3.0812885096984992  3.0812885096984992  0.0000000000000000
  3.0812885096984992  0.0000000000000000  3.0812885096984992
  0.0000000000000000  3.0812885096984992  3.0812885096984992
  0.0000000000000000  0.0000000000000000  6.1625770193969975
  3.0812885096984992  3.0812885096984992  9.2438655290954976
  3.0812885096984992  3.0812885096984992  6.1625770193969975
  3.0812885096984992  0.0000000000000000  9.2438655290954976
  0.0000000000000000  3.0812885096984992  9.2438655290954976
  0.0000000000000000  6.1625770193969975  0.0000000000000000
  3.0812885096984992  9.2438655290954976  3.0812885096984992
  3.0812885096984992  9.2438655290954976  0.0000000000000000
  3.0812885096984992  6.1625770193969975  3.0812885096984992
  0.0000000000000000  9.2438655290954976  3.0812885096984992
  0.0000000000000000  6.1625770193969975  6.1625770193969975
  3.0812885096984992  9.2438655290954976  9.2438655290954976
  3.0812885096984992  9.2438655290954976  6.1625770193969975
  3.0812885096984992  6.1625770193969975  9.2438655290954976
  0.0000000000000000  9.2438655290954976  9.2438655290954976
  6.1625770193969975  0.0000000000000000  0.0000000000000000
  9.2438655290954976  3.0812885096984992  3.0812885096984992
  9.2438655290954976  3.0812885096984992  0.0000000000000000
  9.2438655290954976  0.0000000000000000  3.0812885096984992
  6.1625770193969975  3.0812885096984992  3.0812885096984992
  6.1625770193969975  0.0000000000000000  6.1625770193969975
  9.2438655290954976  3.0812885096984992  9.2438655290954976
  9.2438655290954976  3.0812885096984992  6.1625770193969975
  9.2438655290954976  0.0000000000000000  9.2438655290954976
  6.1625770193969975  3.0812885096984992  9.2438655290954976
  6.1625770193969975  6.1625770193969975  0.0000000000000000
  9.2438655290954976  9.2438655290954976  3.0812885096984992
  9.2438655290954976  9.2438655290954976  0.0000000000000000
  9.2438655290954976  6.1625770193969975  3.0812885096984992
  6.1625770193969975  9.2438655290954976  3.0812885096984992
  6.1625770193969975  6.1625770193969975  6.1625770193969975
  9.2438655290954976  9.2438655290954976  9.2438655290954976
  9.2438655290954976  9.2438655290954976  6.1625770193969975
  9.2438655290954976  6.1625770193969975  9.2438655290954976
  6.1625770193969975  9.2438655290954976  9.2438655290954976
