Cs Sn I  Cs Sn I  Cs Sn I  Cs Sn I  Cs Sn I  Cs Sn I  Cs Ge I  Cs Sn I 
 1.0000000000000000
    13.2332205671937615    0.0000000000000000    0.0000000000000000
     0.0000000000000000   13.2332205671937615    0.0000000000000000
     0.0000000000000000    0.0000000000000000   13.2332205671937615
 Cs  Sn  I   Cs  Sn  I   Cs  Sn  I   Cs  Sn  I   Cs  Sn  I   Cs  Sn  I   Cs  Ge  I   Cs  Sn  I  
   1   1   3   1   1   3   1   1   3   1   1   3   1   1   3   1   1   3   1   1   3   1   1   3
Cartesian
  0.0000000000000000  0.0000000000000000  0.0000000000000000
  3.3083051417984404  3.3083051417984404  3.3083051417984404
  3.3083051417984404  3.3083051417984404  0.0000000000000000
  3.3083051417984404  0.0000000000000000  3.3083051417984404
  0.0000000000000000  3.3083051417984404  3.3083051417984404
  0.0000000000000000  0.0000000000000000  6.6166102835968799
  3.3083051417984404  3.3083051417984404  9.9249154253953229
  3.3083051417984404  3.3083051417984404  6.6166102835968799
  3.3083051417984404  0.0000000000000000  9.9249154253953229
  0.0000000000000000  3.3083051417984404  9.9249154253953229
  0.0000000000000000  6.6166102835968799  0.0000000000000000
  3.3083051417984404  9.9249154253953229  3.3083051417984404
  3.3083051417984404  9.9249154253953229  0.0000000000000000
  3.3083051417984404  6.6166102835968799  3.3083051417984404
  0.0000000000000000  9.9249154253953229  3.3083051417984404
  0.0000000000000000  6.6166102835968799  6.6166102835968799
  3.3083051417984404  9.9249154253953229  9.9249154253953229
  3.3083051417984404  9.9249154253953229  6.6166102835968799
  3.3083051417984404  6.6166102835968799  9.9249154253953229
  0.0000000000000000  9.9249154253953229  9.9249154253953229
  6.6166102835968799  0.0000000000000000  0.0000000000000000
  9.9249154253953229  3.3083051417984404  3.3083051417984404
  9.9249154253953229  3.3083051417984404  0.0000000000000000
  9.9249154253953229  0.0000000000000000  3.3083051417984404
  6.6166102835968799  3.3083051417984404  3.3083051417984404
  6.6166102835968799  0.0000000000000000  6.6166102835968799
  9.9249154253953229  3.3083051417984404  9.9249154253953229
  9.9249154253953229  3.3083051417984404  6.6166102835968799
  9.9249154253953229  0.0000000000000000  9.9249154253953229
  6.6166102835968799  3.3083051417984404  9.9249154253953229
  6.6166102835968799  6.6166102835968799  0.0000000000000000
  9.9249154253953229  9.9249154253953229  3.3083051417984404
  9.9249154253953229  9.9249154253953229  0.0000000000000000
  9.9249154253953229  6.6166102835968799  3.3083051417984404
  6.6166102835968799  9.9249154253953229  3.3083051417984404
  6.6166102835968799  6.6166102835968799  6.6166102835968799
  9.9249154253953229  9.9249154253953229  9.9249154253953229
  9.9249154253953229  9.9249154253953229  6.6166102835968799
  9.9249154253953229  6.6166102835968799  9.9249154253953229
  6.6166102835968799  9.9249154253953229  9.9249154253953229
