40
Lattice="12.480305597045595 0.0 0.0 0.0 12.482177907221319 0.0 0.0 -1.7661810380780344e-13 12.482177907221347" Properties=species:S:1:pos:R:3:spacegroup_kinds:I:1:forces:R:3 spacegroup="P 1" unit_cell=conventional occupancy="_JSON {\"0\": {\"K\": 1.0}, \"1\": {\"Sn\": 1.0}, \"2\": {\"I\": 1.0}, \"3\": {\"I\": 1.0}, \"4\": {\"I\": 1.0}, \"5\": {\"Cs\": 1.0}, \"6\": {\"Sn\": 1.0}, \"7\": {\"I\": 1.0}, \"8\": {\"I\": 1.0}, \"9\": {\"I\": 1.0}, \"10\": {\"K\": 1.0}, \"11\": {\"Sn\": 1.0}, \"12\": {\"I\": 1.0}, \"13\": {\"I\": 1.0}, \"14\": {\"I\": 1.0}, \"15\": {\"K\": 1.0}, \"16\": {\"Sn\": 1.0}, \"17\": {\"I\": 1.0}, \"18\": {\"I\": 1.0}, \"19\": {\"I\": 1.0}, \"20\": {\"K\": 1.0}, \"21\": {\"Sn\": 1.0}, \"22\": {\"I\": 1.0}, \"23\": {\"I\": 1.0}, \"24\": {\"I\": 1.0}, \"25\": {\"Cs\": 1.0}, \"26\": {\"Sn\": 1.0}, \"27\": {\"I\": 1.0}, \"28\": {\"I\": 1.0}, \"29\": {\"I\": 1.0}, \"30\": {\"K\": 1.0}, \"31\": {\"Sn\": 1.0}, \"32\": {\"I\": 1.0}, \"33\": {\"I\": 1.0}, \"34\": {\"I\": 1.0}, \"35\": {\"K\": 1.0}, \"36\": {\"Sn\": 1.0}, \"37\": {\"I\": 1.0}, \"38\": {\"I\": 1.0}, \"39\": {\"I\": 1.0}}" candidate_id=038520d3d582ba92 formula=FA0.22K0.78SnI3 config_index=0 rattle_stdev=0.0 method=PBE fidelity=phase2_force energy=-111.42660575863 stress="0.0003829805984418432 0.0 0.0 0.0 0.00036304326939672423 5.136925167837037e-18 0.0 5.136925167837037e-18 0.00036335001034789113" pbc="T T T"
K       12.48030560      12.48217791      12.48217791        0       0.00000000      -0.00000000       0.00000000
Sn       3.12007640       3.13530899       3.10577997        1       0.00021456      -0.01996908       0.02036140
I        3.12007640       3.15485872       0.00000000        2      -0.00000509       0.00240869       0.00000000
I        3.12007640      -0.00000000       3.02146868        3      -0.00000603      -0.00000000       0.01656593
I        0.00000000       3.18097792       3.06011103        4      -0.00000000      -0.00959775       0.00959591
Cs       0.00000000      12.48217791       6.24108895        5      -0.00000000       0.00000000       0.00000000
Sn       3.12007640       3.13530899       9.37639794        6       0.00021456      -0.01996908      -0.02036140
I        3.12007640       3.21962028       6.24108895        7      -0.00000322      -0.01656558       0.00000000
I        3.12007640      -0.00000000       9.46070923        8      -0.00000603       0.00000000      -0.01656593
I        0.00000000       3.18097792       9.42206688        9      -0.00000000      -0.00959775      -0.00959591
K       12.48030560       6.24108895      12.48217791       10      -0.00000000       0.00000000       0.00000000
Sn       3.12007640       9.34686892       3.10577997       11       0.00021456       0.01996908       0.02036140
I        3.12007640       9.32731918       0.00000000       12      -0.00000509      -0.00240869       0.00000000
I        3.12007640       6.24108895       3.08623023       13      -0.00000243       0.00000000      -0.00241874
I        0.00000000       9.30119998       3.06011103       14       0.00000000       0.00959775       0.00959591
K       12.48030560       6.24108895       6.24108895       15      -0.00000000       0.00000000       0.00000000
Sn       3.12007640       9.34686892       9.37639794       16       0.00021456       0.01996908      -0.02036140
I        3.12007640       9.26255763       6.24108895       17      -0.00000322       0.01656558       0.00000000
I        3.12007640       6.24108895       9.39594768       18      -0.00000243      -0.00000000       0.00241874
I        0.00000000       9.30119998       9.42206688       19       0.00000000       0.00959775      -0.00959591
K        6.24015280      12.48217791      12.48217791       20       0.00000000       0.00000000       0.00000000
Sn       9.36022920       3.13530899       3.10577997       21      -0.00021456      -0.01996908       0.02036140
I        9.36022920       3.15485872       0.00000000       22       0.00000509       0.00240869       0.00000000
I        9.36022920      -0.00000000       3.02146868       23       0.00000603      -0.00000000       0.01656593
I        6.24015280       3.18097792       3.06011103       24       0.00000000      -0.00959127       0.00959528
Cs       6.24015280      -0.00000000       6.24108895       25      -0.00000000       0.00000000       0.00000000
Sn       9.36022920       3.13530899       9.37639794       26      -0.00021456      -0.01996908      -0.02036140
I        9.36022920       3.21962028       6.24108895       27       0.00000322      -0.01656558       0.00000000
I        9.36022920      -0.00000000       9.46070923       28       0.00000603       0.00000000      -0.01656593
I        6.24015280       3.18097792       9.42206688       29       0.00000000      -0.00959127      -0.00959528
K        6.24015280       6.24108895      12.48217791       30       0.00000000       0.00000000       0.00000000
Sn       9.36022920       9.34686892       3.10577997       31      -0.00021456       0.01996908       0.02036140
I        9.36022920       9.32731918       0.00000000       32       0.00000509      -0.00240869       0.00000000
I        9.36022920       6.24108895       3.08623023       33       0.00000243       0.00000000      -0.00241874
I        6.24015280       9.30119998       3.06011103       34       0.00000000       0.00959127       0.00959528
K        6.24015280       6.24108895       6.24108895       35       0.00000000      -0.00000000       0.00000000
Sn       9.36022920       9.34686892       9.37639794       36      -0.00021456       0.01996908      -0.02036140
I        9.36022920       9.26255763       6.24108895       37       0.00000322       0.01656558       0.00000000
I        9.36022920       6.24108895       9.39594768       38       0.00000243      -0.00000000       0.00241874
I        6.24015280       9.30119998       9.42206688       39       0.00000000       0.00959127      -0.00959528
40
Lattice="12.480305597045595 0.0 0.0 0.0 12.482177907221319 0.0 0.0 -1.7661810380780344e-13 12.482177907221347" Properties=species:S:1:pos:R:3:spacegroup_kinds:I:1:forces:R:3 spacegroup="P 1" unit_cell=conventional occupancy="_JSON {\"0\": {\"K\": 1.0}, \"1\": {\"Sn\": 1.0}, \"2\": {\"I\": 1.0}, \"3\": {\"I\": 1.0}, \"4\": {\"I\": 1.0}, \"5\": {\"Cs\": 1.0}, \"6\": {\"Sn\": 1.0}, \"7\": {\"I\": 1.0}, \"8\": {\"I\": 1.0}, \"9\": {\"I\": 1.0}, \"10\": {\"K\": 1.0}, \"11\": {\"Sn\": 1.0}, \"12\": {\"I\": 1.0}, \"13\": {\"I\": 1.0}, \"14\": {\"I\": 1.0}, \"15\": {\"K\": 1.0}, \"16\": {\"Sn\": 1.0}, \"17\": {\"I\": 1.0}, \"18\": {\"I\": 1.0}, \"19\": {\"I\": 1.0}, \"20\": {\"K\": 1.0}, \"21\": {\"Sn\": 1.0}, \"22\": {\"I\": 1.0}, \"23\": {\"I\": 1.0}, \"24\": {\"I\": 1.0}, \"25\": {\"Cs\": 1.0}, \"26\": {\"Sn\": 1.0}, \"27\": {\"I\": 1.0}, \"28\": {\"I\": 1.0}, \"29\": {\"I\": 1.0}, \"30\": {\"K\": 1.0}, \"31\": {\"Sn\": 1.0}, \"32\": {\"I\": 1.0}, \"33\": {\"I\": 1.0}, \"34\": {\"I\": 1.0}, \"35\": {\"K\": 1.0}, \"36\": {\"Sn\": 1.0}, \"37\": {\"I\": 1.0}, \"38\": {\"I\": 1.0}, \"39\": {\"I\": 1.0}}" candidate_id=038520d3d582ba92 formula=FA0.22K0.78SnI3 config_index=1 rattle_stdev=0.08 method=PBE fidelity=phase2_force energy=-110.93706538448453 stress="-0.0013432983318850187 4.970400496223006e-05 9.290490148853252e-06 4.970400496223006e-05 -0.0006518213908982526 -0.00010258540442845144 9.290490148853252e-06 -0.00010258540442845144 -0.001834943475728148" pbc="T T T"
K       12.39338989      12.41049270      12.45767396        0      -0.05496749       0.00754341       0.02581780
Sn       3.01288171       3.03878214       3.05444182        1       0.26380366       0.24611760       0.19319384
I        3.22471205       3.30249556       0.06632920        2      -0.05455986      -0.03120559      -0.04681078
I        3.11821249      -0.01668512       2.94813910        3       0.00405885       0.02555676      -0.01539331
I       -0.08597941       3.17408644       3.15417811        4       0.47935568      -0.01062782       0.02063330
Cs      -0.13080734      12.58043343       6.32719985        5       0.03506757       0.03692559      -0.03615732
Sn       3.15165823       3.10429292       9.42347008        6       0.09334834      -0.02615866      -0.16672019
I        3.00541249       3.19373430       6.34132773        7       0.04759697       0.00478214      -0.14107751
I        3.06161699       0.11427881       9.53628154        8      -0.01121996      -0.42129967      -0.00102311
I       -0.02112022       3.16792086       9.34493829        9       0.08660187       0.00819806       0.01957727
K       12.45289381       6.24500128      12.44220735       10      -0.00167764      -0.02995766       0.01984645
Sn       2.94312404       9.37165587       2.97860787       11       0.72588008      -0.23219250      -0.09063921
I        3.17843277       9.31868708      -0.05201372       12      -0.03587855       0.02577216       0.01742299
I        2.98463188       6.21161103       2.95900049       13      -0.00010134       0.04465992       0.06019412
I        0.11844047       9.33915520       3.13322014       14      -0.80997369       0.02308648       0.04100381
K       12.55714322       6.24785236       6.37846743       15       0.03905727      -0.04793996       0.02338764
Sn       3.18822782       9.28647810       9.19338759       16       0.23772403       0.05557748       0.24366285
I        3.12881549       9.22654498       6.20805116       17       0.00236572      -0.02716428      -0.07123294
I        3.14559510       6.19780032       9.47184100       18      -0.01747800       0.40519888      -0.04963353
I        0.01211480       9.30735218       9.41731484       19       0.27321347       0.01854875      -0.01552596
K        6.23454170      12.43688598      12.50705834       20       0.00875327       0.00781826       0.02322344
Sn       9.41816590       3.17662499       3.18786242       21      -0.41681257      -0.25958582      -0.43597259
I        9.40184141       3.08527164       0.12004521       22       0.05641071       0.02961779      -0.41383014
I        9.45354697       0.03935316       2.96288770       23      -0.00358274      -0.09764688       0.12098730
I        6.29457729       3.22169767       2.99310813       24      -0.30629828      -0.01608552       0.06989657
Cs       6.29196439       0.00100316       6.36585608       25      -0.02466155       0.01318843      -0.02213002
Sn       9.44299683       3.16232440       9.27218911       26      -0.16556232       0.23097487       0.28531325
I        9.27074565       3.32438149       6.19963159       27      -0.01973112      -0.04646509       0.40147189
I        9.32877925       0.08343748       9.46668645       28       0.04533643      -0.18360537      -0.07146760
I        6.24730776       3.18529051       9.45554264       29      -0.03505780      -0.01166610      -0.02179800
K        6.14193439       6.15392563      12.50754786       30      -0.03407912      -0.05041244       0.04094020
Sn       9.29779675       9.27837844       3.00019026       31      -0.18873288       0.23419323       0.18186869
I        9.39653173       9.40746117       0.11309877       32       0.02093896       0.00107807      -0.32250571
I        9.34501457       6.24349780       2.93635689       33       0.03770355       0.09873634      -0.00539994
I        6.23081064       9.29100076       3.13228577       34       0.25586084       0.00045665       0.01155784
K        6.13500302       6.23312489       6.25233294       35      -0.01640405      -0.01442354      -0.00430079
Sn       9.57053367       9.48733123       9.16554611       36      -0.48532519      -0.22955934       0.76794325
I        9.25729764       9.24881986       6.38512525       37       0.04182258       0.04639873      -0.78390587
I        9.40892485       6.24361100       9.27863470       38       0.02860810       0.14919925       0.06822995
I        6.26490806       9.39257741       9.38119934       39      -0.09813740       0.00978183       0.00707119
40
Lattice="12.480305597045595 0.0 0.0 0.0 12.482177907221319 0.0 0.0 -1.7661810380780344e-13 12.482177907221347" Properties=species:S:1:pos:R:3:spacegroup_kinds:I:1:forces:R:3 spacegroup="P 1" unit_cell=conventional occupancy="_JSON {\"0\": {\"K\": 1.0}, \"1\": {\"Sn\": 1.0}, \"2\": {\"I\": 1.0}, \"3\": {\"I\": 1.0}, \"4\": {\"I\": 1.0}, \"5\": {\"Cs\": 1.0}, \"6\": {\"Sn\": 1.0}, \"7\": {\"I\": 1.0}, \"8\": {\"I\": 1.0}, \"9\": {\"I\": 1.0}, \"10\": {\"K\": 1.0}, \"11\": {\"Sn\": 1.0}, \"12\": {\"I\": 1.0}, \"13\": {\"I\": 1.0}, \"14\": {\"I\": 1.0}, \"15\": {\"K\": 1.0}, \"16\": {\"Sn\": 1.0}, \"17\": {\"I\": 1.0}, \"18\": {\"I\": 1.0}, \"19\": {\"I\": 1.0}, \"20\": {\"K\": 1.0}, \"21\": {\"Sn\": 1.0}, \"22\": {\"I\": 1.0}, \"23\": {\"I\": 1.0}, \"24\": {\"I\": 1.0}, \"25\": {\"Cs\": 1.0}, \"26\": {\"Sn\": 1.0}, \"27\": {\"I\": 1.0}, \"28\": {\"I\": 1.0}, \"29\": {\"I\": 1.0}, \"30\": {\"K\": 1.0}, \"31\": {\"Sn\": 1.0}, \"32\": {\"I\": 1.0}, \"33\": {\"I\": 1.0}, \"34\": {\"I\": 1.0}, \"35\": {\"K\": 1.0}, \"36\": {\"Sn\": 1.0}, \"37\": {\"I\": 1.0}, \"38\": {\"I\": 1.0}, \"39\": {\"I\": 1.0}}" candidate_id=038520d3d582ba92 formula=FA0.22K0.78SnI3 config_index=2 rattle_stdev=0.08 method=PBE fidelity=phase2_force energy=-110.96493406384783 stress="-0.0008459284926366512 1.2565748677143502e-05 -2.7361033373002686e-05 1.2565748677143502e-05 -0.0010068610259433748 -1.825160193088768e-05 -2.7361033373002686e-05 -1.825160193088768e-05 -0.000570308703581698" pbc="T T T"
K       12.47128855      12.39605279      12.62498006        0       0.01708677      -0.02791071      -0.01773789
Sn       3.00351773       3.10920332       3.00498825        1       0.65945977       0.21388627       0.13228956
I        3.15014572       3.08460694      -0.02799806        2      -0.04408097       0.06485454      -0.01232973
I        3.14380922       0.09607295       2.89594906        3      -0.02962135      -0.54365926       0.03632706
I        0.14832230       3.22049487       3.04965412        4      -0.89499492       0.02255352      -0.03794916
Cs      -0.03224966      12.40428493       6.20369161        5      -0.01199158      -0.01246629       0.04833456
Sn       3.06264268       3.23302045       9.31422194        6       0.36276428      -0.07748841      -0.06374483
I        3.07299435       3.21501077       6.24745534        7       0.01285820      -0.09819554      -0.05216909
I        3.02542031      -0.12389940       9.53368972        8      -0.00322563       0.38497395      -0.02393945
I        0.03301366       3.12531640       9.23896513        9      -0.14077920       0.02969003       0.03057957
K       12.41732627       6.15880762      12.48964256       10       0.01045431       0.02437999      -0.02332379
Sn       3.07774087       9.40928851       3.08971479       11       0.21129977      -0.19307309       0.04651174
I        3.08162771       9.24449821      -0.04021875       12       0.02203117      -0.06517844       0.37540192
I        3.18326762       6.16708914       3.26303305       13      -0.01521402       0.48583628      -0.05514660
I       -0.11201889       9.28207219       3.07749829       14       0.54272907       0.00077426       0.02929846
K       12.45211477       6.24795900       6.24962111       15      -0.00273993       0.01192048       0.02984096
Sn       3.10431390       9.45462363       9.40401186       16      -0.07638176      -0.29182520      -0.13160387
I        3.16468795       9.21493482       6.29971553       17      -0.02385504       0.08910186      -0.28494366
I        3.22657661       6.18268632       9.35708721       18      -0.00605934       0.00399238       0.03696256
I        0.08615314       9.09357139       9.43542113       19      -0.08716054       0.00415793      -0.03582007
K        6.32326957      12.33749200      12.54286918       20      -0.00532312      -0.00406496       0.00283606
Sn       9.32022017       2.94776553       3.09714655       21      -0.22854326       0.36166722       0.14885781
I        9.24000618       3.19396102      -0.04425428       22       0.07845366       0.05441678       0.17267965
I        9.44482980      -0.06954543       3.01546139       23       0.01706772       0.12461911      -0.01208619
I        6.23158040       3.34888368       3.03286800       24       0.34351399      -0.14754813       0.00295951
Cs       6.19792039      -0.10356935       6.25821688       25       0.01745965       0.00603660       0.01791790
Sn       9.45033076       3.16743185       9.43764476       26      -0.35998829      -0.07277451      -0.24432876
I        9.25197900       3.26552896       6.22347798       27       0.04169112      -0.09226244      -0.09297590
I        9.41184432      -0.08037754       9.61268831       28       0.02072924       0.40752179      -0.00627167
I        6.25750166       3.22097555       9.37193959       29       0.05989671      -0.05880421      -0.01671193
K        6.15992206       6.17858414      12.49852013       30      -0.02666138      -0.06561362       0.01142559
Sn       9.40311656       9.26086913       2.92835159       31      -0.37128134      -0.20070506       0.51934229
I        9.41198362       9.30153232      -0.01380513       32       0.01410443      -0.03954075       0.03413021
I        9.17715545       6.23212545       3.16265533       33       0.08559065      -0.04764774      -0.05072335
I        6.27653185       9.46615418       3.06510787       34      -0.36706104       0.07033011      -0.05657126
K        6.24038019       6.20480465       6.27096755       35       0.01513280      -0.03293617      -0.00357157
Sn       9.29517992       9.33874432       9.41205499       36       0.20333346       0.11533592      -0.45938737
I        9.25821891       9.27118418       6.30926790       37       0.05513003       0.09542128      -0.11795063
I        9.34768103       6.33619449       9.27816661       38       0.05909037      -0.55263577       0.05021233
I        6.30943607       9.22972882       9.37814923       39      -0.16111590       0.05340542       0.07052632
40
Lattice="12.480305597045595 0.0 0.0 0.0 12.482177907221319 0.0 0.0 -1.7661810380780344e-13 12.482177907221347" Properties=species:S:1:pos:R:3:spacegroup_kinds:I:1:forces:R:3 spacegroup="P 1" unit_cell=conventional occupancy="_JSON {\"0\": {\"K\": 1.0}, \"1\": {\"Sn\": 1.0}, \"2\": {\"I\": 1.0}, \"3\": {\"I\": 1.0}, \"4\": {\"I\": 1.0}, \"5\": {\"Cs\": 1.0}, \"6\": {\"Sn\": 1.0}, \"7\": {\"I\": 1.0}, \"8\": {\"I\": 1.0}, \"9\": {\"I\": 1.0}, \"10\": {\"K\": 1.0}, \"11\": {\"Sn\": 1.0}, \"12\": {\"I\": 1.0}, \"13\": {\"I\": 1.0}, \"14\": {\"I\": 1.0}, \"15\": {\"K\": 1.0}, \"16\": {\"Sn\": 1.0}, \"17\": {\"I\": 1.0}, \"18\": {\"I\": 1.0}, \"19\": {\"I\": 1.0}, \"20\": {\"K\": 1.0}, \"21\": {\"Sn\": 1.0}, \"22\": {\"I\": 1.0}, \"23\": {\"I\": 1.0}, \"24\": {\"I\": 1.0}, \"25\": {\"Cs\": 1.0}, \"26\": {\"Sn\": 1.0}, \"27\": {\"I\": 1.0}, \"28\": {\"I\": 1.0}, \"29\": {\"I\": 1.0}, \"30\": {\"K\": 1.0}, \"31\": {\"Sn\": 1.0}, \"32\": {\"I\": 1.0}, \"33\": {\"I\": 1.0}, \"34\": {\"I\": 1.0}, \"35\": {\"K\": 1.0}, \"36\": {\"Sn\": 1.0}, \"37\": {\"I\": 1.0}, \"38\": {\"I\": 1.0}, \"39\": {\"I\": 1.0}}" candidate_id=038520d3d582ba92 formula=FA0.22K0.78SnI3 config_index=3 rattle_stdev=0.08 method=PBE fidelity=phase2_force energy=-110.79335675848749 stress="-0.0009014189060407336 0.0001086998457615089 2.6795245296733202e-05 0.0001086998457615089 -0.0009542039074429951 5.2426396551610026e-05 2.6795245296733202e-05 5.2426396551610026e-05 -0.0003809952888985222" pbc="T T T"
K       12.37462212      12.64351814      12.48598306        0      -0.00837700       0.10968161       0.04486228
Sn       3.10106271       3.14203880       3.18254335        1      -0.26294711      -0.32609237      -0.58763553
I        3.06554852       3.19718436      -0.06199346        2       0.02957786       0.00050794      -0.09701871
I        3.23247290      -0.01797444       2.91699782        3       0.02672487      -0.13172595       0.02743963
I       -0.05428282       3.05130326       2.95771315        4       0.13258559       0.02175910       0.03661336
Cs      -0.01794374      12.41413302       6.18062975        5      -0.02081514       0.01429391      -0.01939258
Sn       3.14113006       2.93089354       9.24277527        6       0.02850101       0.39986368       0.45838290
I        3.06313758       3.02387823       6.13895417        7      -0.03231257      -0.03576896       0.33107485
I        3.17316620      -0.10230672       9.39747645        8      -0.02339143       0.45343477      -0.00293235
I       -0.12018966       3.08581473       9.60340209        9       0.37273357      -0.00790193      -0.01934821
K       12.44216337       6.31282207      12.33778285       10       0.00980404      -0.04578542      -0.05671220
Sn       3.08077923       9.25090920       3.04136234       11       0.01771451       0.29637651      -0.00131749
I        3.23254189       9.30889393      -0.05709572       12      -0.03750913      -0.06496440       0.48761821
I        3.10706940       6.18677856       3.20735964       13      -0.02920264       0.20649566       0.02565232
I       -0.13980583       9.35388235       3.03258173       14       1.06781007      -0.06698770       0.01631002
K       12.41960975       6.25485106       6.18850567       15      -0.04485662       0.01235975      -0.00741722
Sn       3.16429204       9.37747758       9.34669471       16      -0.13215440      -0.53660735      -0.02385691
I        3.24632792       9.27990143       6.33801629       17      -0.00051951       0.03741975      -0.47901337
I        3.17859484       6.29500864       9.34952319       18      -0.01989734      -0.29319531      -0.04260818
I       -0.00794717       9.17441079       9.41608956       19      -0.11505281       0.00166548       0.00992338
K        6.33605751      12.46094409      12.43003394       20      -0.02289976       0.00239996      -0.00538977
Sn       9.20850627       3.01208507       3.07435411       21       0.35436268       0.24772485       0.01735961
I        9.32707073       3.21174415       0.05140203       22      -0.07475221      -0.03464439      -0.13946288
I        9.55201610      -0.01358259       2.94039798       23      -0.08786864      -0.24190986       0.00661702
I        6.20466830       3.24865610       3.09965975       24      -0.12705753      -0.04131510       0.03212748
Cs       6.26244386       0.04176727       6.26649829       25       0.00508738      -0.02700729       0.00021173
Sn       9.37840011       3.10408175       9.31895653       26      -0.08450635      -0.09021658      -0.01906057
I        9.48375809       3.15058467       6.21238275       27       0.00185550      -0.03291353       0.15022194
I        9.36693334       0.13433776       9.36636225       28      -0.02506825      -0.83234595       0.05832070
I        6.20825463       3.14710678       9.46681382       29      -0.21648114      -0.06936727      -0.07024524
K        6.19397322       6.24678874      12.55155432       30      -0.01710171      -0.01664561      -0.01996651
Sn       9.39342192       9.32877014       3.16622742       31      -0.14669359      -0.17632716       0.20823345
I        9.37823959       9.29213894       0.05232634       32       0.03523377      -0.01668335       0.04033739
I        9.28853934       6.12713306       3.22562896       33       0.07347319       0.24712036       0.02569520
I        6.47369885       9.24730196       2.99842909       34      -0.97450437       0.02404310       0.00279050
K        6.32459218       6.33274599       6.25073880       35       0.03557937       0.05007155      -0.00082493
Sn       9.36122867       9.29090721       9.52650187       36       0.06987455       0.00296530      -0.28861878
I        9.32417653       9.23805889       6.35410830       37       0.00283381       0.01224349      -0.11561434
I        9.30794192       6.05976363       9.44437584       38      -0.01102520       0.90358443       0.00563330
I        6.19820736       9.31779917       9.50977904       39       0.24716048       0.03042145       0.00271188
