40
Lattice="11.728242310566143 0.0 0.0 -0.007512765656081599 11.632534490234999 0.0 -0.007609201232344414 -0.020228671282219276 11.822642985231948" Properties=species:S:1:pos:R:3:spacegroup_kinds:I:1:forces:R:3 spacegroup="P 1" unit_cell=conventional occupancy="_JSON {\"0\": {\"Cs\": 1.0}, \"1\": {\"Sn\": 1.0}, \"2\": {\"I\": 1.0}, \"3\": {\"Cl\": 1.0}, \"4\": {\"Cl\": 1.0}, \"5\": {\"Cs\": 1.0}, \"6\": {\"Sn\": 1.0}, \"7\": {\"Cl\": 1.0}, \"8\": {\"Cl\": 1.0}, \"9\": {\"Cl\": 1.0}, \"10\": {\"Cs\": 1.0}, \"11\": {\"Sn\": 1.0}, \"12\": {\"Cl\": 1.0}, \"13\": {\"Cl\": 1.0}, \"14\": {\"I\": 1.0}, \"15\": {\"Cs\": 1.0}, \"16\": {\"Sn\": 1.0}, \"17\": {\"I\": 1.0}, \"18\": {\"Cl\": 1.0}, \"19\": {\"I\": 1.0}, \"20\": {\"Cs\": 1.0}, \"21\": {\"Sn\": 1.0}, \"22\": {\"Cl\": 1.0}, \"23\": {\"Cl\": 1.0}, \"24\": {\"Cl\": 1.0}, \"25\": {\"Cs\": 1.0}, \"26\": {\"Sn\": 1.0}, \"27\": {\"Cl\": 1.0}, \"28\": {\"I\": 1.0}, \"29\": {\"Cl\": 1.0}, \"30\": {\"Cs\": 1.0}, \"31\": {\"Sn\": 1.0}, \"32\": {\"I\": 1.0}, \"33\": {\"Cl\": 1.0}, \"34\": {\"Cl\": 1.0}, \"35\": {\"Cs\": 1.0}, \"36\": {\"Sn\": 1.0}, \"37\": {\"Cl\": 1.0}, \"38\": {\"Cl\": 1.0}, \"39\": {\"Cl\": 1.0}}" candidate_id=0dbe866ab955ebfe formula=FASnCl0.75I0.253 config_index=0 rattle_stdev=0.0 method=PBE fidelity=phase2_force energy=-132.4357415740589 stress="-8.136601001112398e-05 0.0001218957488382341 0.00013885117119849129 0.0001218957488382341 0.0002970926707569735 0.00014280668983580674 0.00013885117119849129 0.00014280668983580674 -0.0005119620936469685" pbc="T T T"
Cs      11.57735914       0.06927567       0.05944888        0      -0.00184282      -0.04684964      -0.00256471
Sn       2.89969390       2.94747473       3.06090163        1       0.03103243      -0.01256582       0.13168809
I        2.88162820       2.84708102      11.76037391        2      -0.02702264      -0.03403006       0.05475039
Cl       3.11918304      11.31455399       2.80106101        3      -0.00570041       0.21714680       0.01406817
Cl       0.28260822       3.01530373       3.05806296        4      -0.11858907      -0.05530716       0.01265693
Cs       0.01199288       0.17773034       5.89673880        5       0.03972363      -0.01154062       0.04390750
Sn       2.87746604       2.84657348       8.66850971        6       0.06933713       0.09350776      -0.15662024
Cl       2.91038414       2.93858984       5.84814119        7       0.00427970      -0.00614040      -0.03335848
Cl       2.97540393       0.28863627       8.60912439        8       0.00711880      -0.06007284      -0.02526311
Cl       0.27017965       2.89031929       8.60701899        9      -0.08450768       0.02609644      -0.00592636
Cs      11.63172834       5.66889575       0.03801099       10       0.01542538       0.04566799      -0.01151415
Sn       3.09215700       8.74682445       2.81286465       11       0.09052855      -0.16945816      -0.03258789
Cl       3.24895988       8.73510373       0.02901006       12       0.04034486       0.00546613      -0.02241611
Cl       2.98633614       5.51809814       3.04913641       13       0.05013185       0.01082523      -0.02420728
I       11.71180249       8.68088952       2.95660985       14      -0.04269562       0.00467755      -0.00347139
Cs      11.62520354       5.60853020       5.87128118       15       0.00956381       0.01875109       0.00815444
Sn       3.09592567       8.62336336       9.05316718       16       0.05391130       0.16144686      -0.00338266
I        3.00751576       8.67105580       5.92137764       17       0.03445627      -0.00409860       0.03076397
Cl       3.09445595       6.07758124       9.11463475       18       0.00839364      -0.17902357       0.02336783
I        0.02390645       8.63134306       8.91616842       19       0.02355344      -0.02590597       0.02336392
Cs       5.87752121       0.05287160       0.15219620       20      -0.00650709      -0.06381506       0.03181634
Sn       8.71516395       2.86356006       2.92834237       21      -0.10545895      -0.03700382       0.01272907
Cl       8.70164379       2.93440136       0.31368659       22       0.05069582       0.01851051       0.00761932
Cl       8.66634209       0.23998106       2.97468871       23       0.03408976       0.09796772       0.00007008
Cl       6.09937470       2.91248288       2.99421622       24       0.04479675      -0.00552042       0.02625572
Cs       5.81536984       0.13922529       5.79850364       25      -0.01415137      -0.04364918       0.00505262
Sn       8.68373024       3.02712274       8.78679166       26       0.01243173       0.12227047       0.00582395
Cl       8.76473128       2.96259750       6.19439350       27       0.03115718       0.01557458      -0.11221931
I        8.71840799       0.01275008       8.82257981       28      -0.00611120       0.05425145       0.00634219
Cl       6.10148922       2.99797602       8.73690959       29      -0.04345561       0.03022536       0.01166646
Cs       5.80191072       5.72887846       0.05671237       30      -0.01191450       0.07097554      -0.02054238
Sn       8.58443325       8.63301014       3.10863899       31      -0.09206112       0.13686108       0.02125161
I        8.68403567       8.63236705       0.02948094       32      -0.04607741      -0.02931714       0.02070720
Cl       8.49644557       6.05708647       3.09831674       33       0.01432924      -0.20179925       0.02653700
Cl       5.84378124       8.74252260       2.96424462       34       0.03554528       0.01917059      -0.00540619
Cs       5.85195248       5.65517733       5.85992177       35       0.01874006       0.05278603       0.03068478
Sn       8.57162279       8.52606895       8.65234126       36      -0.02466604      -0.06664941       0.01202164
Cl       8.47503770       8.60383311       5.95584253       37      -0.02399879      -0.00211444      -0.06258171
Cl       8.61835274       5.85489608       8.60188646       38       0.00186817      -0.12290100      -0.03410673
Cl       5.91253591       8.53516653       8.82359419       39      -0.05396881      -0.01861357       0.00179458
40
Lattice="11.728242310566143 0.0 0.0 -0.007512765656081599 11.632534490234999 0.0 -0.007609201232344414 -0.020228671282219276 11.822642985231948" Properties=species:S:1:pos:R:3:spacegroup_kinds:I:1:forces:R:3 spacegroup="P 1" unit_cell=conventional occupancy="_JSON {\"0\": {\"Cs\": 1.0}, \"1\": {\"Sn\": 1.0}, \"2\": {\"I\": 1.0}, \"3\": {\"Cl\": 1.0}, \"4\": {\"Cl\": 1.0}, \"5\": {\"Cs\": 1.0}, \"6\": {\"Sn\": 1.0}, \"7\": {\"Cl\": 1.0}, \"8\": {\"Cl\": 1.0}, \"9\": {\"Cl\": 1.0}, \"10\": {\"Cs\": 1.0}, \"11\": {\"Sn\": 1.0}, \"12\": {\"Cl\": 1.0}, \"13\": {\"Cl\": 1.0}, \"14\": {\"I\": 1.0}, \"15\": {\"Cs\": 1.0}, \"16\": {\"Sn\": 1.0}, \"17\": {\"I\": 1.0}, \"18\": {\"Cl\": 1.0}, \"19\": {\"I\": 1.0}, \"20\": {\"Cs\": 1.0}, \"21\": {\"Sn\": 1.0}, \"22\": {\"Cl\": 1.0}, \"23\": {\"Cl\": 1.0}, \"24\": {\"Cl\": 1.0}, \"25\": {\"Cs\": 1.0}, \"26\": {\"Sn\": 1.0}, \"27\": {\"Cl\": 1.0}, \"28\": {\"I\": 1.0}, \"29\": {\"Cl\": 1.0}, \"30\": {\"Cs\": 1.0}, \"31\": {\"Sn\": 1.0}, \"32\": {\"I\": 1.0}, \"33\": {\"Cl\": 1.0}, \"34\": {\"Cl\": 1.0}, \"35\": {\"Cs\": 1.0}, \"36\": {\"Sn\": 1.0}, \"37\": {\"Cl\": 1.0}, \"38\": {\"Cl\": 1.0}, \"39\": {\"Cl\": 1.0}}" candidate_id=0dbe866ab955ebfe formula=FASnCl0.75I0.253 config_index=1 rattle_stdev=0.08 method=PBE fidelity=phase2_force energy=-131.62957271448644 stress="-0.001360549163459891 9.809034538494993e-05 8.853576881507365e-05 9.809034538494993e-05 -0.0023439543129562057 -1.9849087678125108e-05 8.853576881507365e-05 -1.9849087678125108e-05 -0.004695071130980803" pbc="T T T"
Cs      11.49044343      -0.00240954       0.03494493        0       0.00785255       0.03594517       0.05175532
Sn       2.79249921       2.85094789       3.00956349        1       0.13577189       0.36026448       0.35034786
I        2.98626385       2.99471785      11.82670311        2      -0.20127011      -0.20834104       0.01817859
Cl       3.11731913      11.29786888       2.72773143        3      -0.07696415       0.47160021      -0.01265937
Cl       0.19662881       3.00841225       3.15213005        4      -0.03089966      -0.11554909      -0.06462135
Cs      -0.11881445       0.27598586       5.98284970        5       0.09830221       0.02192585      -0.04196175
Sn       2.90904787       2.81555742       8.71558185        6      -0.00497028       0.96519627      -0.38635614
Cl       2.79572024       2.91270387       5.94837996        7       0.09919048       0.00660093      -0.12384510
Cl       2.91694452       0.40291508       8.68469670        8       0.03874170      -1.11271866      -0.01585235
Cl       0.24905943       2.87726223       8.52989041        9      -0.11839460       0.05485757       0.11139313
Cs      11.60431656       5.67280807      -0.00195957       10       0.01124159       0.01127023       0.01456254
Sn       2.91520464       8.77161140       2.68569254       11       1.04818904      -0.48045543      -0.15190040
Cl       3.30731625       8.72647163      -0.02300366       12      -0.06126801       0.06617405       0.02112384
Cl       2.85089162       5.48862022       2.92190667       13       0.05149598      -0.20746494       0.07492326
I       11.83024296       8.71884473       3.02971896       14      -1.00736071       0.04307635       0.01719916
Cs      11.70204116       5.61529360       6.00865966       15       0.04723261      -0.03308154      -0.02832027
Sn       3.16407709       8.56297254       8.87015683       16       0.33784096       0.20543795       0.40275400
I        3.01625486       8.63504315       5.88833984       17       0.02473063      -0.03033239      -0.11245262
Cl       3.11997465       6.03429260       9.19052807       18      -0.01335763      -0.03314494      -0.13130142
I        0.03602126       8.63749526       8.91141639       19       0.25401428      -0.00903149      -0.00544723
Cs       5.87191011       0.00757967       0.17707663       20      -0.00345206      -0.05355543       0.05324247
Sn       8.77310065       2.90487606       3.01042482       21      -0.23820617      -0.18471403      -0.19963692
Cl       8.74325600       2.86481428       0.43373180       22       0.16882578       0.11173968      -0.25368081
Cl       8.75965986       0.27933422       2.91610773       23       0.04546654       0.03179072       0.16249707
Cl       6.15379919       2.95320263       2.92721332       24      -0.11134556      -0.03227448       0.13804077
Cs       5.86718143       0.14022845       5.92327077       25      -0.05939326      -0.04082634      -0.05608540
Sn       8.76649787       3.05413815       8.68258282       26      -0.22334356       0.55983594       0.39427719
Cl       8.67524774       3.06735871       6.15293614       27       0.06389310      -0.11539213      -0.24456604
I        8.68695805       0.09618756       8.82855702       28       0.01600130      -0.21718775      -0.01927958
Cl       6.10864419       3.00228861       8.77038535       29       0.08909803       0.01525514      -0.02877737
Cs       5.70369232       5.64171513       0.08208232       30       0.10971960       0.18354130      -0.00143240
Sn       8.52200080       8.56451965       3.00304927       31      -0.22840033       0.55780216       0.31864363
I        8.72033821       8.71250903       0.14257971       32      -0.04354093      -0.02469871      -0.49566242
Cl       8.48123094       6.05949532       2.94844340       33       0.01103970      -0.47940959       0.03540181
Cl       5.83443908       8.73232337       3.03641936       34       0.35574945      -0.01239834      -0.02191862
Cs       5.74680271       5.64721327       5.87116576       35       0.03146964       0.02321472       0.02726578
Sn       8.78192727       8.66653126       8.44148944       36      -0.55077937      -0.51889785       1.56531120
Cl       8.37210614       8.59009533       6.09987882       37      -0.07963094       0.05881965      -1.42755877
Cl       8.66704840       5.85741813       8.48457348       38       0.08631053       0.10075740      -0.00216439
Cl       5.93729117       8.62654396       8.78272666       39      -0.09582018       0.01084749       0.01158822
40
Lattice="11.728242310566143 0.0 0.0 -0.007512765656081599 11.632534490234999 0.0 -0.007609201232344414 -0.020228671282219276 11.822642985231948" Properties=species:S:1:pos:R:3:spacegroup_kinds:I:1:forces:R:3 spacegroup="P 1" unit_cell=conventional occupancy="_JSON {\"0\": {\"Cs\": 1.0}, \"1\": {\"Sn\": 1.0}, \"2\": {\"I\": 1.0}, \"3\": {\"Cl\": 1.0}, \"4\": {\"Cl\": 1.0}, \"5\": {\"Cs\": 1.0}, \"6\": {\"Sn\": 1.0}, \"7\": {\"Cl\": 1.0}, \"8\": {\"Cl\": 1.0}, \"9\": {\"Cl\": 1.0}, \"10\": {\"Cs\": 1.0}, \"11\": {\"Sn\": 1.0}, \"12\": {\"Cl\": 1.0}, \"13\": {\"Cl\": 1.0}, \"14\": {\"I\": 1.0}, \"15\": {\"Cs\": 1.0}, \"16\": {\"Sn\": 1.0}, \"17\": {\"I\": 1.0}, \"18\": {\"Cl\": 1.0}, \"19\": {\"I\": 1.0}, \"20\": {\"Cs\": 1.0}, \"21\": {\"Sn\": 1.0}, \"22\": {\"Cl\": 1.0}, \"23\": {\"Cl\": 1.0}, \"24\": {\"Cl\": 1.0}, \"25\": {\"Cs\": 1.0}, \"26\": {\"Sn\": 1.0}, \"27\": {\"Cl\": 1.0}, \"28\": {\"I\": 1.0}, \"29\": {\"Cl\": 1.0}, \"30\": {\"Cs\": 1.0}, \"31\": {\"Sn\": 1.0}, \"32\": {\"I\": 1.0}, \"33\": {\"Cl\": 1.0}, \"34\": {\"Cl\": 1.0}, \"35\": {\"Cs\": 1.0}, \"36\": {\"Sn\": 1.0}, \"37\": {\"Cl\": 1.0}, \"38\": {\"Cl\": 1.0}, \"39\": {\"Cl\": 1.0}}" candidate_id=0dbe866ab955ebfe formula=FASnCl0.75I0.253 config_index=2 rattle_stdev=0.08 method=PBE fidelity=phase2_force energy=-131.58187165746938 stress="-0.0033206338118482322 6.789208566637001e-05 0.00067530701471956 6.789208566637001e-05 0.0002920600452907394 -0.00012879651436565484 0.00067530701471956 -0.00012879651436565484 -0.0010440293426517873" pbc="T T T"
Cs      11.56834210      -0.01684945       0.20225104        0       0.07265726      -0.04039556      -0.11598814
Sn       2.78313524       2.92136907       2.96010992        1       1.99979544      -0.19054244       0.39172011
I        2.91169752       2.77682923      11.73237585        2      -0.12468331       0.02765315      -0.05141844
Cl       3.14291585      11.41062695       2.67554140        3      -0.12855642      -0.20715998       0.05894553
Cl       0.43093052       3.05482067       3.04760605        4      -2.05229838       0.04604691      -0.01052951
Cs      -0.02025678       0.09983736       5.85934145        5       0.06804051      -0.02376178       0.15313685
Sn       2.82003232       2.94428495       8.60633371        6       0.54981371      -0.33648298      -0.19190675
Cl       2.86330209       2.93398034       5.85450758        7       0.01696009      -0.09311172       0.03237819
Cl       2.88074785       0.16473688       8.68210488        8       0.03452366       0.30553947      -0.05931352
Cl       0.30319331       2.83465777       8.42391724        9      -0.53848189       0.11005212       0.05906586
Cs      11.56874902       5.58661441       0.04547563       10       0.05898744       0.06116227      -0.04579663
Sn       3.04982147       8.80924404       2.79679947       11       0.37740499      -0.08648666       0.08392114
Cl       3.21051120       8.65228276      -0.01120869       12       0.03844463       0.01263323       0.31703024
Cl       3.04952736       5.44409833       3.22593924       13      -0.02178404       0.39751413      -0.16971784
I       11.59978360       8.66176172       2.97399711       14       0.64605923      -0.01405249       0.03507479
Cs      11.59701271       5.61540024       5.87981334       15       0.01337861       0.03238663       0.03051787
Sn       3.08016317       8.73111807       9.08078110       16       0.02579561      -0.21015399      -0.16285589
I        3.05212732       8.62343298       5.98000421       17      -0.02258836       0.06407920      -0.34480511
Cl       3.20095617       6.01917860       9.07577429       18      -0.02927296       0.03595040       0.02617217
I        0.11005959       8.42371447       8.92952268       19      -0.10360134       0.01435006       0.06403231
Cs       5.96063798      -0.09181431       0.21288748       20      -0.09819531       0.01918107      -0.01352881
Sn       8.67515492       2.67601661       2.91970895       21      -0.30806555       0.91887428       0.02330610
Cl       8.58142078       2.97350365       0.26943231       22       0.14053942      -0.07483679       0.05783377
Cl       8.75094269       0.17043563       2.96868142       23      -0.06177594      -0.32208536      -0.06736507
Cl       6.09080231       3.08038864       2.96697318       24       0.34934881      -0.32127503       0.03188404
Cs       5.77313743       0.03565595       5.81563156       25      -0.01528157      -0.02401236       0.05545719
Sn       8.77383181       3.05924560       8.84803848       26      -0.63490820      -0.11078530      -0.43632895
Cl       8.65648108       3.00850618       6.17678253       27       0.20233009      -0.09329580       0.11463063
I        8.77002311      -0.06762746       8.97455889       28       0.03820657       0.75876105      -0.02703566
Cl       6.11883809       3.03797365       8.68678231       29       0.34355342      -0.00911236       0.15473201
Cs       5.72167998       5.66637364       0.07305459       30      -0.02092859       0.02579253      -0.02962760
Sn       8.62732061       8.54701034       2.93121061       31      -0.64543437       0.21017067       0.74064481
I        8.73579009       8.60658018       0.01567580       32      -0.04548723      -0.13354495      -0.09516692
Cl       8.31337182       6.04812297       3.17474184       33       0.14256164      -0.32041632      -0.10862063
Cl       5.88016029       8.90747679       2.96924146       34      -0.35874551       0.07060784      -0.10102805
Cs       5.85217988       5.61889302       5.88980037       35      -0.00435242       0.03010753       0.04601677
Sn       8.50657351       8.51794435       8.68799832       36       0.34272393       0.04225368      -0.50184989
Cl       8.37302741       8.61245965       6.02402148       37       0.05242526       0.11118593      -0.08381071
Cl       8.60580458       5.95000162       8.48410539       38       0.07091746      -0.73078279       0.03320813
Cl       5.98181917       8.46369537       8.77967654       39      -0.38349740       0.04168232       0.10250582
