Cs Pb Br Cs Pb Br Cs Pb Cl Br Cs Pb Br Cs Pb Br Cl Cs Pb Br Cs Pb Br Cl Br Cs Pb Br
 1.0000000000000000
    12.5249824151573161    0.0000000000000000    0.0000000000000000
     0.0000000000000000   12.5249824151573161    0.0000000000000000
     0.0000000000000000    0.0000000000000000   12.5249824151573161
 Cs  Pb  Br  Cs  Pb  Br  Cs  Pb  Cl  Br  Cs  Pb  Br  Cs  Pb  Br  Cl  Cs  Pb  Br  Cs  Pb  Br  Cl  Br  Cs  Pb  Br 
   1   1   3   1   1   3   1   1   1   2   1   1   3   1   1   2   1   1   1   3   1   1   1   1   1   1   1   3
Cartesian
  0.0000000000000000  0.0000000000000000  0.0000000000000000
  3.1312456037893290  3.1312456037893290  3.1312456037893290
  3.1312456037893290  3.1312456037893290  0.0000000000000000
  3.1312456037893290  0.0000000000000000  3.1312456037893290
  0.0000000000000000  3.1312456037893290  3.1312456037893290
  0.0000000000000000  0.0000000000000000  6.2624912075786572
  3.1312456037893290  3.1312456037893290  9.3937368113679849
  3.1312456037893290  3.1312456037893290  6.2624912075786572
  3.1312456037893290  0.0000000000000000  9.3937368113679849
  0.0000000000000000  3.1312456037893290  9.3937368113679849
  0.0000000000000000  6.2624912075786572  0.0000000000000000
  3.1312456037893290  9.3937368113679849  3.1312456037893290
  3.1312456037893290  9.3937368113679849  0.0000000000000000
  3.1312456037893290  6.2624912075786572  3.1312456037893290
  0.0000000000000000  9.3937368113679849  3.1312456037893290
  0.0000000000000000  6.2624912075786572  6.2624912075786572
  3.1312456037893290  9.3937368113679849  9.3937368113679849
  3.1312456037893290  9.3937368113679849  6.2624912075786572
  3.1312456037893290  6.2624912075786572  9.3937368113679849
  0.0000000000000000  9.3937368113679849  9.3937368113679849
  6.2624912075786572  0.0000000000000000  0.0000000000000000
  9.3937368113679849  3.1312456037893290  3.1312456037893290
  9.3937368113679849  3.1312456037893290  0.0000000000000000
  9.3937368113679849  0.0000000000000000  3.1312456037893290
  6.2624912075786572  3.1312456037893290  3.1312456037893290
  6.2624912075786572  0.0000000000000000  6.2624912075786572
  9.3937368113679849  3.1312456037893290  9.3937368113679849
  9.3937368113679849  3.1312456037893290  6.2624912075786572
  9.3937368113679849  0.0000000000000000  9.3937368113679849
  6.2624912075786572  3.1312456037893290  9.3937368113679849
  6.2624912075786572  6.2624912075786572  0.0000000000000000
  9.3937368113679849  9.3937368113679849  3.1312456037893290
  9.3937368113679849  9.3937368113679849  0.0000000000000000
  9.3937368113679849  6.2624912075786572  3.1312456037893290
  6.2624912075786572  9.3937368113679849  3.1312456037893290
  6.2624912075786572  6.2624912075786572  6.2624912075786572
  9.3937368113679849  9.3937368113679849  9.3937368113679849
  9.3937368113679849  9.3937368113679849  6.2624912075786572
  9.3937368113679849  6.2624912075786572  9.3937368113679849
  6.2624912075786572  9.3937368113679849  9.3937368113679849
