Cs Sn I  Cs Sn I  Cs Sn I  Cs Ge I  Cs Sn I  Cs Sn I  Cs Ge I  Cs Sn I 
 1.0000000000000000
    13.1082040882799795    0.0000000000000000    0.0000000000000000
     0.0000000000000000   13.1082040882799795    0.0000000000000000
     0.0000000000000000    0.0000000000000000   13.1082040882799795
 Cs  Sn  I   Cs  Sn  I   Cs  Sn  I   Cs  Ge  I   Cs  Sn  I   Cs  Sn  I   Cs  Ge  I   Cs  Sn  I  
   1   1   3   1   1   3   1   1   3   1   1   3   1   1   3   1   1   3   1   1   3   1   1   3
Cartesian
  0.0000000000000000  0.0000000000000000  0.0000000000000000
  3.2770510220699940  3.2770510220699940  3.2770510220699940
  3.2770510220699940  3.2770510220699940  0.0000000000000000
  3.2770510220699940  0.0000000000000000  3.2770510220699940
  0.0000000000000000  3.2770510220699940  3.2770510220699940
  0.0000000000000000  0.0000000000000000  6.5541020441399889
  3.2770510220699940  3.2770510220699940  9.8311530662099855
  3.2770510220699940  3.2770510220699940  6.5541020441399889
  3.2770510220699940  0.0000000000000000  9.8311530662099855
  0.0000000000000000  3.2770510220699940  9.8311530662099855
  0.0000000000000000  6.5541020441399889  0.0000000000000000
  3.2770510220699940  9.8311530662099855  3.2770510220699940
  3.2770510220699940  9.8311530662099855  0.0000000000000000
  3.2770510220699940  6.5541020441399889  3.2770510220699940
  0.0000000000000000  9.8311530662099855  3.2770510220699940
  0.0000000000000000  6.5541020441399889  6.5541020441399889
  3.2770510220699940  9.8311530662099855  9.8311530662099855
  3.2770510220699940  9.8311530662099855  6.5541020441399889
  3.2770510220699940  6.5541020441399889  9.8311530662099855
  0.0000000000000000  9.8311530662099855  9.8311530662099855
  6.5541020441399889  0.0000000000000000  0.0000000000000000
  9.8311530662099855  3.2770510220699940  3.2770510220699940
  9.8311530662099855  3.2770510220699940  0.0000000000000000
  9.8311530662099855  0.0000000000000000  3.2770510220699940
  6.5541020441399889  3.2770510220699940  3.2770510220699940
  6.5541020441399889  0.0000000000000000  6.5541020441399889
  9.8311530662099855  3.2770510220699940  9.8311530662099855
  9.8311530662099855  3.2770510220699940  6.5541020441399889
  9.8311530662099855  0.0000000000000000  9.8311530662099855
  6.5541020441399889  3.2770510220699940  9.8311530662099855
  6.5541020441399889  6.5541020441399889  0.0000000000000000
  9.8311530662099855  9.8311530662099855  3.2770510220699940
  9.8311530662099855  9.8311530662099855  0.0000000000000000
  9.8311530662099855  6.5541020441399889  3.2770510220699940
  6.5541020441399889  9.8311530662099855  3.2770510220699940
  6.5541020441399889  6.5541020441399889  6.5541020441399889
  9.8311530662099855  9.8311530662099855  9.8311530662099855
  9.8311530662099855  9.8311530662099855  6.5541020441399889
  9.8311530662099855  6.5541020441399889  9.8311530662099855
  6.5541020441399889  9.8311530662099855  9.8311530662099855
