Cs Pb I  Cs Pb I  Cs Pb I  Cs Sn I  Cs Sn I  Cs Pb I  Cs Sn I  Cs Pb I 
 1.0000000000000000
    13.5457617644782164    0.0000000000000000    0.0000000000000000
     0.0000000000000000   13.5457617644782164    0.0000000000000000
     0.0000000000000000    0.0000000000000000   13.5457617644782164
 Cs  Pb  I   Cs  Pb  I   Cs  Pb  I   Cs  Sn  I   Cs  Sn  I   Cs  Pb  I   Cs  Sn  I   Cs  Pb  I  
   1   1   3   1   1   3   1   1   3   1   1   3   1   1   3   1   1   3   1   1   3   1   1   3
Cartesian
  0.0000000000000000  0.0000000000000000  0.0000000000000000
  3.3864404411195541  3.3864404411195541  3.3864404411195541
  3.3864404411195541  3.3864404411195541  0.0000000000000000
  3.3864404411195541  0.0000000000000000  3.3864404411195541
  0.0000000000000000  3.3864404411195541  3.3864404411195541
  0.0000000000000000  0.0000000000000000  6.7728808822391073
  3.3864404411195541  3.3864404411195541 10.1593213233586646
  3.3864404411195541  3.3864404411195541  6.7728808822391073
  3.3864404411195541  0.0000000000000000 10.1593213233586646
  0.0000000000000000  3.3864404411195541 10.1593213233586646
  0.0000000000000000  6.7728808822391073  0.0000000000000000
  3.3864404411195541 10.1593213233586646  3.3864404411195541
  3.3864404411195541 10.1593213233586646  0.0000000000000000
  3.3864404411195541  6.7728808822391073  3.3864404411195541
  0.0000000000000000 10.1593213233586646  3.3864404411195541
  0.0000000000000000  6.7728808822391073  6.7728808822391073
  3.3864404411195541 10.1593213233586646 10.1593213233586646
  3.3864404411195541 10.1593213233586646  6.7728808822391073
  3.3864404411195541  6.7728808822391073 10.1593213233586646
  0.0000000000000000 10.1593213233586646 10.1593213233586646
  6.7728808822391073  0.0000000000000000  0.0000000000000000
 10.1593213233586646  3.3864404411195541  3.3864404411195541
 10.1593213233586646  3.3864404411195541  0.0000000000000000
 10.1593213233586646  0.0000000000000000  3.3864404411195541
  6.7728808822391073  3.3864404411195541  3.3864404411195541
  6.7728808822391073  0.0000000000000000  6.7728808822391073
 10.1593213233586646  3.3864404411195541 10.1593213233586646
 10.1593213233586646  3.3864404411195541  6.7728808822391073
 10.1593213233586646  0.0000000000000000 10.1593213233586646
  6.7728808822391073  3.3864404411195541 10.1593213233586646
  6.7728808822391073  6.7728808822391073  0.0000000000000000
 10.1593213233586646 10.1593213233586646  3.3864404411195541
 10.1593213233586646 10.1593213233586646  0.0000000000000000
 10.1593213233586646  6.7728808822391073  3.3864404411195541
  6.7728808822391073 10.1593213233586646  3.3864404411195541
  6.7728808822391073  6.7728808822391073  6.7728808822391073
 10.1593213233586646 10.1593213233586646 10.1593213233586646
 10.1593213233586646 10.1593213233586646  6.7728808822391073
 10.1593213233586646  6.7728808822391073 10.1593213233586646
  6.7728808822391073 10.1593213233586646 10.1593213233586646
