40
Lattice="12.551566884212802 0.0 0.0 0.0 12.555371765929687 0.0 0.0 -7.592461319533596e-15 12.5515668842127" Properties=species:S:1:pos:R:3:spacegroup_kinds:I:1:forces:R:3 spacegroup="P 1" unit_cell=conventional candidate_id=5dfb0f2f5024fed9 formula=MAGe0.23Pb0.77I3 config_index=0 rattle_stdev=0.0 method=PBE fidelity=phase2_force energy=-112.6061435654076 stress="-0.0013297584975083938 0.0 1.1122700898547506e-10 0.0 -0.0014359032898209924 -8.68580017708345e-19 1.1122700898547506e-10 -8.68580017708345e-19 -0.001329758497508415" pbc="T T T"
Cs      12.55156688      12.47911164       0.00000000        0       0.00000000      -0.01198733       0.00000000
Pb       3.13789172       3.13884294       3.13789172        1       0.00023900       0.00020027       0.00023900
I        3.13789172       3.13884294      12.54493750        2      -0.00000746      -0.00000628       0.01504050
I        3.13789172      12.52852401       3.13789172        3      -0.00000651       0.08075136      -0.00000651
I       12.54493750       3.13884294       3.13789172        4       0.01504050      -0.00000628      -0.00000746
Cs       0.00000000      12.47911164       6.27578344        5       0.00000000      -0.01198538       0.00000000
Pb       3.13789172       3.13884294       9.41367516        6       0.00026381      -0.00002430      -0.00026381
I        3.13789172       3.13884294       6.28241282        7      -0.00000557      -0.00000547      -0.01504755
I        3.13789172      12.37939790       9.41367516        8      -0.00000791       0.29217753       0.00000791
I        0.00662938       3.13884294       9.41367516        9      -0.01504050      -0.00000628       0.00000746
Cs       0.00000000       6.35394601       0.00000000       10       0.00000000       0.01197952       0.00000000
Pb       3.13789172       9.41652882       3.13789172       11       0.00001513      -0.00030498       0.00001513
I        3.13789172       9.41652882      12.39802536       12      -0.00000723       0.00000830       0.25437198
I        3.13789172       6.30453364       3.13789172       13      -0.00000564      -0.08077930      -0.00000564
I       12.39802536       9.41652882       3.13789172       14       0.25437198       0.00000830      -0.00000723
Cs       0.00000000       6.35394601       6.27578344       15       0.00000000       0.01197735       0.00000000
Ge       3.13789172       9.41652882       9.41367516       16      -0.00002518       0.00003242       0.00002518
I        3.13789172       9.41652882       6.42932497       17      -0.00000577       0.00000725      -0.25440844
I        3.13789172       6.45365975       9.41367516       18      -0.00000700      -0.29222715       0.00000700
I        0.15354153       9.41652882       9.41367516       19      -0.25437198       0.00000830       0.00000723
Cs       6.27578344      12.47911164       0.00000000       20      -0.00000000      -0.01198538      -0.00000000
Pb       9.41367516       3.13884294       3.13789172       21      -0.00026381      -0.00002430       0.00026381
I        9.41367516       3.13884294       0.00662938       22       0.00000746      -0.00000628      -0.01504050
I        9.41367516      12.37939790       3.13789172       23       0.00000791       0.29217753      -0.00000791
I        6.28241282       3.13884294       3.13789172       24      -0.01504755      -0.00000547      -0.00000557
Cs       6.27578344      12.47911164       6.27578344       25      -0.00000000      -0.01198308       0.00000000
Pb       9.41367516       3.13884294       9.41367516       26      -0.00023900       0.00020027      -0.00023900
I        9.41367516       3.13884294       6.26915406       27       0.00000557      -0.00000547       0.01504755
I        9.41367516      12.52852401       9.41367516       28       0.00000651       0.08075136       0.00000651
I        6.26915406       3.13884294       9.41367516       29       0.01504755      -0.00000547       0.00000557
Cs       6.27578344       6.35394601       0.00000000       30       0.00000000       0.01197735      -0.00000000
Ge       9.41367516       9.41652882       3.13789172       31       0.00002518       0.00003242      -0.00002518
I        9.41367516       9.41652882       0.15354153       32       0.00000723       0.00000830      -0.25437198
I        9.41367516       6.45365975       3.13789172       33       0.00000700      -0.29222715      -0.00000700
I        6.42932497       9.41652882       3.13789172       34      -0.25440844       0.00000725      -0.00000577
Cs       6.27578344       6.35394601       6.27578344       35       0.00000000       0.01197524       0.00000000
Pb       9.41367516       9.41652882       9.41367516       36      -0.00001513      -0.00030498      -0.00001513
I        9.41367516       9.41652882       6.12224191       37       0.00000577       0.00000725       0.25440844
I        9.41367516       6.30453364       9.41367516       38       0.00000564      -0.08077930       0.00000564
I        6.12224191       9.41652882       9.41367516       39       0.25440844       0.00000725       0.00000577
40
Lattice="12.551566884212802 0.0 0.0 0.0 12.555371765929687 0.0 0.0 -7.592461319533596e-15 12.5515668842127" Properties=species:S:1:pos:R:3:spacegroup_kinds:I:1:forces:R:3 spacegroup="P 1" unit_cell=conventional candidate_id=5dfb0f2f5024fed9 formula=MAGe0.23Pb0.77I3 config_index=1 rattle_stdev=0.08 method=PBE fidelity=phase2_force energy=-112.3099820594348 stress="-0.002742135533833793 6.93921514194891e-05 -4.744461469848382e-06 6.93921514194891e-05 -0.002009236709843653 -7.76322867323563e-05 -4.744461469848382e-06 -7.76322867323563e-05 -0.003356269492312846" pbc="T T T"
Cs      12.46465117      12.40742643      -0.02450395        0      -0.00647855       0.01991134       0.03160360
Pb       3.03069703       3.04231609       3.08655358        1       0.30435135       0.28088969       0.31039987
I        3.24252737       3.28647978      12.61126670        2      -0.04855844      -0.00891053      -0.09289143
I        3.13602782      12.51183890       3.06456214        3       0.03847844       0.10172760       0.00717715
I       12.45895810       3.13195146       3.23195880        4       0.60317436      -0.00748850       0.02089054
Cs      -0.13080734      12.57736716       6.36189434        5       0.04169471       0.00812440      -0.04666658
Pb       3.16947355       3.10782688       9.46074730        6       0.04565103      -0.12606047      -0.09115272
I        3.02322782       3.11295697       6.38265160        7       0.03665571       0.02732960      -0.29027964
I        3.07943231      12.49367670       9.48924747        8      -0.00618810      -0.01128220      -0.01330301
I       -0.01449084       3.12578588       9.33654658        9       0.14708809       0.00764825       0.03263780
Cs      -0.02741179       6.35785833      -0.03997056       10      -0.00359796      -0.00798828       0.01855777
Pb       2.96093936       9.44131577       3.01071962       11       0.31262118      -0.31812384      -0.19158359
I        3.19624809       9.40789672      12.34601164       12      -0.04241376       0.02401735       0.35967803
I        3.00244720       6.27505571       3.01066198       13       0.01852166      -0.04067293       0.07102951
I       12.51646582       9.45448404       3.21100083       14      -0.20597945      -0.00059879       0.04275136
Cs       0.07683762       6.36070941       6.41316192       15       0.01189962      -0.01662205      -0.02668324
Ge       3.20604314       9.35613800       9.23066482       16       0.26175115       0.03579930       0.20602898
I        3.14663082       9.38051618       6.39628717       17       0.00744673      -0.00098152      -0.21263233
I        3.16341042       6.41037112       9.48956848       18      -0.01092251       0.07549245      -0.07025303
I        0.16565633       9.42268102       9.40892313       19      -0.14677105       0.01961857       0.00082115
Cs       6.27017235      12.43381972       0.02488043       20       0.01152149       0.01496120       0.02350991
Pb       9.47161187       3.18015894       3.21997418       21      -0.49296162      -0.18947744      -0.51587137
I        9.45528737       3.06925586       0.12667459       22       0.03616884       0.01219158      -0.51654271
I        9.50699294      12.41875105       3.07931074       23      -0.01513288       0.19056533       0.12190262
I        6.33683731       3.17956269       3.07088882       24      -0.40855354      -0.00348019       0.04861566
Cs       6.32759503      12.48011480       6.40055057       25      -0.03063050       0.00157596      -0.03464192
Pb       9.49644279       3.16585835       9.30946633       26      -0.22279159       0.26828474       0.40649967
I        9.32419162       3.24360415       6.22769670       27      -0.04584422      -0.01902847       0.49423272
I        9.38222522      12.61196149       9.41965238       28      -0.01324635      -0.08985308       0.00882256
I        6.27630903       3.14315553       9.44715092       29       0.03958564       0.00269130      -0.00357477
Cs       6.17756504       6.26678268       0.02536995       30       0.01667222       0.00284699       0.02324694
Ge       9.35124272       9.34803834       3.03230201       31      -0.22001748       0.19458158       0.01582390
I        9.44997770       9.49667081       0.26664030       32      -0.00910896      -0.03157522      -0.35052409
I        9.39846053       6.45606860       2.98801838       33       0.03832224      -0.16908913       0.04143673
I        6.41998281       9.40632960       3.21006646       34       0.07932896       0.00438779      -0.00990494
Cs       6.17063367       6.34598195       6.28702743       35       0.00678700      -0.00439185      -0.01135136
Pb       9.62397964       9.55699113       9.20282334       36      -0.21119175      -0.40464729       0.32660025
I        9.31074360       9.40279105       6.26627821       37       0.05804014       0.04190733      -0.19861587
I        9.46237081       6.30705568       9.29636219       38      -0.00584972       0.13889427       0.07106366
I        6.14699717       9.50790625       9.37280763       39       0.03057785      -0.02213853      -0.00198437
40
Lattice="12.551566884212802 0.0 0.0 0.0 12.555371765929687 0.0 0.0 -7.592461319533596e-15 12.5515668842127" Properties=species:S:1:pos:R:3:spacegroup_kinds:I:1:forces:R:3 spacegroup="P 1" unit_cell=conventional candidate_id=5dfb0f2f5024fed9 formula=MAGe0.23Pb0.77I3 config_index=2 rattle_stdev=0.08 method=PBE fidelity=phase2_force energy=-112.08890768244954 stress="-0.0027149982122809378 0.00010936681312386353 1.2177298911891542e-06 0.00010936681312386353 -0.0029447218394265916 -7.86163830015123e-05 1.2177298911891542e-06 -7.86163830015123e-05 -0.002249171877757189" pbc="T T T"
Cs      12.54254984      12.39298652       0.14280215        0       0.01367116      -0.01547607      -0.05714823
Pb       3.02133306       3.11273728       3.03710000        1       0.83149365       0.27296079       0.16042756
I        3.16796104       3.06859115      12.51693944        2      -0.02725623       0.01473200      -0.06095018
I        3.16162454      12.62459697       3.01237210        3       0.00406834      -0.56661324       0.03525945
I       12.69325980       3.17835989       3.12743481        4      -1.14253977       0.03630637      -0.01074081
Cs      -0.03224966      12.40121866       6.23838610        5      -0.02045508      -0.02626525       0.04918928
Pb       3.08045800       3.23655441       9.35149916        6       0.44741165       0.23441316       0.04682747
I        3.09080967       3.13423343       6.28877921        7       0.02794745      -0.09735004      -0.17421167
I        3.04323564      12.25549850       9.48665566        8       0.01050898       0.61609367      -0.00793948
I        0.03964304       3.08318142       9.23057341        9      -0.21385526      -0.01546679       0.01823708
Cs      -0.06297932       6.27166467       0.00746465       10       0.03334578       0.03155020      -0.02293418
Pb       3.09555619       9.47894841       3.12182655       11       0.19108524      -0.25511192       0.02041270
I        3.09944303       9.33370785      12.35780661       12       0.02961650      -0.03512262       0.61320038
I        3.20108294       6.23053383       3.31469455       13      -0.01634997       0.48085026      -0.04050647
I       12.28600646       9.39740103       3.15527898       14       0.71228254      -0.04715598       0.02665866
Cs      -0.02819082       6.36081605       6.28431560       15       0.00478164       0.02092921       0.01836234
Ge       3.12212922       9.52428353       9.44128908       16      -0.11937781      -0.30310356      -0.09468850
I        3.18250327       9.36890601       6.48795154       17      -0.02616325       0.07292519      -0.55535210
I        3.24439194       6.39525712       9.37481470       18      -0.02028312      -0.48498946       0.03342295
I        0.23969466       9.20890023       9.42702942       19      -0.28860063       0.02639093      -0.01041605
Cs       6.35890021      12.33442573       0.06069128       20      -0.02404562       0.02408345      -0.02985056
Pb       9.37366614       2.95129949       3.12925831       21      -0.11599619       0.04393133       0.11891120
I        9.29345215       3.17794523      -0.03762490       22       0.05355340       0.04832461       0.21388626
I        9.49827577      12.30985247       3.13188443       23       0.01193745       0.55783039      -0.01080292
I        6.27384042       3.30674870       3.11064869       24       0.28586980      -0.07668524      -0.00647042
Cs       6.23355103      12.37554230       6.29291136       25       0.02514980      -0.00560479       0.02487727
Pb       9.50377673       3.17096581       9.47492199       26      -0.34995273      -0.06986957      -0.28047741
I        9.30542497       3.18475162       6.25154309       27       0.04042883      -0.04233339      -0.04053758
I        9.46529028      12.44814647       9.56565425       28       0.04383351       0.61326329       0.01728366
I        6.28650293       3.17884057       9.36354788       29       0.07603543      -0.06186477       0.00100904
Cs       6.19555270       6.29144119       0.01634222       30      -0.02336826      -0.01874968      -0.00839301
Ge       9.45656252       9.33052903       2.96046334       31      -0.31873427      -0.21979172       0.36507148
I        9.46542958       9.39074196       0.13973639       32       0.00551586      -0.04681879      -0.17477954
I        9.23060142       6.44469625       3.21431683       33       0.09035445      -0.21381579      -0.07326966
I        6.46570402       9.58148302       3.14288856       34      -0.58228671       0.00281777      -0.04995503
Cs       6.27601084       6.31766170       6.30566204       35      -0.00193354      -0.00108240       0.00345019
Pb       9.34862588       9.40840422       9.44933222       36       0.00696044       0.10975575      -0.39827380
I        9.31166487       9.42515537       6.19042087       37       0.06627686       0.05541266       0.22333738
I        9.40112700       6.39963918       9.29589409       38       0.06176290      -0.72196545       0.03459529
I        6.19152518       9.34505766       9.36975751       39       0.21225331       0.06052226       0.08232660
40
Lattice="12.551566884212802 0.0 0.0 0.0 12.555371765929687 0.0 0.0 -7.592461319533596e-15 12.5515668842127" Properties=species:S:1:pos:R:3:spacegroup_kinds:I:1:forces:R:3 spacegroup="P 1" unit_cell=conventional candidate_id=5dfb0f2f5024fed9 formula=MAGe0.23Pb0.77I3 config_index=3 rattle_stdev=0.08 method=PBE fidelity=phase2_force energy=-111.82563356632151 stress="-0.003058663066854123 0.00022847371948633851 3.8142964779691475e-05 0.00022847371948633851 -0.002785462866094798 -3.256189389322575e-05 3.8142964779691475e-05 -3.256189389322575e-05 -0.0022904159380179577" pbc="T T T"
Cs      12.44588340      12.64045187       0.00380516        0       0.03270206       0.02417634       0.01999937
Pb       3.11887803       3.14557275       3.21465510        1      -0.29372523      -0.28983845      -0.74310105
I        3.08336384       3.18116857      12.48294405        2       0.02637813       0.00933409      -0.05555415
I        3.25028822      12.51054957       3.03342087        3       0.03079781      -0.13864409       0.00154034
I       12.49065469       3.00916828       3.03549384        4       0.13696061       0.03093092       0.02384349
Cs      -0.01794374      12.41106676       6.21532423        5      -0.02987860      -0.00076610      -0.01183787
Pb       3.15894538       2.93442750       9.28005249        6      -0.07347547       0.17452059       0.48759741
I        3.08095291       2.94310089       6.18027804        7      -0.04031786      -0.03542745       0.41442678
I        3.19098153      12.27709118       9.35044239        8      -0.05760874       0.83892399       0.03088938
I       -0.11356029       3.04367974       9.59501038        9       0.53436187       0.02763429      -0.00208254
Cs      -0.03814223       6.42567913      -0.14439506       10       0.02514893      -0.05939816      -0.00363615
Pb       3.09859455       9.32056910       3.07347409       11      -0.05774659       0.37116304      -0.09037687
I        3.25035721       9.39810357      12.34092964       12      -0.06822907      -0.02940608       0.74886285
I        3.12488472       6.25022324       3.25902114       13      -0.00521836       0.13307046       0.03253101
I       12.25821953       9.46921119       3.11036242       14       1.26042464      -0.10717831       0.03638050
Cs      -0.06069585       6.36770811       6.22320016       15      -0.03552536       0.01095491       0.01240367
Ge       3.18210736       9.44713748       9.38397193       16      -0.07583917      -0.55324914      -0.00552225
I        3.26414324       9.43387262       6.52625230       17      -0.02333566       0.00517464      -0.70265555
I        3.19641017       6.50757944       9.36725067       18      -0.01461803      -0.48831819      -0.02284913
I        0.14559436       9.28973963       9.40769785       19      -0.40187877       0.04492848       0.00270744
Cs       6.37168815      12.45787782      -0.05214397       20      -0.03487197       0.00546260       0.00881117
Pb       9.26195224       3.01561902       3.10646586       21       0.44768060       0.12601380       0.06885942
I        9.38051670       3.19572836       0.05803141       22      -0.04903001      -0.01076059      -0.26106818
I        9.60546207      12.36581531       3.05682103       23      -0.12833508       0.14829661       0.04087635
I        6.24692833       3.20652112       3.17744044       24      -0.21440805       0.00243966       0.02768573
Cs       6.29807450      12.52087892       6.30119278       25       0.01553676      -0.04541133       0.00177171
Pb       9.43184607       3.10761570       9.35623376       26      -0.20078513      -0.03170318       0.04417259
I        9.53720406       3.06980733       6.24044786       27       0.01529044       0.00781783       0.11024485
I        9.42037931      12.66286178       9.31932819       28      -0.03444615      -0.97073738       0.05034310
I        6.23725589       3.10497180       9.45842211       29      -0.15806136      -0.01909851      -0.03853185
Cs       6.22960387       6.35964580       0.06937641       30      -0.00218232      -0.02364240      -0.03776337
Ge       9.44686788       9.39843004       3.19833917       31      -0.16486774      -0.18332358       0.15542902
I        9.43168555       9.38134858       0.20586787       32       0.02549412      -0.02478631      -0.34805027
I        9.34198530       6.33970386       3.27729045       33       0.08651821      -0.06153000      -0.00681292
I        6.66287102       9.36263080       3.07620978       34      -1.10590764       0.06286605       0.03061615
Cs       6.36022283       6.44560305       6.28543329       35       0.01468378       0.02438591       0.01962826
Pb       9.41467464       9.36056711       9.56377909       36       0.09402335       0.04440536      -0.15905230
I        9.37762249       9.39203008       6.23526126       37       0.01780298       0.03057374       0.13326167
I        9.36138788       6.12320831       9.46210332       38      -0.01799562       0.93557731      -0.00019445
I        6.08029647       9.43312801       9.50138733       39       0.52092659       0.00637990      -0.01428847
