Rb Sn I  Rb Sn I  Rb Sn I  Rb Ge I  Rb Ge I  Rb Sn I  Rb Ge I  Rb Sn I 
 1.0000000000000000
    12.9253462746651380    0.0000000000000000    0.0000000000000000
     0.0000000000000000   12.9253462746651380    0.0000000000000000
     0.0000000000000000    0.0000000000000000   12.9253462746651380
 Rb  Sn  I   Rb  Sn  I   Rb  Sn  I   Rb  Ge  I   Rb  Ge  I   Rb  Sn  I   Rb  Ge  I   Rb  Sn  I  
   1   1   3   1   1   3   1   1   3   1   1   3   1   1   3   1   1   3   1   1   3   1   1   3
Cartesian
  0.0000000000000000  0.0000000000000000  0.0000000000000000
  3.2313365686662845  3.2313365686662845  3.2313365686662845
  3.2313365686662845  3.2313365686662845  0.0000000000000000
  3.2313365686662845  0.0000000000000000  3.2313365686662845
  0.0000000000000000  3.2313365686662845  3.2313365686662845
  0.0000000000000000  0.0000000000000000  6.4626731373325681
  3.2313365686662845  3.2313365686662845  9.6940097059988535
  3.2313365686662845  3.2313365686662845  6.4626731373325681
  3.2313365686662845  0.0000000000000000  9.6940097059988535
  0.0000000000000000  3.2313365686662845  9.6940097059988535
  0.0000000000000000  6.4626731373325681  0.0000000000000000
  3.2313365686662845  9.6940097059988535  3.2313365686662845
  3.2313365686662845  9.6940097059988535  0.0000000000000000
  3.2313365686662845  6.4626731373325681  3.2313365686662845
  0.0000000000000000  9.6940097059988535  3.2313365686662845
  0.0000000000000000  6.4626731373325681  6.4626731373325681
  3.2313365686662845  9.6940097059988535  9.6940097059988535
  3.2313365686662845  9.6940097059988535  6.4626731373325681
  3.2313365686662845  6.4626731373325681  9.6940097059988535
  0.0000000000000000  9.6940097059988535  9.6940097059988535
  6.4626731373325681  0.0000000000000000  0.0000000000000000
  9.6940097059988535  3.2313365686662845  3.2313365686662845
  9.6940097059988535  3.2313365686662845  0.0000000000000000
  9.6940097059988535  0.0000000000000000  3.2313365686662845
  6.4626731373325681  3.2313365686662845  3.2313365686662845
  6.4626731373325681  0.0000000000000000  6.4626731373325681
  9.6940097059988535  3.2313365686662845  9.6940097059988535
  9.6940097059988535  3.2313365686662845  6.4626731373325681
  9.6940097059988535  0.0000000000000000  9.6940097059988535
  6.4626731373325681  3.2313365686662845  9.6940097059988535
  6.4626731373325681  6.4626731373325681  0.0000000000000000
  9.6940097059988535  9.6940097059988535  3.2313365686662845
  9.6940097059988535  9.6940097059988535  0.0000000000000000
  9.6940097059988535  6.4626731373325681  3.2313365686662845
  6.4626731373325681  9.6940097059988535  3.2313365686662845
  6.4626731373325681  6.4626731373325681  6.4626731373325681
  9.6940097059988535  9.6940097059988535  9.6940097059988535
  9.6940097059988535  9.6940097059988535  6.4626731373325681
  9.6940097059988535  6.4626731373325681  9.6940097059988535
  6.4626731373325681  9.6940097059988535  9.6940097059988535
