40
Lattice="12.517500677527067 0.0 0.0 0.0 12.518473991629445 0.0 0.0 2.300381234908771e-14 12.518473991629268" Properties=species:S:1:pos:R:3:spacegroup_kinds:I:1:forces:R:3 spacegroup="P 1" unit_cell=conventional candidate_id=7b189bc261664738 formula=MA0.24Rb0.76SnI3 config_index=0 rattle_stdev=0.0 method=PBE fidelity=phase2_force energy=-111.04083037734864 stress="0.0003233259479067667 0.0 0.0 0.0 0.00032207993367993287 -5.918506010185134e-19 0.0 -5.918506010185134e-19 0.00032203431170144017" pbc="T T T"
Rb      12.51750068      12.51847399      12.51847399        0       0.00000000       0.00000000       0.00000000
Sn       3.12937517       3.13961670       3.11962030        1       0.00021486      -0.01567325       0.01608862
I        3.12937517       3.15272559      12.51847399        2      -0.00000289      -0.00532071       0.00000000
I        3.12937517       0.00000000       3.07072935        3      -0.00000414       0.00000000       0.00851491
I        0.00000000       3.16785708       3.09137992        4       0.00000000      -0.00775757       0.00775102
Cs       0.00000000       0.00000000       6.25923700        5       0.00000000      -0.00000000       0.00000000
Sn       3.12937517       3.13961670       9.39885370        6       0.00021486      -0.01567325      -0.01608862
I        3.12937517       3.18850765       6.25923700        7       0.00000008      -0.00851363       0.00000000
I        3.12937517       0.00000000       9.44774464        8      -0.00000414      -0.00000000      -0.00851491
I        0.00000000       3.16785708       9.42709408        9       0.00000000      -0.00775757      -0.00775102
Rb      12.51750068       6.25923700      12.51847399       10       0.00000000      -0.00000000       0.00000000
Sn       3.12937517       9.37885729       3.11962030       11       0.00021486       0.01567325       0.01608862
I        3.12937517       9.36574840       0.00000000       12      -0.00000289       0.00532071       0.00000000
I        3.12937517       6.25923700       3.10651141       13       0.00000126       0.00000000       0.00531725
I        0.00000000       9.35061691       3.09137992       14      -0.00000000       0.00775757       0.00775102
Rb      12.51750068       6.25923700       6.25923700       15       0.00000000       0.00000000       0.00000000
Sn       3.12937517       9.37885729       9.39885370       16       0.00021486       0.01567325      -0.01608862
I        3.12937517       9.32996634       6.25923700       17       0.00000008       0.00851363       0.00000000
I        3.12937517       6.25923700       9.41196258       18       0.00000126      -0.00000000      -0.00531725
I        0.00000000       9.35061691       9.42709408       19      -0.00000000       0.00775757      -0.00775102
Rb       6.25875034      12.51847399      12.51847399       20       0.00000000       0.00000000       0.00000000
Sn       9.38812551       3.13961670       3.11962030       21      -0.00021486      -0.01567325       0.01608862
I        9.38812551       3.15272559      12.51847399       22       0.00000289      -0.00532071       0.00000000
I        9.38812551       0.00000000       3.07072935       23       0.00000414       0.00000000       0.00851491
I        6.25875034       3.16785708       3.09137992       24       0.00000000      -0.00775168       0.00775340
Cs       6.25875034       0.00000000       6.25923700       25      -0.00000000       0.00000000       0.00000000
Sn       9.38812551       3.13961670       9.39885370       26      -0.00021486      -0.01567325      -0.01608862
I        9.38812551       3.18850765       6.25923700       27      -0.00000008      -0.00851363       0.00000000
I        9.38812551       0.00000000       9.44774464       28       0.00000414      -0.00000000      -0.00851491
I        6.25875034       3.16785708       9.42709408       29       0.00000000      -0.00775168      -0.00775340
Rb       6.25875034       6.25923700      12.51847399       30       0.00000000       0.00000000       0.00000000
Sn       9.38812551       9.37885729       3.11962030       31      -0.00021486       0.01567325       0.01608862
I        9.38812551       9.36574840      12.51847399       32       0.00000289       0.00532071       0.00000000
I        9.38812551       6.25923700       3.10651141       33      -0.00000126       0.00000000       0.00531725
I        6.25875034       9.35061691       3.09137992       34       0.00000000       0.00775168       0.00775340
Rb       6.25875034       6.25923700       6.25923700       35       0.00000000       0.00000000       0.00000000
Sn       9.38812551       9.37885729       9.39885370       36      -0.00021486       0.01567325      -0.01608862
I        9.38812551       9.32996634       6.25923700       37      -0.00000008       0.00851363       0.00000000
I        9.38812551       6.25923700       9.41196258       38      -0.00000126      -0.00000000      -0.00531725
I        6.25875034       9.35061691       9.42709408       39       0.00000000       0.00775168      -0.00775340
