40
Lattice="12.675207969127868 0.0 0.0 0.0 12.673669779503932 0.0 0.0 1.189690784203371e-13 12.673669779503953" Properties=species:S:1:pos:R:3:spacegroup_kinds:I:1:forces:R:3 spacegroup="P 1" unit_cell=conventional occupancy="_JSON {\"0\": {\"Cs\": 1.0}, \"1\": {\"Pb\": 1.0}, \"2\": {\"I\": 1.0}, \"3\": {\"I\": 1.0}, \"4\": {\"I\": 1.0}, \"5\": {\"Cs\": 1.0}, \"6\": {\"Pb\": 1.0}, \"7\": {\"I\": 1.0}, \"8\": {\"I\": 1.0}, \"9\": {\"I\": 1.0}, \"10\": {\"Cs\": 1.0}, \"11\": {\"Sn\": 1.0}, \"12\": {\"I\": 1.0}, \"13\": {\"I\": 1.0}, \"14\": {\"I\": 1.0}, \"15\": {\"Cs\": 1.0}, \"16\": {\"Sn\": 1.0}, \"17\": {\"I\": 1.0}, \"18\": {\"I\": 1.0}, \"19\": {\"I\": 1.0}, \"20\": {\"Cs\": 1.0}, \"21\": {\"Sn\": 1.0}, \"22\": {\"I\": 1.0}, \"23\": {\"I\": 1.0}, \"24\": {\"I\": 1.0}, \"25\": {\"Cs\": 1.0}, \"26\": {\"Pb\": 1.0}, \"27\": {\"I\": 1.0}, \"28\": {\"I\": 1.0}, \"29\": {\"I\": 1.0}, \"30\": {\"Cs\": 1.0}, \"31\": {\"Sn\": 1.0}, \"32\": {\"I\": 1.0}, \"33\": {\"I\": 1.0}, \"34\": {\"I\": 1.0}, \"35\": {\"Cs\": 1.0}, \"36\": {\"Pb\": 1.0}, \"37\": {\"I\": 1.0}, \"38\": {\"I\": 1.0}, \"39\": {\"I\": 1.0}}" candidate_id=1953399a14430753 formula=MAPb0.56Sn0.44I3 config_index=0 rattle_stdev=0.0 method=PBE fidelity=phase2_force energy=-112.71213751637421 stress="0.0001789383861790196 6.630146986354835e-12 6.630146986354763e-12 6.630146986354835e-12 0.00010877907893616667 5.307346352382715e-11 6.630146986354763e-12 5.307346352382715e-11 0.00010877907893616698" pbc="T T T"
Cs      12.67520797      12.65460838       0.01906140        0       0.00000000      -0.00754318       0.00754318
Pb       3.16880199       3.16841744       3.16841744        1       0.00015630       0.00014005       0.00034312
I        3.16880199       3.16841744       0.01286488        2      -0.00000148      -0.00000157      -0.05032226
I        3.16880199      12.59524278       3.16841744        3      -0.00000295       0.23359651      -0.00000190
I       12.60308287       3.16841744       3.16841744        4       0.23107723      -0.00000276      -0.00000229
Cs      12.67520797      12.65460838       6.31777349        5       0.00000172      -0.00754203      -0.00753557
Pb       3.16880199       3.16841744       9.50525233        6       0.00031601       0.00011889      -0.00028706
I        3.16880199       3.16841744       6.32397001        7      -0.00000067      -0.00000091       0.05034041
I        3.16880199      12.58702249       9.50525233        8      -0.00000218       0.28286509       0.00000217
I       12.67520797       3.16841744       9.50525233        9       0.00000000      -0.00000103       0.00000103
Cs      12.67520797       6.35589629       0.01906140       10      -0.00000172       0.00753557       0.00754203
Sn       3.16880199       9.50525233       3.16841744       11       0.00019742      -0.00019551       0.00020056
I        3.16880199       9.50525233       0.00703884       12      -0.00000279       0.00000304      -0.00197430
I        3.16880199       6.41526189       3.16841744       13      -0.00000203      -0.23367562      -0.00000119
I       12.67520797       9.50525233       3.16841744       14       0.00000000       0.00000291      -0.00000291
Cs      12.67520797       6.35589629       6.31777349       15       0.00000000       0.00753448      -0.00753448
Sn       3.16880199       9.50525233       9.50525233       16       0.00020035      -0.00018947      -0.00019330
I        3.16880199       9.50525233       6.32979605       17      -0.00000217       0.00000239       0.00197568
I        3.16880199       6.42348218       9.50525233       18      -0.00000125      -0.28295044       0.00000133
I        0.07212510       9.50525233       9.50525233       19      -0.23107723       0.00000229       0.00000276
Cs       6.33760398      12.65460838       0.01906140       20       0.00000000      -0.00754191       0.00754191
Sn       9.50640598       3.16841744       3.16841744       21      -0.00020035       0.00019330       0.00018947
I        9.50640598       3.16841744       0.08664729       22       0.00000218      -0.00000217      -0.28286509
I        9.50640598      12.66663094       3.16841744       23       0.00000279       0.00197430      -0.00000304
I        6.40972908       3.16841744       3.16841744       24      -0.23115086      -0.00000187      -0.00000131
Cs       6.33760398      12.65460838       6.31777349       25      -0.00000174      -0.00754089      -0.00753425
Pb       9.50640598       3.16841744       9.50525233       26      -0.00031601       0.00028706      -0.00011889
I        9.50640598       3.16841744       6.25018760       27       0.00000125      -0.00000133       0.28295044
I        9.50640598      12.66080490       9.50525233       28       0.00000148       0.05032226       0.00000157
I        6.33760398       3.16841744       9.50525233       29       0.00000000      -0.00000033       0.00000033
Cs       6.33760398       6.35589629       0.01906140       30       0.00000174       0.00753425       0.00754089
Sn       9.50640598       9.50525233       3.16841744       31      -0.00019742      -0.00020056       0.00019551
I        9.50640598       9.50525233       0.07842700       32       0.00000295       0.00000190      -0.23359651
I        9.50640598       6.34387373       3.16841744       33       0.00000217      -0.00197568      -0.00000239
I        6.33760398       9.50525233       3.16841744       34       0.00000000       0.00000225      -0.00000225
Cs       6.33760398       6.35589629       6.31777349       35       0.00000000       0.00753260      -0.00753260
Pb       9.50640598       9.50525233       9.50525233       36      -0.00015630      -0.00034312      -0.00014005
I        9.50640598       9.50525233       6.25840789       37       0.00000203       0.00000119       0.23367562
I        9.50640598       6.34969977       9.50525233       38       0.00000067      -0.05034041       0.00000091
I        6.26547889       9.50525233       9.50525233       39       0.23115086       0.00000131       0.00000187
40
Lattice="12.675207969127868 0.0 0.0 0.0 12.673669779503932 0.0 0.0 1.189690784203371e-13 12.673669779503953" Properties=species:S:1:pos:R:3:spacegroup_kinds:I:1:forces:R:3 spacegroup="P 1" unit_cell=conventional occupancy="_JSON {\"0\": {\"Cs\": 1.0}, \"1\": {\"Pb\": 1.0}, \"2\": {\"I\": 1.0}, \"3\": {\"I\": 1.0}, \"4\": {\"I\": 1.0}, \"5\": {\"Cs\": 1.0}, \"6\": {\"Pb\": 1.0}, \"7\": {\"I\": 1.0}, \"8\": {\"I\": 1.0}, \"9\": {\"I\": 1.0}, \"10\": {\"Cs\": 1.0}, \"11\": {\"Sn\": 1.0}, \"12\": {\"I\": 1.0}, \"13\": {\"I\": 1.0}, \"14\": {\"I\": 1.0}, \"15\": {\"Cs\": 1.0}, \"16\": {\"Sn\": 1.0}, \"17\": {\"I\": 1.0}, \"18\": {\"I\": 1.0}, \"19\": {\"I\": 1.0}, \"20\": {\"Cs\": 1.0}, \"21\": {\"Sn\": 1.0}, \"22\": {\"I\": 1.0}, \"23\": {\"I\": 1.0}, \"24\": {\"I\": 1.0}, \"25\": {\"Cs\": 1.0}, \"26\": {\"Pb\": 1.0}, \"27\": {\"I\": 1.0}, \"28\": {\"I\": 1.0}, \"29\": {\"I\": 1.0}, \"30\": {\"Cs\": 1.0}, \"31\": {\"Sn\": 1.0}, \"32\": {\"I\": 1.0}, \"33\": {\"I\": 1.0}, \"34\": {\"I\": 1.0}, \"35\": {\"Cs\": 1.0}, \"36\": {\"Pb\": 1.0}, \"37\": {\"I\": 1.0}, \"38\": {\"I\": 1.0}, \"39\": {\"I\": 1.0}}" candidate_id=1953399a14430753 formula=MAPb0.56Sn0.44I3 config_index=1 rattle_stdev=0.08 method=PBE fidelity=phase2_force energy=-112.2427458910993 stress="-0.0015139558355693808 1.1286650522089828e-05 6.36077082630767e-06 1.1286650522089828e-05 -0.0005573340146467051 -4.209692523608665e-05 6.36077082630767e-06 -4.209692523608665e-05 -0.0021422172637098847" pbc="T T T"
Cs      12.58829226      12.58292317      -0.00544255        0      -0.01482409       0.02115574       0.03203627
Pb       3.06160730       3.07189060       3.11707930        1       0.19764234       0.19628101       0.28452836
I        3.27343764       3.31605428       0.07919408        2      -0.04790939      -0.01866627      -0.13834167
I        3.16693809      12.57855767       3.09508786        3       0.01235936       0.29380642      -0.00014567
I       12.51710346       3.16152597       3.26248453        4       0.74175109       0.00037390       0.01482404
Cs      12.54440063      12.75286390       6.40388439        5       0.03660909       0.02092427      -0.04411170
Pb       3.20038382       3.13740138       9.55232448        6       0.05723310      -0.04676309      -0.11037436
I        3.05413809       3.14253147       6.42420878        7       0.03349308       0.02418473      -0.17903700
I        3.11034259      12.70130130       9.58082465        8      -0.01142383      -0.14955784       0.00908104
I       12.65408775       3.15536038       9.42812375        9       0.13350749       0.00846508       0.03002155
Cs      12.64779618       6.35980861      -0.02090916       10      -0.00165423      -0.01720557       0.02352488
Sn       2.99184963       9.53003928       3.04124534       11       0.54563329      -0.28296120      -0.11683347
I        3.22715836       9.49662023      -0.04497488       12      -0.05159460       0.01960783       0.05740859
I        3.03335747       6.38578396       3.04118771       13       0.00505417      -0.17536128       0.06104207
I       12.79364844       9.54320755       3.24152655       14      -0.60182202       0.01308889       0.01688836
Cs      12.75204559       6.36265969       6.45515197       15       0.01709625      -0.02340507      -0.02615159
Sn       3.23695341       9.44486151       9.32224199       16       0.19508863       0.13013342       0.16825911
I        3.17754109       9.46923969       6.29675826       17       0.00565247      -0.01542438      -0.00055474
I        3.19432069       6.38019354       9.58114565       18      -0.01641261       0.05377994      -0.03975888
I        0.08423990       9.51140453       9.50050030       19      -0.00989652       0.01581083       0.00912190
Cs       6.33199289      12.60931646       0.04394182       20       0.01089925       0.01215372       0.03150425
Sn       9.56434268       3.20973345       3.25049990       21      -0.43982940      -0.20470527      -0.51576223
I        9.54801819       3.09883036       0.20669250       22       0.04384062       0.01702559      -0.61231076
I        9.59972375      12.70598410       3.10983647       23      -0.01306440      -0.08663692       0.10511473
I        6.46415357       3.20913719       3.10141455       24      -0.49476624      -0.01479702       0.05011278
Cs       6.38941557      12.65561154       6.44254062       25      -0.02647295      -0.00376098      -0.03556446
Pb       9.58917361       3.19543286       9.40104350       26      -0.20842022       0.25508718       0.21883108
I        9.41692243       3.27317865       6.20873024       27      -0.02039380      -0.02689749       0.75701818
I        9.47495603      12.74424238       9.51122955       28       0.00690107      -0.11403975      -0.00640990
I        6.34475895       3.17273003       9.53872809       29       0.00560724       0.00040269      -0.00489191
Cs       6.23938558       6.26873296       0.04443135       30       0.00922149      -0.00239893       0.03653283
Sn       9.44397353       9.43676185       3.06282773       31      -0.22146580       0.16727049       0.31410313
I        9.54270851       9.58539432       0.19152577       32       0.00950121      -0.00166295      -0.53734933
I        9.49119135       6.34628257       3.01854411       33       0.03200309       0.10743227       0.01981601
I        6.32826183       9.49505311       3.24059219       34       0.28873685      -0.00692195      -0.01981134
Cs       6.23245421       6.34793223       6.32901748       35      -0.00015666      -0.00098386      -0.02541995
Pb       9.71671045       9.64571464       9.29440051       36      -0.35378729      -0.31975414       0.57398534
I        9.40347442       9.49151456       6.40244419       37       0.03414017       0.03524479      -0.46957370
I        9.55510163       6.35222182       9.38793936       38       0.00781952       0.12516341       0.05816731
I        6.29023415       9.59662976       9.46438480       39       0.10360532      -0.00570464       0.01615588
40
Lattice="12.675207969127868 0.0 0.0 0.0 12.673669779503932 0.0 0.0 1.189690784203371e-13 12.673669779503953" Properties=species:S:1:pos:R:3:spacegroup_kinds:I:1:forces:R:3 spacegroup="P 1" unit_cell=conventional occupancy="_JSON {\"0\": {\"Cs\": 1.0}, \"1\": {\"Pb\": 1.0}, \"2\": {\"I\": 1.0}, \"3\": {\"I\": 1.0}, \"4\": {\"I\": 1.0}, \"5\": {\"Cs\": 1.0}, \"6\": {\"Pb\": 1.0}, \"7\": {\"I\": 1.0}, \"8\": {\"I\": 1.0}, \"9\": {\"I\": 1.0}, \"10\": {\"Cs\": 1.0}, \"11\": {\"Sn\": 1.0}, \"12\": {\"I\": 1.0}, \"13\": {\"I\": 1.0}, \"14\": {\"I\": 1.0}, \"15\": {\"Cs\": 1.0}, \"16\": {\"Sn\": 1.0}, \"17\": {\"I\": 1.0}, \"18\": {\"I\": 1.0}, \"19\": {\"I\": 1.0}, \"20\": {\"Cs\": 1.0}, \"21\": {\"Sn\": 1.0}, \"22\": {\"I\": 1.0}, \"23\": {\"I\": 1.0}, \"24\": {\"I\": 1.0}, \"25\": {\"Cs\": 1.0}, \"26\": {\"Pb\": 1.0}, \"27\": {\"I\": 1.0}, \"28\": {\"I\": 1.0}, \"29\": {\"I\": 1.0}, \"30\": {\"Cs\": 1.0}, \"31\": {\"Sn\": 1.0}, \"32\": {\"I\": 1.0}, \"33\": {\"I\": 1.0}, \"34\": {\"I\": 1.0}, \"35\": {\"Cs\": 1.0}, \"36\": {\"Pb\": 1.0}, \"37\": {\"I\": 1.0}, \"38\": {\"I\": 1.0}, \"39\": {\"I\": 1.0}}" candidate_id=1953399a14430753 formula=MAPb0.56Sn0.44I3 config_index=2 rattle_stdev=0.08 method=PBE fidelity=phase2_force energy=-112.33743280889598 stress="-0.000747899666629089 2.5498347182051166e-05 4.665402879439015e-06 2.5498347182051166e-05 -0.0011798729798919454 -4.4054041088427306e-05 4.665402879439015e-06 -4.4054041088427306e-05 -0.000646060380425357" pbc="T T T"
Cs      12.66619093      12.56848327       0.16186355        0       0.01945844      -0.00938706      -0.03763620
Pb       3.05224333       3.14231178       3.06762573        1       0.47663806       0.21645981       0.18484883
I        3.19887131       3.09816566      -0.01513318        2      -0.02738492       0.02310772      -0.11839374
I        3.19253481      12.69131574       3.04289783        3      -0.02100134      -0.27369108       0.03406008
I       12.75140517       3.20793439       3.15796053        4      -0.54643406       0.01447768      -0.02755605
Cs      12.64295831      12.57671540       6.28037615        5      -0.01535023      -0.01836617       0.03209266
Pb       3.11136827       3.26612891       9.44307633        6       0.38956913       0.08220875       0.00171158
I        3.12171994       3.16380794       6.33033640        7       0.02369743      -0.08444016      -0.05963228
I        3.07414591      12.46312309       9.57823283        8      -0.00633715       0.79677461       0.00064291
I       12.70822163       3.11275592       9.32215058        9      -0.16931525      -0.00118794       0.02116599
Cs      12.61222865       6.27361495       0.02652604       10       0.02622036       0.02301543      -0.00724246
Sn       3.12646646       9.56767192       3.15235227       11       0.20368835      -0.21935412       0.04396905
I        3.13035331       9.42243136      -0.03317991       12       0.01286573      -0.02551171       0.31537374
I        3.23199321       6.34126208       3.34522027       13      -0.02078386       0.22595413      -0.06593037
I       12.56318907       9.48612454       3.18580470       14       0.43193819      -0.00558246       0.01234614
Cs      12.64701715       6.36276633       6.32630565       15       0.00144294       0.01760873       0.00423296
Sn       3.15303950       9.61300704       9.53286625       16       0.00509327      -0.53643909      -0.09287705
I        3.21341355       9.45762952       6.38842263       17      -0.02818080       0.08201224      -0.27017417
I        3.27530221       6.36507954       9.46639187       18      -0.02258167      -0.29950860       0.03076262
I        0.15827824       9.29762374       9.51860659       19      -0.32632098       0.00289323      -0.00631591
Cs       6.42072076      12.50992248       0.07975267       20      -0.02306815       0.02824909      -0.01533585
Sn       9.46639695       2.98087399       3.15978403       21      -0.16500839       0.24605903       0.12917720
I        9.38618296       3.20751974       0.04239301       22       0.07378285       0.02813603      -0.16919598
I        9.59100658      12.59708551       3.16241016       23       0.00006673       0.15763837      -0.01303907
I        6.40115669       3.33632321       3.14117441       24       0.10848380      -0.12617478      -0.00867888
Cs       6.29537158      12.55103904       6.33490142       25       0.02126905      -0.00815467       0.01058607
Pb       9.59650754       3.20054031       9.56649916       26      -0.35796086      -0.06278073      -0.12843630
I        9.39815578       3.21432612       6.23257663       27       0.04915089      -0.06576871       0.17807163
I        9.55802110      12.58042735       9.65723142       28       0.03588390       0.51695154       0.01677564
I        6.35495285       3.20841508       9.45512505       29       0.06094458      -0.05790251       0.00116275
Cs       6.25737325       6.29339147       0.03540361       30      -0.02061913      -0.02862161       0.00719044
Sn       9.54929334       9.41925254       2.99098906       31      -0.30954352      -0.22281555       0.63404085
I        9.55816039       9.47946547       0.06462186       32       0.01206526      -0.02632412      -0.27719923
I        9.32333223       6.33491022       3.24484255       33       0.10137317       0.01918942      -0.07226170
I        6.37398304       9.67020653       3.17341428       34      -0.31459891       0.01294214      -0.04996118
Cs       6.33783138       6.31961198       6.34765209       35       0.00343527      -0.00284281      -0.00876983
Pb       9.44135670       9.49712773       9.54090939       36       0.11104150       0.09716503      -0.40209295
I        9.40439569       9.51387888       6.32658685       37       0.05787365       0.06129331       0.06317266
I        9.49385781       6.44480531       9.38747126       38       0.05545126      -0.62385685       0.03875633
I        6.33476215       9.43378117       9.46133469       39       0.08881495       0.04678790       0.07112823
40
Lattice="12.675207969127868 0.0 0.0 0.0 12.673669779503932 0.0 0.0 1.189690784203371e-13 12.673669779503953" Properties=species:S:1:pos:R:3:spacegroup_kinds:I:1:forces:R:3 spacegroup="P 1" unit_cell=conventional occupancy="_JSON {\"0\": {\"Cs\": 1.0}, \"1\": {\"Pb\": 1.0}, \"2\": {\"I\": 1.0}, \"3\": {\"I\": 1.0}, \"4\": {\"I\": 1.0}, \"5\": {\"Cs\": 1.0}, \"6\": {\"Pb\": 1.0}, \"7\": {\"I\": 1.0}, \"8\": {\"I\": 1.0}, \"9\": {\"I\": 1.0}, \"10\": {\"Cs\": 1.0}, \"11\": {\"Sn\": 1.0}, \"12\": {\"I\": 1.0}, \"13\": {\"I\": 1.0}, \"14\": {\"I\": 1.0}, \"15\": {\"Cs\": 1.0}, \"16\": {\"Sn\": 1.0}, \"17\": {\"I\": 1.0}, \"18\": {\"I\": 1.0}, \"19\": {\"I\": 1.0}, \"20\": {\"Cs\": 1.0}, \"21\": {\"Sn\": 1.0}, \"22\": {\"I\": 1.0}, \"23\": {\"I\": 1.0}, \"24\": {\"I\": 1.0}, \"25\": {\"Cs\": 1.0}, \"26\": {\"Pb\": 1.0}, \"27\": {\"I\": 1.0}, \"28\": {\"I\": 1.0}, \"29\": {\"I\": 1.0}, \"30\": {\"Cs\": 1.0}, \"31\": {\"Sn\": 1.0}, \"32\": {\"I\": 1.0}, \"33\": {\"I\": 1.0}, \"34\": {\"I\": 1.0}, \"35\": {\"Cs\": 1.0}, \"36\": {\"Pb\": 1.0}, \"37\": {\"I\": 1.0}, \"38\": {\"I\": 1.0}, \"39\": {\"I\": 1.0}}" candidate_id=1953399a14430753 formula=MAPb0.56Sn0.44I3 config_index=3 rattle_stdev=0.08 method=PBE fidelity=phase2_force energy=-112.02665548914288 stress="-0.0010874012810465062 7.800384565926934e-05 -1.1305341456661028e-06 7.800384565926934e-05 -0.0013008094730690325 4.381201002062753e-05 -1.1305341456661028e-06 4.381201002062753e-05 -0.0006637845047892892" pbc="T T T"
Cs      12.56952449      12.81594861       0.02286655        0       0.02813694       0.03829001       0.03369027
Pb       3.14978830       3.17514726       3.24518083        1      -0.23590345      -0.22342896      -0.72022952
I        3.11427411       3.21074308      -0.04912858        2       0.02477215      -0.00244723      -0.10801042
I        3.28119849      12.57726835       3.06394659        3       0.01630526       0.04130880       0.01047470
I       12.54880005       3.03874278       3.06601956        4       0.33138444       0.05407385       0.03232592
Cs      12.65726423      12.58656350       6.25731429        5      -0.02848136       0.00450125      -0.02768386
Pb       3.18985566       2.96400200       9.37162966        6      -0.03687667       0.30185786       0.44214864
I        3.11186318       2.97267540       6.22183522        7      -0.03319395      -0.03273071       0.46656151
I        3.22189180      12.48471577       9.44201956        8      -0.03481941       0.82378067       0.01111425
I       12.55501830       3.07325425       9.68658755        9       0.47816090       0.02476671      -0.00636203
Cs      12.63706574       6.42762941      -0.12533366       10       0.02285645      -0.05765579      -0.00554504
Sn       3.12950482       9.40929261       3.10399982       11       0.00497722       0.33295918      -0.02826230
I        3.28126748       9.48682708      -0.05005688       12      -0.04571261      -0.04662201       0.42824274
I        3.15579499       6.36095149       3.28954686       13      -0.01024722      -0.07184542       0.01387224
I       12.53540214       9.55793470       3.14088814       14       0.91115709      -0.06394213       0.01913626
Cs      12.61451212       6.36965839       6.26519021       15      -0.03133150       0.00640610       0.00141967
Sn       3.21301763       9.53586099       9.47554911       16      -0.16673124      -0.60838465      -0.00752492
I        3.29505351       9.52259613       6.42672338       17      -0.01272535       0.01222710      -0.40683079
I        3.22732044       6.47740187       9.45882785       18      -0.01277036      -0.50088660      -0.03223857
I        0.06417793       9.37846314       9.49927502       19      -0.33947891       0.01921309       0.00880751
Cs       6.43350869      12.63337457      -0.03308257       20      -0.03430218       0.00650588       0.01754645
Sn       9.35468305       3.04519353       3.13699159       21       0.41563076       0.22623107       0.05453473
I        9.47324751       3.22530287       0.13804932       22      -0.05553911      -0.01752086      -0.42898350
I        9.69819288      12.65304835       3.08734675       23      -0.11361264      -0.20766321       0.01995905
I        6.37424459       3.23609562       3.20796617       24      -0.39559108      -0.03311352       0.02666869
Cs       6.35989504      12.69637566       6.34318283       25       0.01278557      -0.03989276      -0.00834588
Pb       9.52457689       3.13719020       9.44781093       26      -0.15999154      -0.02961825      -0.04451496
I        9.62993487       3.09938184       6.22148139       27      -0.00707223      -0.00928580       0.39610789
I        9.51311012      12.79514266       9.41090536       28      -0.03265317      -0.89318067       0.05288243
I        6.30570581       3.13454630       9.54999928       29      -0.18430124      -0.02760957      -0.03947281
Cs       6.29142441       6.36159608       0.08843780       30      -0.00900401      -0.01910735      -0.02259936
Sn       9.53959870       9.48715355       3.22886490       31      -0.15072839      -0.17213859       0.17011158
I        9.52441637       9.47007209       0.13075334       32       0.02029963      -0.00916093      -0.24267090
I        9.43471612       6.22991784       3.30781618       33       0.06416969       0.20036208      -0.00831765
I        6.57115003       9.45135431       3.10673550       34      -0.78230221       0.02535854       0.01485619
Cs       6.42204337       6.44755333       6.32742334       35       0.01419445       0.02958225       0.00725714
Pb       9.50740545       9.44929062       9.65535627       36       0.07349199       0.02474980      -0.21594177
I        9.47035331       9.48075359       6.37142724       37       0.00665930       0.01396946       0.11216404
I        9.45411870       6.16837445       9.55368049       38      -0.01433152       0.86866351       0.00841019
I        6.22353344       9.52185152       9.59296450       39       0.50312905       0.00837081       0.00646006
