40
Lattice="11.92213616494556 0.0 0.0 0.0391749398359294 11.932089187538534 0.0 -0.002736634374640095 0.0035508553819271343 11.999779100434608" Properties=species:S:1:pos:R:3:spacegroup_kinds:I:1:forces:R:3 spacegroup="P 1" unit_cell=conventional occupancy="_JSON {\"0\": {\"Cs\": 1.0}, \"1\": {\"Sn\": 1.0}, \"2\": {\"I\": 1.0}, \"3\": {\"I\": 1.0}, \"4\": {\"Cl\": 1.0}, \"5\": {\"Cs\": 1.0}, \"6\": {\"Sn\": 1.0}, \"7\": {\"Cl\": 1.0}, \"8\": {\"Cl\": 1.0}, \"9\": {\"I\": 1.0}, \"10\": {\"Cs\": 1.0}, \"11\": {\"Sn\": 1.0}, \"12\": {\"Cl\": 1.0}, \"13\": {\"Cl\": 1.0}, \"14\": {\"I\": 1.0}, \"15\": {\"Cs\": 1.0}, \"16\": {\"Sn\": 1.0}, \"17\": {\"I\": 1.0}, \"18\": {\"Cl\": 1.0}, \"19\": {\"I\": 1.0}, \"20\": {\"Cs\": 1.0}, \"21\": {\"Sn\": 1.0}, \"22\": {\"Cl\": 1.0}, \"23\": {\"I\": 1.0}, \"24\": {\"Cl\": 1.0}, \"25\": {\"Cs\": 1.0}, \"26\": {\"Sn\": 1.0}, \"27\": {\"Cl\": 1.0}, \"28\": {\"I\": 1.0}, \"29\": {\"Cl\": 1.0}, \"30\": {\"Cs\": 1.0}, \"31\": {\"Sn\": 1.0}, \"32\": {\"I\": 1.0}, \"33\": {\"Cl\": 1.0}, \"34\": {\"Cl\": 1.0}, \"35\": {\"Cs\": 1.0}, \"36\": {\"Sn\": 1.0}, \"37\": {\"I\": 1.0}, \"38\": {\"Cl\": 1.0}, \"39\": {\"Cl\": 1.0}}" candidate_id=a87067d22ab2fd1b formula=CsSnCl0.59I0.413 config_index=0 rattle_stdev=0.0 method=PBE fidelity=phase2_force energy=-127.79020857401987 stress="0.0006852086572617336 0.00010151945680560088 -9.726797043849047e-05 0.00010151945680560088 0.00048727278244132166 2.6113587060775533e-05 -9.726797043849047e-05 2.6113587060775533e-05 -0.0019464639584966129" pbc="T T T"
Cs      11.91799691       0.06952433      11.99903345        0      -0.01368252      -0.02866288      -0.00586120
Sn       3.11211370       3.14500887       3.15682902        1      -0.07156860       0.03014253      -0.02082411
I        3.07504366       3.02537669      11.96806145        2      -0.00439582      -0.00250150       0.02176537
I        3.07199979       0.06501293       3.04952900        3      -0.00474479       0.00224747       0.02013869
Cl      11.56836559       3.29236325       2.96525466        4       0.11277343       0.00118218       0.05633826
Cs       0.05201433       0.02389802       5.96136260        5      -0.02525331      -0.06079623       0.01171262
Sn       3.15806116       3.13833838       8.81296976        6       0.07366590      -0.03160868      -0.03031104
Cl       3.15125297       3.23425330       5.97705881        7      -0.01576440      -0.02369386      -0.02157406
Cl       3.36774560      11.56482837       9.16382308        8       0.00137428       0.15184890       0.00805013
I        0.02337829       3.10688286       8.90106024        9      -0.00449299      -0.00144764      -0.03232446
Cs      11.93288998       5.81744024       0.09918222       10      -0.02735053       0.02273495       0.02035377
Sn       3.18327228       8.70702173       2.75687526       11       0.01544300       0.02757421       0.06143391
Cl       3.29675247       8.75859755       0.08335862       12       0.02763992      -0.01883692       0.07378391
Cl       3.17383451       6.02229556       2.88623218       13      -0.02777722      -0.00494134      -0.01621271
I        0.11676664       8.82291026       2.91759128       14      -0.10890499      -0.03708034      -0.03854241
Cs       0.09120343       5.84056285       5.85046909       15       0.00863765       0.03013169      -0.00546241
Sn       3.19578824       8.99575222       9.13083032       16       0.00482573      -0.13365401      -0.01426199
I        3.14723083       8.89288859       6.08930550       17       0.03758301       0.01290915      -0.09523824
Cl       3.23940710       5.67460074       8.87139482       18       0.01254133       0.00553179       0.00179595
I        0.13162530       8.90030749       9.09666916       19      -0.08919052       0.01108125       0.03939331
Cs       5.89233875       0.07671706      11.89622833       20      -0.00838441      -0.06161456      -0.02187433
Sn       8.98139392       3.14074812       2.91955343       21      -0.05562737       0.15476164       0.07420235
Cl       8.94749597       3.24137941       0.35512185       22      -0.03556187       0.00271755      -0.10864902
I        8.89284573       0.13000958       2.99966463       23       0.00702896      -0.17393174      -0.00599865
Cl       5.65637994       3.16552191       3.15155703       24       0.08442926       0.01092892       0.02917171
Cs       5.86156370       0.22750292       6.10130160       25       0.00977796       0.00678043       0.02572797
Sn       8.74401178       3.14384661       8.89179018       26      -0.02716072       0.04392889       0.10412465
Cl       8.77529040       3.21640567       6.34722574       27      -0.01567461       0.00942975      -0.14467350
I        8.83997647       0.09510396       8.98811412       28      -0.03128550      -0.08626098       0.00177142
Cl       5.97411242       3.09726331       8.84431498       29      -0.00288519      -0.03811921      -0.01511420
Cs       5.97449101       5.89225633      11.96770514       30      -0.00380050       0.04628150       0.00180578
Sn       8.69283193       8.68786931       2.98225085       31       0.08630048       0.03335657      -0.04593906
I        8.83445537       8.83496089      11.98468004       32       0.01206970       0.01842241       0.00544795
Cl       8.80404311       6.05550817       2.97073344       33      -0.01721258       0.03608683       0.02116388
Cl       6.03753032       8.62800069       2.91379340       34       0.02174811      -0.03586240      -0.01143271
Cs       5.96447212       5.82352290       5.95793856       35      -0.00749724      -0.00513619       0.01441723
Sn       8.70806956       8.68327521       8.98629556       36       0.06171670       0.08298072      -0.01143438
I        8.82451021       8.84190699       5.98062833       37       0.01083926       0.01165246       0.02141704
Cl       8.64817608       6.03479399       8.96559421       38      -0.04066569      -0.01353875       0.02128174
Cl       6.06836026       8.80562692       9.05397916       39       0.03091093      -0.02015642       0.02015222
40
Lattice="11.92213616494556 0.0 0.0 0.0391749398359294 11.932089187538534 0.0 -0.002736634374640095 0.0035508553819271343 11.999779100434608" Properties=species:S:1:pos:R:3:spacegroup_kinds:I:1:forces:R:3 spacegroup="P 1" unit_cell=conventional occupancy="_JSON {\"0\": {\"Cs\": 1.0}, \"1\": {\"Sn\": 1.0}, \"2\": {\"I\": 1.0}, \"3\": {\"I\": 1.0}, \"4\": {\"Cl\": 1.0}, \"5\": {\"Cs\": 1.0}, \"6\": {\"Sn\": 1.0}, \"7\": {\"Cl\": 1.0}, \"8\": {\"Cl\": 1.0}, \"9\": {\"I\": 1.0}, \"10\": {\"Cs\": 1.0}, \"11\": {\"Sn\": 1.0}, \"12\": {\"Cl\": 1.0}, \"13\": {\"Cl\": 1.0}, \"14\": {\"I\": 1.0}, \"15\": {\"Cs\": 1.0}, \"16\": {\"Sn\": 1.0}, \"17\": {\"I\": 1.0}, \"18\": {\"Cl\": 1.0}, \"19\": {\"I\": 1.0}, \"20\": {\"Cs\": 1.0}, \"21\": {\"Sn\": 1.0}, \"22\": {\"Cl\": 1.0}, \"23\": {\"I\": 1.0}, \"24\": {\"Cl\": 1.0}, \"25\": {\"Cs\": 1.0}, \"26\": {\"Sn\": 1.0}, \"27\": {\"Cl\": 1.0}, \"28\": {\"I\": 1.0}, \"29\": {\"Cl\": 1.0}, \"30\": {\"Cs\": 1.0}, \"31\": {\"Sn\": 1.0}, \"32\": {\"I\": 1.0}, \"33\": {\"Cl\": 1.0}, \"34\": {\"Cl\": 1.0}, \"35\": {\"Cs\": 1.0}, \"36\": {\"Sn\": 1.0}, \"37\": {\"I\": 1.0}, \"38\": {\"Cl\": 1.0}, \"39\": {\"Cl\": 1.0}}" candidate_id=a87067d22ab2fd1b formula=CsSnCl0.59I0.413 config_index=1 rattle_stdev=0.08 method=PBE fidelity=phase2_force energy=-126.92981382034453 stress="-0.0012177676442494587 6.564686358507819e-05 -0.00025990222761248507 6.564686358507819e-05 3.637131193266905e-05 0.0001296330561044278 -0.00025990222761248507 0.0001296330561044278 -0.005900444905560421" pbc="T T T"
Cs      11.83108120      -0.00216088      11.97452950        0      -0.00078769       0.01074601      -0.01248299
Sn       3.00491900       3.04848202       3.10549088        1       0.63543864       0.36734048       0.04249998
I        3.17967931       3.17301352      12.03439065        2      -0.19702440      -0.17545472       0.03168925
I        3.07013589       0.04832781       2.97619942        3      -0.00341395      -0.03388827       0.04317421
Cl      11.48238618       3.28547178       3.05932174        4       1.17632825       0.08771241       0.08040359
Cs      -0.07879301       0.12215354       6.04747350        5       0.02529542      -0.04532257      -0.03434540
Sn       3.18964298       3.10732231       8.86004190        6       0.16461583      -0.28478201      -0.16429908
Cl       3.03658907       3.20836732       6.07729759        7       0.03202252      -0.02031710      -0.07051785
Cl       3.30928620      11.67910718       9.23939539        8       0.01290598      -0.36175868      -0.14170389
I        0.00225807       3.09382579       8.82393166        9       0.11982305      -0.00629128       0.03598278
Cs      11.90547820       5.82135256       0.05921166       10      -0.03870782      -0.00297426       0.02640574
Sn       3.00631991       8.73180868       2.62970316       11       1.13295586      -0.27598417       0.03322905
Cl       3.35510884       8.74996545       0.03134490       12      -0.10214492      -0.02127692       0.00153145
Cl       3.03838999       5.99281763       2.75900245       13      -0.09130495       0.09729052       0.03075062
I        0.23520710       8.86086548       2.99070038       14      -1.13594324      -0.01283654      -0.00621977
Cs       0.16804105       5.84732626       5.98784756       15       0.02627738       0.01750123      -0.02904387
Sn       3.26393965       8.93536139       8.94781998       16       0.28104107       0.38504864       0.57822572
I        3.15596993       8.85687594       6.05626771       17       0.01970732       0.05496573      -0.37020664
Cl       3.26492580       5.63131210       8.94728814       18      -0.01688945       0.33921314      -0.04663671
I        0.14374010       8.90645969       9.09191712       19      -0.01140744      -0.01845590      -0.00298742
Cs       5.88672765       0.03142513      11.92110876       20      -0.02390725      -0.05160702      -0.02943454
Sn       9.03933062       3.18206413       3.00163588       21      -1.11001053      -0.08140934       0.12998048
Cl       8.98910818       3.17179232       0.47516707       22       0.02803501       0.06332520      -0.43588788
I        8.98616351       0.16936274       2.94108365       23       0.00766323      -0.28872157       0.12098399
Cl       5.71080443       3.20624166       3.08455413       24      -0.59790898      -0.04487415       0.11107938
Cs       5.91337528       0.22850608       6.22606872       25      -0.05514148       0.02424276      -0.01807866
Sn       8.82677941       3.17086202       8.78758134       26      -0.26147495       0.50786897       0.53585586
Cl       8.68580685       3.32116688       6.30576838       27       0.04285948      -0.08598860      -0.37779480
I        8.80852653       0.17854144       8.99409134       28       0.03548732      -0.41426183      -0.02531512
Cl       5.98126738       3.10157590       8.87779074       29      -0.10196794      -0.03997371      -0.04002168
Cs       5.87627260       5.80509301      11.99307509       30       0.12442992       0.13874931       0.02125051
Sn       8.63039949       8.61937882       2.87666114       31      -0.04191689       0.32616005       0.53028113
I        8.87075790       8.91510288      12.09777882       32      -0.00096157       0.02750857      -0.66355964
Cl       8.78882848       6.05791701       2.82086010       33       0.00693923      -0.06923619      -0.01571122
Cl       6.02818816       8.61780146       2.98596814       34       0.18030845      -0.05505200      -0.05418497
Cs       5.85932235       5.81555884       5.96918255       35       0.01678419      -0.05494436      -0.01080264
Sn       8.91837403       8.82373751       8.77544374       36      -0.28809728      -0.30373554       1.87402503
I        8.72157865       8.82816921       6.12466463       37      -0.02772179       0.06445507      -1.71776052
Cl       8.69687173       6.03731604       8.84828124       38       0.06136018       0.21266242       0.03917783
Cl       6.09311552       8.89700435       9.01311163       39      -0.02572050       0.03140153      -0.00426121
40
Lattice="11.92213616494556 0.0 0.0 0.0391749398359294 11.932089187538534 0.0 -0.002736634374640095 0.0035508553819271343 11.999779100434608" Properties=species:S:1:pos:R:3:spacegroup_kinds:I:1:forces:R:3 spacegroup="P 1" unit_cell=conventional occupancy="_JSON {\"0\": {\"Cs\": 1.0}, \"1\": {\"Sn\": 1.0}, \"2\": {\"I\": 1.0}, \"3\": {\"I\": 1.0}, \"4\": {\"Cl\": 1.0}, \"5\": {\"Cs\": 1.0}, \"6\": {\"Sn\": 1.0}, \"7\": {\"Cl\": 1.0}, \"8\": {\"Cl\": 1.0}, \"9\": {\"I\": 1.0}, \"10\": {\"Cs\": 1.0}, \"11\": {\"Sn\": 1.0}, \"12\": {\"Cl\": 1.0}, \"13\": {\"Cl\": 1.0}, \"14\": {\"I\": 1.0}, \"15\": {\"Cs\": 1.0}, \"16\": {\"Sn\": 1.0}, \"17\": {\"I\": 1.0}, \"18\": {\"Cl\": 1.0}, \"19\": {\"I\": 1.0}, \"20\": {\"Cs\": 1.0}, \"21\": {\"Sn\": 1.0}, \"22\": {\"Cl\": 1.0}, \"23\": {\"I\": 1.0}, \"24\": {\"Cl\": 1.0}, \"25\": {\"Cs\": 1.0}, \"26\": {\"Sn\": 1.0}, \"27\": {\"Cl\": 1.0}, \"28\": {\"I\": 1.0}, \"29\": {\"Cl\": 1.0}, \"30\": {\"Cs\": 1.0}, \"31\": {\"Sn\": 1.0}, \"32\": {\"I\": 1.0}, \"33\": {\"Cl\": 1.0}, \"34\": {\"Cl\": 1.0}, \"35\": {\"Cs\": 1.0}, \"36\": {\"Sn\": 1.0}, \"37\": {\"I\": 1.0}, \"38\": {\"Cl\": 1.0}, \"39\": {\"Cl\": 1.0}}" candidate_id=a87067d22ab2fd1b formula=CsSnCl0.59I0.413 config_index=2 rattle_stdev=0.08 method=PBE fidelity=phase2_force energy=-126.91986175217845 stress="0.0007591058503475552 0.0003129691475941371 0.0002699150489266805 0.0003129691475941371 -0.004072063475840742 -0.0001626560682297013 0.0002699150489266805 -0.0001626560682297013 -0.002271585413234999" pbc="T T T"
Cs      11.90897986      -0.01660079      12.14183561        0       0.01369790      -0.00987718      -0.07967512
Sn       2.99555503       3.11890320       3.05603730        1       0.28542378       0.63363304       0.13957794
I        3.10511298       2.95512490      11.94006339        2      -0.07166243       0.03621242       0.05572382
I        3.09573261       0.16108588       2.92400938        3      -0.00277769      -0.68740943       0.07739110
Cl      11.71668789       3.33188020       2.95479774        4      -0.36676730      -0.10760068      -0.01419429
Cs       0.01976467      -0.05399496       5.92396526        5      -0.03094222      -0.07715587       0.04303851
Sn       3.10062744       3.23604984       8.75079376        6       0.48271444      -0.98351465      -0.15735435
Cl       3.10417092       3.22964379       5.98342520        7      -0.03798969      -0.06294083      -0.05807953
Cl       3.27308952      11.44092898       9.23680357        8       0.04668674       1.95553440       0.06733713
I        0.05639195       3.05122134       8.71795849        9      -0.25130112       0.01580953       0.03285154
Cs      11.86991066       5.73515891       0.10664687       10       0.00888239       0.00029346       0.03022425
Sn       3.14093674       8.76944132       2.74081009       11       0.15950786      -0.32841341       0.12238729
Cl       3.25830378       8.67577658       0.04313987       12       0.02602118      -0.00088006       0.37535254
Cl       3.23702573       5.94829575       3.06303501       13      -0.12895487       0.48175058      -0.11922966
I        0.00474774       8.80378247       2.93497853       14       0.32807507      -0.02800351      -0.03374398
Cs       0.06301260       5.84743289       5.85900124       15       0.00114243       0.03393282      -0.04644772
Sn       3.18002574       9.10350693       9.15844424       16      -0.00075823      -2.04453836      -0.01075687
I        3.19184238       8.84526577       6.14793208       17      -0.01141799       0.11405392      -0.43533682
Cl       3.34590732       5.61619811       8.83253436       18      -0.03027300       0.92479272       0.05118530
I        0.21777843       8.69267890       9.11002341       19      -0.26314413       0.05681023       0.05081354
Cs       5.97545552      -0.06796885      11.95691960       20      -0.03983958       0.00711304      -0.01693677
Sn       8.94138489       2.95320467       2.91092001       21       0.15933443       0.83160265      -0.00622871
Cl       8.82727296       3.28048170       0.31086757       22       0.04339883      -0.09525844       0.08742880
I        8.97744634       0.06046415       2.99365734       23       0.01156512      -0.29570806      -0.04248368
Cl       5.64780754       3.33342767       3.12431399       24       0.00381020      -0.19967723      -0.03474125
Cs       5.81933129       0.12393358       6.11842952       25       0.05741243       0.04266751       0.02898362
Sn       8.83411335       3.17596947       8.95303700       26      -0.48810775      -0.11053556      -0.33456274
Cl       8.66704020       3.26231435       6.32961477       27       0.13818587      -0.09709468       0.15302560
I        8.89159159       0.01472642       9.14009321       28      -0.01135537       0.40516651      -0.02830785
Cl       5.99146128       3.13726094       8.79418770       29       0.14922427      -0.10032873       0.06778908
Cs       5.89426027       5.82975151      11.98404736       30      -0.00841424      -0.00606893       0.04772981
Sn       8.73571929       8.60186951       2.80482247       31      -0.18751435       0.01134544       1.04728168
I        8.88620979       8.80917403      11.97087491       32       0.02969687      -0.03190580      -0.04430757
Cl       8.62096936       6.04654466       3.04715855       33       0.03701354      -0.15547389      -0.08854793
Cl       6.07390937       8.79295489       2.91879024       34      -0.27176949       0.04254294      -0.13958604
Cs       5.96469952       5.78723859       5.98781716       35      -0.00131918      -0.02902993      -0.04525828
Sn       8.64302028       8.67515060       9.02195262       36       0.57305625       0.34065558      -0.63723572
I        8.72249992       8.85053353       6.04880728       37       0.06529738       0.11150996      -0.32327443
Cl       8.63562791       6.12989953       8.84781314       38       0.01181038      -0.64360371       0.09907697
Cl       6.13764353       8.73415576       9.01006151       39      -0.43039070       0.04546194       0.11928012
40
Lattice="11.92213616494556 0.0 0.0 0.0391749398359294 11.932089187538534 0.0 -0.002736634374640095 0.0035508553819271343 11.999779100434608" Properties=species:S:1:pos:R:3:spacegroup_kinds:I:1:forces:R:3 spacegroup="P 1" unit_cell=conventional occupancy="_JSON {\"0\": {\"Cs\": 1.0}, \"1\": {\"Sn\": 1.0}, \"2\": {\"I\": 1.0}, \"3\": {\"I\": 1.0}, \"4\": {\"Cl\": 1.0}, \"5\": {\"Cs\": 1.0}, \"6\": {\"Sn\": 1.0}, \"7\": {\"Cl\": 1.0}, \"8\": {\"Cl\": 1.0}, \"9\": {\"I\": 1.0}, \"10\": {\"Cs\": 1.0}, \"11\": {\"Sn\": 1.0}, \"12\": {\"Cl\": 1.0}, \"13\": {\"Cl\": 1.0}, \"14\": {\"I\": 1.0}, \"15\": {\"Cs\": 1.0}, \"16\": {\"Sn\": 1.0}, \"17\": {\"I\": 1.0}, \"18\": {\"Cl\": 1.0}, \"19\": {\"I\": 1.0}, \"20\": {\"Cs\": 1.0}, \"21\": {\"Sn\": 1.0}, \"22\": {\"Cl\": 1.0}, \"23\": {\"I\": 1.0}, \"24\": {\"Cl\": 1.0}, \"25\": {\"Cs\": 1.0}, \"26\": {\"Sn\": 1.0}, \"27\": {\"Cl\": 1.0}, \"28\": {\"I\": 1.0}, \"29\": {\"Cl\": 1.0}, \"30\": {\"Cs\": 1.0}, \"31\": {\"Sn\": 1.0}, \"32\": {\"I\": 1.0}, \"33\": {\"Cl\": 1.0}, \"34\": {\"Cl\": 1.0}, \"35\": {\"Cs\": 1.0}, \"36\": {\"Sn\": 1.0}, \"37\": {\"I\": 1.0}, \"38\": {\"Cl\": 1.0}, \"39\": {\"Cl\": 1.0}}" candidate_id=a87067d22ab2fd1b formula=CsSnCl0.59I0.413 config_index=3 rattle_stdev=0.08 method=PBE fidelity=phase2_force energy=-126.85019314896334 stress="-0.00030673783487775906 0.00024076875874577499 -0.0004144570371806685 0.00024076875874577499 -0.0009279391210543316 0.0001639571610617968 -0.0004144570371806685 0.0001639571610617968 -0.003743326178063636" pbc="T T T"
Cs      11.81231343       0.23086456      12.00283861        0       0.04090680       0.01961647       0.03514210
Sn       3.09310000       3.15173868       3.23359240        1      -0.26566934      -0.22031902      -0.62524188
I        3.02051578       3.06770232      11.90606799        2       0.05572901      -0.04913304      -0.14323345
I        3.18439629       0.04703849       2.94505815        3       0.00187058      -0.12014541       0.04648601
Cl      11.51408277       3.16268859       2.86285678        4      -0.10698192       0.04999916       0.13595423
Cs       0.03407059      -0.04414687       5.90090340        5      -0.03111480      -0.04223919      -0.00425953
Sn       3.17911482       2.93392293       8.67934709        6       0.11356556       0.96061298       0.63843881
Cl       3.09431416       3.03851125       5.87492403        7      -0.00551821      -0.00709405       0.30994060
Cl       3.42083541      11.46252166       9.10059030        8       0.05464751       1.25123736       0.02893643
I       -0.09681138       3.01171966       9.08239545        9       0.41915739       0.06277615      -0.11423116
Cs      11.89474776       5.88917336      -0.04521284       10      -0.00402788      -0.07813066       0.03239653
Sn       3.14397511       8.61106201       2.69245763       11      -0.10807866       0.37742577       0.05697917
Cl       3.40921796       8.74017230       0.02626290       12      -0.02736173      -0.09785723       0.48509600
Cl       3.16082751       5.96798516       3.00736160       13      -0.03984342       0.12625969      -0.02258381
I       -0.02303919       8.87559263       2.89006198       14       0.77704859      -0.11289688      -0.04299506
Cs       0.03050758       5.85432495       5.79788580       15      -0.03602538      -0.00040357       0.01449084
Sn       3.24000387       9.02636088       9.10112709       16      -0.11856420      -1.21692635       0.25380864
I        3.27348235       8.91023238       6.18623283       17      -0.00326711       0.02576840      -0.72457209
Cl       3.29792555       5.72852043       8.82497033       18      -0.05944626      -0.83201140      -0.13728394
I        0.12367813       8.77351830       9.09069184       19      -0.23387474       0.05198675       0.00761258
Cs       5.98824345       0.05548324      11.84408436       20      -0.07626426      -0.02239416      -0.00995337
Sn       8.82967099       3.01752421       2.88812757       21       0.42249491       0.67330185       0.39133695
Cl       8.91433750       3.29826483       0.40652389       22      -0.14288208      -0.04778534      -0.50737045
I        9.08463264       0.11642700       2.91859393       23      -0.10662921      -0.63073575      -0.00781808
Cl       5.62089544       3.23320008       3.19110575       24       0.19545654      -0.00464157       0.04748600
Cs       5.88385476       0.26927020       6.12671093       25       0.02676989      -0.03842262      -0.02412252
Sn       8.76218269       3.11261937       8.83434877       26      -0.04318498       0.40427061       0.33796763
Cl       8.89881929       3.14737006       6.31851953       27      -0.05649277       0.05806396      -0.35080831
I        8.84668062       0.22944172       8.89376715       28      -0.04591036      -1.11992788       0.08182992
Cl       5.94221425       3.06339216       8.88906193       29      -0.33554607      -0.13700789      -0.11530862
Cs       5.92831143       5.89795612      12.03708155       30      -0.00945388      -0.02043101      -0.06909511
Sn       8.72602465       8.66977053       3.04269830       31       0.55527679      -0.28760607       0.23659577
I        8.85246576       8.79978065      12.03700639       32       0.04740676       0.04734148       0.18567820
Cl       8.73235325       5.94155227       3.11013217       33       0.04935663       0.33561052       0.03697783
Cl       6.27107636       8.57410267       2.85211146       34      -1.18113293      -0.00899721      -0.01697927
Cs       6.04891151       5.91517994       5.96758841       35      -0.01617475      -0.04367533       0.05059668
Sn       8.70906903       8.62731349       9.13639949       36       0.07879547      -0.13523654      -0.48617336
I        8.78845754       8.81740825       6.09364768       37       0.01275195       0.06619246      -0.13204699
Cl       8.59588879       5.85346867       9.01402237       38      -0.02371289       0.77848306       0.06738014
Cl       6.02641482       8.82222610       9.14169133       39       0.22659666      -0.01298080       0.06019538
