Cs Pb I  Cs Pb I  Cs Ge I  Cs Ge I  Cs Ge I  Cs Pb I  Cs Ge I  Cs Ge I 
 1.0000000000000000
    12.4727979347057474    0.0000000000000000    0.0000000000000000
     0.0000000000000000   12.4727979347057474    0.0000000000000000
     0.0000000000000000    0.0000000000000000   12.4727979347057474
 Cs  Pb  I   Cs  Pb  I   Cs  Ge  I   Cs  Ge  I   Cs  Ge  I   Cs  Pb  I   Cs  Ge  I   Cs  Ge  I  
   1   1   3   1   1   3   1   1   3   1   1   3   1   1   3   1   1   3   1   1   3   1   1   3
Cartesian
  0.0000000000000000  0.0000000000000000  0.0000000000000000
  3.1181994836764368  3.1181994836764368  3.1181994836764368
  3.1181994836764368  3.1181994836764368  0.0000000000000000
  3.1181994836764368  0.0000000000000000  3.1181994836764368
  0.0000000000000000  3.1181994836764368  3.1181994836764368
  0.0000000000000000  0.0000000000000000  6.2363989673528728
  3.1181994836764368  3.1181994836764368  9.3545984510293128
  3.1181994836764368  3.1181994836764368  6.2363989673528728
  3.1181994836764368  0.0000000000000000  9.3545984510293128
  0.0000000000000000  3.1181994836764368  9.3545984510293128
  0.0000000000000000  6.2363989673528728  0.0000000000000000
  3.1181994836764368  9.3545984510293128  3.1181994836764368
  3.1181994836764368  9.3545984510293128  0.0000000000000000
  3.1181994836764368  6.2363989673528728  3.1181994836764368
  0.0000000000000000  9.3545984510293128  3.1181994836764368
  0.0000000000000000  6.2363989673528728  6.2363989673528728
  3.1181994836764368  9.3545984510293128  9.3545984510293128
  3.1181994836764368  9.3545984510293128  6.2363989673528728
  3.1181994836764368  6.2363989673528728  9.3545984510293128
  0.0000000000000000  9.3545984510293128  9.3545984510293128
  6.2363989673528728  0.0000000000000000  0.0000000000000000
  9.3545984510293128  3.1181994836764368  3.1181994836764368
  9.3545984510293128  3.1181994836764368  0.0000000000000000
  9.3545984510293128  0.0000000000000000  3.1181994836764368
  6.2363989673528728  3.1181994836764368  3.1181994836764368
  6.2363989673528728  0.0000000000000000  6.2363989673528728
  9.3545984510293128  3.1181994836764368  9.3545984510293128
  9.3545984510293128  3.1181994836764368  6.2363989673528728
  9.3545984510293128  0.0000000000000000  9.3545984510293128
  6.2363989673528728  3.1181994836764368  9.3545984510293128
  6.2363989673528728  6.2363989673528728  0.0000000000000000
  9.3545984510293128  9.3545984510293128  3.1181994836764368
  9.3545984510293128  9.3545984510293128  0.0000000000000000
  9.3545984510293128  6.2363989673528728  3.1181994836764368
  6.2363989673528728  9.3545984510293128  3.1181994836764368
  6.2363989673528728  6.2363989673528728  6.2363989673528728
  9.3545984510293128  9.3545984510293128  9.3545984510293128
  9.3545984510293128  9.3545984510293128  6.2363989673528728
  9.3545984510293128  6.2363989673528728  9.3545984510293128
  6.2363989673528728  9.3545984510293128  9.3545984510293128
