Cs Sn Cl Cs Sn Cl Cs Sn Cl K  Sn Cl Cs Sn Cl Cs Sn Cl K  Sn Cl Cs Sn Cl
 1.0000000000000000
    11.9600040969892643    0.0000000000000000    0.0000000000000000
     0.0000000000000000   11.9600040969892643    0.0000000000000000
     0.0000000000000000    0.0000000000000000   11.9600040969892643
 Cs  Sn  Cl  Cs  Sn  Cl  Cs  Sn  Cl  K   Sn  Cl  Cs  Sn  Cl  Cs  Sn  Cl  K   Sn  Cl  Cs  Sn  Cl 
   1   1   3   1   1   3   1   1   3   1   1   3   1   1   3   1   1   3   1   1   3   1   1   3
Cartesian
  0.0000000000000000  0.0000000000000000  0.0000000000000000
  2.9900010242473161  2.9900010242473161  2.9900010242473161
  2.9900010242473161  2.9900010242473161  0.0000000000000000
  2.9900010242473161  0.0000000000000000  2.9900010242473161
  0.0000000000000000  2.9900010242473161  2.9900010242473161
  0.0000000000000000  0.0000000000000000  5.9800020484946312
  2.9900010242473161  2.9900010242473161  8.9700030727419477
  2.9900010242473161  2.9900010242473161  5.9800020484946312
  2.9900010242473161  0.0000000000000000  8.9700030727419477
  0.0000000000000000  2.9900010242473161  8.9700030727419477
  0.0000000000000000  5.9800020484946312  0.0000000000000000
  2.9900010242473161  8.9700030727419477  2.9900010242473161
  2.9900010242473161  8.9700030727419477  0.0000000000000000
  2.9900010242473161  5.9800020484946312  2.9900010242473161
  0.0000000000000000  8.9700030727419477  2.9900010242473161
  0.0000000000000000  5.9800020484946312  5.9800020484946312
  2.9900010242473161  8.9700030727419477  8.9700030727419477
  2.9900010242473161  8.9700030727419477  5.9800020484946312
  2.9900010242473161  5.9800020484946312  8.9700030727419477
  0.0000000000000000  8.9700030727419477  8.9700030727419477
  5.9800020484946312  0.0000000000000000  0.0000000000000000
  8.9700030727419477  2.9900010242473161  2.9900010242473161
  8.9700030727419477  2.9900010242473161  0.0000000000000000
  8.9700030727419477  0.0000000000000000  2.9900010242473161
  5.9800020484946312  2.9900010242473161  2.9900010242473161
  5.9800020484946312  0.0000000000000000  5.9800020484946312
  8.9700030727419477  2.9900010242473161  8.9700030727419477
  8.9700030727419477  2.9900010242473161  5.9800020484946312
  8.9700030727419477  0.0000000000000000  8.9700030727419477
  5.9800020484946312  2.9900010242473161  8.9700030727419477
  5.9800020484946312  5.9800020484946312  0.0000000000000000
  8.9700030727419477  8.9700030727419477  2.9900010242473161
  8.9700030727419477  8.9700030727419477  0.0000000000000000
  8.9700030727419477  5.9800020484946312  2.9900010242473161
  5.9800020484946312  8.9700030727419477  2.9900010242473161
  5.9800020484946312  5.9800020484946312  5.9800020484946312
  8.9700030727419477  8.9700030727419477  8.9700030727419477
  8.9700030727419477  8.9700030727419477  5.9800020484946312
  8.9700030727419477  5.9800020484946312  8.9700030727419477
  5.9800020484946312  8.9700030727419477  8.9700030727419477
