40
Lattice="12.443783544543896 0.0 0.0 0.009079511861006324 12.377307507066364 0.0 -0.002892247371828069 0.009130397739431178 12.443779858796894" Properties=species:S:1:pos:R:3:spacegroup_kinds:I:1:forces:R:3 spacegroup="P 1" unit_cell=conventional candidate_id=72c554ce3f335122 formula=CsSnCl0.15I0.853 config_index=0 rattle_stdev=0.0 method=PBE fidelity=phase2_force energy=-116.53221228681112 stress="-0.000697970271581321 -9.507221215772047e-05 1.2890745145264217e-05 -9.507221215772047e-05 0.0002680067608913369 -9.584313342184768e-05 1.2890745145264217e-05 -9.584313342184768e-05 -0.0006976590093717237" pbc="T T T"
Cs       0.00680121       0.03969624       0.01802525        0       0.00021292       0.00102066      -0.00364051
Sn       3.43731869       3.10888679       3.09273830        1      -0.13128654       0.02053610      -0.01970983
I        3.18329346       3.16672964      12.42812814        2      -0.00077347       0.00455197       0.00492283
I        3.17510636       0.00223500       3.04607653        3      -0.00302799       0.00000617       0.00302257
I       12.23776298       3.20885712       3.11156934        4      -0.03172734       0.04953456      -0.00148769
Cs       0.04243749      12.38184718       6.18709393        5      -0.00391913       0.00000363       0.00392355
Sn       3.12396322       3.41853081       9.32619087        6       0.01797168      -0.13254051       0.00297948
I        3.17695608       3.16629568       6.20234139        7       0.00193441      -0.00554397       0.00772597
I        3.11313139      12.18758415       9.45104091        8       0.00240433      -0.02965413       0.05330850
I        0.03770891       3.16547792       9.33138904        9      -0.13327255      -0.00524483      -0.00198001
Cs       0.02513259       6.15490332       0.01255903       10      -0.00901179      -0.00268369       0.00446250
Sn       3.13530561       9.27273424       2.78613233       11       0.02000868      -0.02044415       0.13133906
Cl       3.12537089       9.25267584       0.21516824       12       0.00059026      -0.02461899      -0.08402546
I        3.18550240       6.19088446       3.04022161       13       0.00318609      -0.00000516      -0.00320609
I        0.02560080       9.21779750       3.04581255       14      -0.00772154       0.00554421      -0.00194744
Cs       0.04828650       6.19318580       6.17670758       15      -0.00063634       0.00000005       0.00063376
Sn       3.11271915       9.15935605       9.46368834       16      -0.00379126       0.20638214      -0.20184667
I        3.11555442       9.17545100       6.42953944       17       0.00143658      -0.04951156       0.03174727
Cl       3.11862105       5.99564862       9.35427017       18      -0.00500763       0.06876348       0.02702101
I        0.01666617       9.22834001       9.39682022       19      -0.07554787      -0.03448568       0.03751418
Cs       6.24386631      12.38642632      12.42799626       20      -0.00165661       0.00000251       0.00165735
Sn       9.20362613       3.22717988       3.11368595       21       0.20145902      -0.20651960       0.00441366
I        9.27155479       3.16378558       0.01158024       22      -0.03682682       0.03103272      -0.07687274
I        9.21405175       0.19894383       3.11549805       23      -0.05328460       0.02969670      -0.00244661
Cl       6.00829442       3.12706650       3.10325724       24       0.08390751       0.02454785      -0.00063313
Cs       6.21147237      12.34218472       6.21511364       25       0.00364630      -0.00101825      -0.00021065
Sn       9.32773446       3.11682292       9.32802690       26       0.00513593       0.01823961      -0.00881470
I        9.26972402       3.16041858       6.20980420       27      -0.03750316       0.03457099       0.07550542
I        9.33039841       0.00684800       9.33310489       28       0.00066729       0.00000001      -0.00065886
I        6.20738822       3.18269423       9.32416411       29       0.11618495      -0.01146665      -0.00301517
Cs       6.24090531       6.19777141      12.42641787       30       0.00297354      -0.00000249      -0.00296997
Sn       9.34533840       8.96789292       3.09826267       31      -0.00325849       0.13251939      -0.01766675
I        9.34825487       9.20146547       0.01466605       32       0.00308199       0.01137703      -0.11619572
Cl       9.31536696       6.39080101       3.10548877       33      -0.02706970      -0.06874715       0.00501185
I        6.24360060       9.22192587       3.03802510       34      -0.00493826      -0.00454142       0.00077146
Cs       6.21245593       6.22696347       6.20126942       35      -0.00445440       0.00268913       0.00901082
Sn       9.34227341       9.27418048       9.33805138       36       0.00840495      -0.01824943      -0.00551437
I        9.33960858       9.22321397       6.18432923       37       0.00195939       0.00534204       0.13325927
I        9.33691727       6.19550030       9.33112625       38       0.00717547      -0.00000553      -0.00714084
I        6.21488625       9.22042489       9.39643588       39       0.07684771      -0.03106226       0.03687288
40
Lattice="12.443783544543896 0.0 0.0 0.009079511861006324 12.377307507066364 0.0 -0.002892247371828069 0.009130397739431178 12.443779858796894" Properties=species:S:1:pos:R:3:spacegroup_kinds:I:1:forces:R:3 spacegroup="P 1" unit_cell=conventional candidate_id=72c554ce3f335122 formula=CsSnCl0.15I0.853 config_index=1 rattle_stdev=0.08 method=PBE fidelity=phase2_force energy=-115.93831835445096 stress="-0.002053807910127769 -0.000189701706483908 2.760048664915056e-05 -0.000189701706483908 -0.0008603847770483733 -3.2161747667467976e-05 2.760048664915056e-05 -3.2161747667467976e-05 -0.0036855497281502603" pbc="T T T"
Cs      -0.08011450      -0.03198897      -0.00647870        0      -0.02187471       0.04648860       0.01436401
Sn       3.33012399       3.01235994       3.04140015        1       0.44934803       0.36005361       0.18941079
I        3.28792911       3.31436648      12.49445733        2      -0.08174176      -0.10965073      -0.03822534
I        3.17324245      -0.01445011       2.97274695        3      -0.00597453       0.02168747       0.00258736
I       12.15178357       3.20196564       3.20563642        4       0.63759039       0.09231034       0.03159639
Cs      -0.08836985      12.48010269       6.27320483        5       0.03839647       0.04034950      -0.03387849
Sn       3.15554505       3.38751474       9.37326301        6       0.08091588      -0.40947453      -0.13836487
I        3.06229217       3.14040970       6.30258017        7       0.04571399       0.02931253      -0.14503815
I        3.05467198      12.30186296       9.52661322        8       0.00873054      -0.34298291      -0.02930389
I        0.01658869       3.15242085       9.25426046        9      -0.05490428      -0.00615187       0.03049428
Cs      -0.00227920       6.15881564      -0.02741153       10      -0.03351192      -0.04607264       0.01999417
Sn       2.95835325       9.29752118       2.65896022       11       0.83724289      -0.30403433       0.34105257
Cl       3.18372726       9.24404374       0.16315452       12      -0.11082051      -0.00805574      -0.35287606
I        3.05005788       6.16140654       2.91299187       13      -0.00622552       0.06819963       0.09445588
I        0.14404126       9.25575271       3.11892165       14      -0.78375998       0.02688660       0.03276278
Cs       0.12512412       6.19994921       6.31408605       15       0.01199819      -0.04794365      -0.02674791
Sn       3.18087057       9.09896522       9.28067800       16       0.22173604       0.41651868       0.31166423
I        3.12429351       9.13943835       6.39650165       17      -0.00447575      -0.02431400      -0.28611056
Cl       3.14413975       5.95235998       9.43016349       18      -0.02040147       0.41431915      -0.03869581
I        0.02878098       9.23449220       9.39206819       19       0.21784524      -0.01636891       0.02335463
Cs       6.23825521      12.34113440      12.45287669       20       0.01287307       0.02496961       0.01904865
Sn       9.26156283       3.26849588       3.19576841       21      -0.39022564      -0.28634322      -0.56482371
I        9.31316700       3.09419849       0.13162545       22      -0.01065282       0.09688977      -0.49110381
I        9.30736952       0.23829698       3.05691707       23      -0.08077040      -0.08686093       0.14790197
Cl       6.06271890       3.16778625       3.03625434       24      -0.48464456      -0.01923017       0.04845202
Cs       6.26328396      12.34318788       6.33988077       25      -0.03186374       0.01330124      -0.02665967
Sn       9.41050209       3.14383834       9.22381807       26      -0.12195634       0.28526167       0.31037858
I        9.18024048       3.26517979       6.16834684       27      -0.05901887      -0.01872256       0.54111200
I        9.29894847       0.09028548       9.33908211       28       0.03172917      -0.18953813      -0.04088271
I        6.21454319       3.18700682       9.35763987       29       0.06887996       0.00414277      -0.02333215
Cs       6.14268691       6.11060809      12.45178782       30       0.05468935       0.00864271       0.03152001
Sn       9.28290595       8.89940243       2.99267296       31      -0.12807408       0.53565329       0.23774067
I        9.38455740       9.28160746       0.12776483       32       0.00990305      -0.01311769      -0.40049607
Cl       9.30015232       6.39320985       2.95561544       33      -0.01619569      -0.35602216      -0.02842229
I        6.23425844       9.21172665       3.11019985       34       0.18464628      -0.06001670       0.01900577
Cs       6.10730615       6.21899941       6.21251340       35      -0.00747915      -0.02770671      -0.01054688
Sn       9.55257788       9.41464279       9.12719955       36      -0.49991570      -0.30638748       0.71478937
I        9.23667702       9.20947619       6.32836553       37       0.05795099       0.06713300      -0.62286011
I        9.38561292       6.19802234       9.21381327       38       0.00829244       0.17813701       0.07937155
I        6.23964151       9.31180232       9.35556834       39      -0.03056513      -0.04815954       0.06157428
40
Lattice="12.443783544543896 0.0 0.0 0.009079511861006324 12.377307507066364 0.0 -0.002892247371828069 0.009130397739431178 12.443779858796894" Properties=species:S:1:pos:R:3:spacegroup_kinds:I:1:forces:R:3 spacegroup="P 1" unit_cell=conventional candidate_id=72c554ce3f335122 formula=CsSnCl0.15I0.853 config_index=2 rattle_stdev=0.08 method=PBE fidelity=phase2_force energy=-116.02692600319959 stress="-0.000710186414379763 1.877849179736534e-05 7.696687741423134e-05 1.877849179736534e-05 -0.0032857055206469703 4.413420781654852e-06 7.696687741423134e-05 4.413420781654852e-06 -0.0015572927639906412" pbc="T T T"
Cs      -0.00221583      -0.04642888       0.16082740        0       0.00679202       0.02098822      -0.04438369
Sn       3.32076002       3.08278112       2.99194658        1       0.13893630       0.43153503       0.15809289
I        3.21336278       3.09647785      12.40013008        2      -0.03538413       0.04573823      -0.00210420
I        3.19883917       0.09830796       2.92055691        3      -0.03636578      -0.62050508       0.02125243
I       12.38608528       3.24837407       3.10111243        4      -0.33486843      -0.02262971      -0.04445383
Cs       0.01018783      12.30395419       6.14969659        5      -0.01717943       0.00758547       0.02985863
Sn       3.06652951       3.51624227       9.26401487        6       0.43570869      -0.88474795      -0.05188746
I        3.12987403       3.16168617       6.20870779        7       0.01083134      -0.07431882      -0.04944172
I        3.01847531      12.06368476       9.52402141        8       0.01565336       0.81536356       0.04633308
I        0.07072257       3.10981640       9.14828729        9      -0.31702813       0.01326017       0.05787670
Cs      -0.03784673       6.07262199       0.02002368       10       0.03007815      -0.00240158       0.00423432
Sn       3.09297007       9.33515382       2.77006715       11       0.24266043      -0.28064135       0.04962222
Cl       3.08692220       9.16985487       0.17494949       12      -0.00379607       0.00092583       0.18365199
I        3.24869361       6.11688465       3.21702443       13      -0.04075854       0.51786124      -0.08539640
I       -0.08641810       9.19866971       3.06319980       14       0.51269010       0.01203927       0.01441325
Cs       0.02009568       6.20005584       6.18523974       15      -0.00311862      -0.00356531      -0.01214483
Sn       3.09695666       9.26711075       9.49130226       16      -0.01105522      -0.63108423      -0.07118309
I        3.16016597       9.12782819       6.48816602       17      -0.01953031       0.03916718      -0.22697354
Cl       3.22512126       5.93724598       9.31540970       18      -0.04589179       0.76332968       0.03939631
I        0.10281931       9.02071141       9.41017447       19      -0.19707539      -0.04678978       0.04684589
Cs       6.32698308      12.24174042      12.48868754       20      -0.02305024       0.04327952      -0.03645457
Sn       9.16361710       3.03963643       3.10505254       21       0.19814271       0.25134941       0.16710387
I        9.15133178       3.20288787      -0.03267404       22       0.03815844       0.04890720       0.08285651
I        9.29865235       0.12939840       3.10949076       23      -0.02465273      -0.15411067      -0.01554459
Cl       5.99972202       3.29497226       3.07601420       24       0.10021831      -0.11017511      -0.04883282
Cs       6.16923996      12.23861538       6.23224156       25       0.02233875       0.00646173       0.01964286
Sn       9.41783603       3.14894579       9.38927373       26      -0.31663077      -0.04872757      -0.22854996
I        9.16147382       3.20632726       6.19219323       27       0.00577570      -0.03694142      -0.04257109
I        9.38201353      -0.07352955       9.48508398       28       0.02748288       0.46106348       0.00490350
I        6.22473709       3.22269186       9.27403682       29       0.13523319      -0.06663866       0.01253624
Cs       6.16067458       6.13526659      12.44276009       30      -0.02727694      -0.03584242       0.02883995
Sn       9.38822576       8.88189312       2.92083429       31      -0.44169042       0.22506925       0.66617777
I        9.40000928       9.17567861       0.00086092       32       0.00594565      -0.04050586      -0.11864917
Cl       9.13229321       6.38183750       3.18191388       33       0.04997114      -0.25952839      -0.10581825
I        6.27997965       9.38688007       3.04302194       34      -0.35193536       0.01676509      -0.06008038
Cs       6.21268332       6.19067916       6.23114802       35       0.00453168      -0.01982459      -0.03667107
Sn       9.27722413       9.26605588       9.37370844       36       0.18729542       0.09378736      -0.44698740
I        9.23759829       9.23184051       6.25250818       37       0.06157022       0.09042172      -0.04938383
I        9.32436910       6.29060584       9.21334518       38       0.06038864      -0.60147908       0.04843483
I        6.28416952       9.14895373       9.35251823       39      -0.04718357       0.03149970       0.10544796
40
Lattice="12.443783544543896 0.0 0.0 0.009079511861006324 12.377307507066364 0.0 -0.002892247371828069 0.009130397739431178 12.443779858796894" Properties=species:S:1:pos:R:3:spacegroup_kinds:I:1:forces:R:3 spacegroup="P 1" unit_cell=conventional candidate_id=72c554ce3f335122 formula=CsSnCl0.15I0.853 config_index=3 rattle_stdev=0.08 method=PBE fidelity=phase2_force energy=-115.79855230347604 stress="-0.0018324552109452205 -4.4533331867645386e-05 -0.00011549963917570221 -4.4533331867645386e-05 -0.0005791720030878583 -9.683029363553796e-06 -0.00011549963917570221 -9.683029363553796e-06 -0.0018265005940577433" pbc="T T T"
Cs      -0.09888227       0.20103647       0.02183041        0       0.03389037       0.04516581       0.02943960
Sn       3.41830499       3.11561660       3.16950168        1      -0.34674383      -0.25400456      -0.65226079
I        3.12876558       3.20905527      12.36613468        2       0.01388694       0.00311481      -0.10276639
I        3.28750285      -0.01573944       2.94160567        3       0.01610879      -0.18316490       0.01048111
I       12.18348016       3.07918246       3.00917146        4      -0.00989011       0.16237273       0.05043357
Cs       0.02449375      12.31380229       6.12663472        5      -0.02535398       0.01792706      -0.01675342
Sn       3.14501689       3.21411536       9.19256820        6       0.01821714       0.57759308       0.54240654
I        3.12001726       2.97055363       6.10020661        7      -0.03351857      -0.02995594       0.34382000
I        3.16622120      12.08527743       9.38780814        8      -0.05313695       0.72336323       0.07749599
I       -0.08248075       3.07031472       9.51272426        9       0.22431507       0.01955573      -0.05266251
Cs      -0.01300964       6.22663644      -0.13183603       10       0.03529429      -0.09872622       0.00658594
Sn       3.09600844       9.17677451       2.72171470       11       0.09249293       0.31543753       0.08109459
Cl       3.23783638       9.23425059       0.15807252       12      -0.04993686      -0.10624367       0.18134509
I        3.17249539       6.13657407       3.16135102       13      -0.02209890       0.21623185       0.01240333
I       -0.11420503       9.27047986       3.01828325       14       1.00157844       0.01765451      -0.03082739
Cs      -0.01240935       6.20694790       6.12412430       15      -0.02216279      -0.01785010       0.00252900
Sn       3.15693479       9.18996471       9.43398512       16      -0.13067589      -0.53383982       0.14844291
I        3.24180593       9.19279480       6.52646678       17      -0.03591448      -0.06222656      -0.53669471
Cl       3.17713950       6.04956830       9.30784568       18      -0.03088542      -0.54468991      -0.06603431
I        0.00871900       9.10155081       9.39084290       19      -0.20555388      -0.00224570       0.01177716
Cs       6.33977102      12.36519251      12.37585229       20      -0.04589069       0.01551851       0.00982159
Sn       9.05190320       3.10395596       3.08226009       21       0.48116081       0.20540757      -0.00357526
I        9.23839632       3.22067100       0.06298227       22      -0.10854058       0.00958317      -0.23779577
I        9.40583865       0.18536124       3.03442736       23      -0.20211698      -0.40012510       0.01603465
Cl       5.97280992       3.19474467       3.14280596       24       0.25016802       0.00112420       0.04491715
Cs       6.23376343      12.38395200       6.24052298       25       0.01373201      -0.03911006       0.00039127
Sn       9.34590537       3.08559568       9.27058550       26      -0.04708160      -0.07151985       0.02005705
I        9.39325291       3.09138297       6.18109799       27      -0.03734714       0.04614431       0.20514589
I        9.33710256       0.14118576       9.23875792       28      -0.02160322      -0.90653787       0.06333035
I        6.17549005       3.14882309       9.36891106       29      -0.10217122      -0.04178066      -0.06776972
Cs       6.19472574       6.20347120      12.49579428       30      -0.02730556      -0.03784206      -0.04535354
Sn       9.37853112       8.94979414       3.15871012       31      -0.15223805      -0.31884284       0.23041361
I        9.36626526       9.16628523       0.06699240       32       0.03138443       0.01287285      -0.06055652
Cl       9.24367710       6.27684512       3.24488750       33       0.03759764       0.25060462       0.00034786
I        6.47714665       9.16802785       2.97634316       34      -0.99553200       0.05975444       0.00995171
Cs       6.29689531       6.31862051       6.21091926       35       0.00785419      -0.00184340       0.01821220
Sn       9.34327288       9.21821876       9.48815531       36       0.07242749      -0.02362973      -0.28129751
I        9.30355591       9.19871522       6.29734858       37       0.01342900       0.01686158      -0.00890097
I        9.28462999       6.01417497       9.37955441       38      -0.00788204       0.99727215      -0.00801711
I        6.17294081       9.23702408       9.48414804       39       0.36645464      -0.04108027       0.06600465
