Cs Sn I  Cs Sn I  Cs Sn I  Cs Ge I  Cs Sn I  Cs Sn I  Cs Ge I  Cs Sn I 
 1.0000000000000000
    13.1543074504133433    0.0000000000000000    0.0000000000000000
     0.0000000000000000   13.1543074504133433    0.0000000000000000
     0.0000000000000000    0.0000000000000000   13.1543074504133433
 Cs  Sn  I   Cs  Sn  I   Cs  Sn  I   Cs  Ge  I   Cs  Sn  I   Cs  Sn  I   Cs  Ge  I   Cs  Sn  I  
   1   1   3   1   1   3   1   1   3   1   1   3   1   1   3   1   1   3   1   1   3   1   1   3
Cartesian
  0.0000000000000000  0.0000000000000000  0.0000000000000000
  3.2885768626033358  3.2885768626033358  3.2885768626033358
  3.2885768626033358  3.2885768626033358  0.0000000000000000
  3.2885768626033358  0.0000000000000000  3.2885768626033358
  0.0000000000000000  3.2885768626033358  3.2885768626033358
  0.0000000000000000  0.0000000000000000  6.5771537252066707
  3.2885768626033358  3.2885768626033358  9.8657305878100079
  3.2885768626033358  3.2885768626033358  6.5771537252066707
  3.2885768626033358  0.0000000000000000  9.8657305878100079
  0.0000000000000000  3.2885768626033358  9.8657305878100079
  0.0000000000000000  6.5771537252066707  0.0000000000000000
  3.2885768626033358  9.8657305878100079  3.2885768626033358
  3.2885768626033358  9.8657305878100079  0.0000000000000000
  3.2885768626033358  6.5771537252066707  3.2885768626033358
  0.0000000000000000  9.8657305878100079  3.2885768626033358
  0.0000000000000000  6.5771537252066707  6.5771537252066707
  3.2885768626033358  9.8657305878100079  9.8657305878100079
  3.2885768626033358  9.8657305878100079  6.5771537252066707
  3.2885768626033358  6.5771537252066707  9.8657305878100079
  0.0000000000000000  9.8657305878100079  9.8657305878100079
  6.5771537252066707  0.0000000000000000  0.0000000000000000
  9.8657305878100079  3.2885768626033358  3.2885768626033358
  9.8657305878100079  3.2885768626033358  0.0000000000000000
  9.8657305878100079  0.0000000000000000  3.2885768626033358
  6.5771537252066707  3.2885768626033358  3.2885768626033358
  6.5771537252066707  0.0000000000000000  6.5771537252066707
  9.8657305878100079  3.2885768626033358  9.8657305878100079
  9.8657305878100079  3.2885768626033358  6.5771537252066707
  9.8657305878100079  0.0000000000000000  9.8657305878100079
  6.5771537252066707  3.2885768626033358  9.8657305878100079
  6.5771537252066707  6.5771537252066707  0.0000000000000000
  9.8657305878100079  9.8657305878100079  3.2885768626033358
  9.8657305878100079  9.8657305878100079  0.0000000000000000
  9.8657305878100079  6.5771537252066707  3.2885768626033358
  6.5771537252066707  9.8657305878100079  3.2885768626033358
  6.5771537252066707  6.5771537252066707  6.5771537252066707
  9.8657305878100079  9.8657305878100079  9.8657305878100079
  9.8657305878100079  9.8657305878100079  6.5771537252066707
  9.8657305878100079  6.5771537252066707  9.8657305878100079
  6.5771537252066707  9.8657305878100079  9.8657305878100079
