Cs Pb I  Cs Pb Br I  Cs Pb Br I  Cs Pb I  Br I  Cs Pb I  Br Cs Pb Br I  Br Cs Pb I  Br Cs Pb I  Br
 1.0000000000000000
    13.0957590089310951    0.0000000000000000    0.0000000000000000
     0.0000000000000000   13.0957590089310951    0.0000000000000000
     0.0000000000000000    0.0000000000000000   13.0957590089310951
 Cs  Pb  I   Cs  Pb  Br  I   Cs  Pb  Br  I   Cs  Pb  I   Br  I   Cs  Pb  I   Br  Cs  Pb  Br  I   Br  Cs  Pb  I   Br  Cs  Pb  I   Br 
   1   1   3   1   1   2   1   1   1   2   1   1   1   1   1   1   1   1   2   1   1   1   1   1   1   1   1   1   2   1   1   1   2
Cartesian
  0.0000000000000000  0.0000000000000000  0.0000000000000000
  3.2739397522327738  3.2739397522327738  3.2739397522327738
  3.2739397522327738  3.2739397522327738  0.0000000000000000
  3.2739397522327738  0.0000000000000000  3.2739397522327738
  0.0000000000000000  3.2739397522327738  3.2739397522327738
  0.0000000000000000  0.0000000000000000  6.5478795044655467
  3.2739397522327738  3.2739397522327738  9.8218192566983209
  3.2739397522327738  3.2739397522327738  6.5478795044655467
  3.2739397522327738  0.0000000000000000  9.8218192566983209
  0.0000000000000000  3.2739397522327738  9.8218192566983209
  0.0000000000000000  6.5478795044655467  0.0000000000000000
  3.2739397522327738  9.8218192566983209  3.2739397522327738
  3.2739397522327738  9.8218192566983209  0.0000000000000000
  3.2739397522327738  6.5478795044655467  3.2739397522327738
  0.0000000000000000  9.8218192566983209  3.2739397522327738
  0.0000000000000000  6.5478795044655467  6.5478795044655467
  3.2739397522327738  9.8218192566983209  9.8218192566983209
  3.2739397522327738  9.8218192566983209  6.5478795044655467
  3.2739397522327738  6.5478795044655467  9.8218192566983209
  0.0000000000000000  9.8218192566983209  9.8218192566983209
  6.5478795044655467  0.0000000000000000  0.0000000000000000
  9.8218192566983209  3.2739397522327738  3.2739397522327738
  9.8218192566983209  3.2739397522327738  0.0000000000000000
  9.8218192566983209  0.0000000000000000  3.2739397522327738
  6.5478795044655467  3.2739397522327738  3.2739397522327738
  6.5478795044655467  0.0000000000000000  6.5478795044655467
  9.8218192566983209  3.2739397522327738  9.8218192566983209
  9.8218192566983209  3.2739397522327738  6.5478795044655467
  9.8218192566983209  0.0000000000000000  9.8218192566983209
  6.5478795044655467  3.2739397522327738  9.8218192566983209
  6.5478795044655467  6.5478795044655467  0.0000000000000000
  9.8218192566983209  9.8218192566983209  3.2739397522327738
  9.8218192566983209  9.8218192566983209  0.0000000000000000
  9.8218192566983209  6.5478795044655467  3.2739397522327738
  6.5478795044655467  9.8218192566983209  3.2739397522327738
  6.5478795044655467  6.5478795044655467  6.5478795044655467
  9.8218192566983209  9.8218192566983209  9.8218192566983209
  9.8218192566983209  9.8218192566983209  6.5478795044655467
  9.8218192566983209  6.5478795044655467  9.8218192566983209
  6.5478795044655467  9.8218192566983209  9.8218192566983209
