40
Lattice="11.717583969725206 0.0 0.0 0.00205343973427073 11.653479195228694 0.0 -0.0005920031032218233 -0.0015516236263857799 11.776948228997389" Properties=species:S:1:pos:R:3:spacegroup_kinds:I:1:forces:R:3 spacegroup="P 1" unit_cell=conventional occupancy="_JSON {\"0\": {\"Cs\": 1.0}, \"1\": {\"Pb\": 1.0}, \"2\": {\"I\": 1.0}, \"3\": {\"Cl\": 1.0}, \"4\": {\"Cl\": 1.0}, \"5\": {\"Cs\": 1.0}, \"6\": {\"Pb\": 1.0}, \"7\": {\"Cl\": 1.0}, \"8\": {\"Cl\": 1.0}, \"9\": {\"Cl\": 1.0}, \"10\": {\"Cs\": 1.0}, \"11\": {\"Pb\": 1.0}, \"12\": {\"Cl\": 1.0}, \"13\": {\"Cl\": 1.0}, \"14\": {\"I\": 1.0}, \"15\": {\"Cs\": 1.0}, \"16\": {\"Pb\": 1.0}, \"17\": {\"Br\": 1.0}, \"18\": {\"Cl\": 1.0}, \"19\": {\"Br\": 1.0}, \"20\": {\"Cs\": 1.0}, \"21\": {\"Pb\": 1.0}, \"22\": {\"Cl\": 1.0}, \"23\": {\"Cl\": 1.0}, \"24\": {\"Cl\": 1.0}, \"25\": {\"Cs\": 1.0}, \"26\": {\"Pb\": 1.0}, \"27\": {\"Cl\": 1.0}, \"28\": {\"I\": 1.0}, \"29\": {\"Cl\": 1.0}, \"30\": {\"Cs\": 1.0}, \"31\": {\"Pb\": 1.0}, \"32\": {\"Br\": 1.0}, \"33\": {\"Cl\": 1.0}, \"34\": {\"Cl\": 1.0}, \"35\": {\"Cs\": 1.0}, \"36\": {\"Pb\": 1.0}, \"37\": {\"Cl\": 1.0}, \"38\": {\"Cl\": 1.0}, \"39\": {\"Cl\": 1.0}}" candidate_id=e20572c7d264bfea formula=MAPbBr0.12Cl0.75I0.123 config_index=0 rattle_stdev=0.0 method=PBE fidelity=phase2_force energy=-135.2592316235134 stress="0.000920537307798009 -6.76561933187369e-05 -5.76952343341005e-05 -6.76561933187369e-05 0.0011893490631662228 9.682784327992832e-05 -5.76952343341005e-05 9.682784327992832e-05 0.000798084214564918" pbc="T T T"
Cs      11.67821028       0.04946513       0.01567821        0      -0.00904327      -0.03608283      -0.01355157
Pb       2.95587142       2.93219182       3.09239334        1       0.00210010      -0.01732214       0.04491570
I        2.92903469       2.91492068      11.77455450        2      -0.02136273      -0.01261510      -0.00123830
Cl       3.10441609       0.00807688       3.02113642        3      -0.00234965       0.03782182      -0.00415936
Cl       0.00704298       2.90663917       3.11651766        4      -0.05380283      -0.01376093      -0.00052274
Cs       0.10191810       0.17423607       5.86356206        5       0.03241592       0.00422399       0.01696526
Pb       2.96904625       2.94117398       8.67464616        6      -0.01569713       0.00690105      -0.04679081
Cl       2.91685297       2.90140997       5.88142520        7      -0.02439043      -0.01995606      -0.00049818
Cl       3.00294179       0.01560954       8.74158274        8      -0.01203525      -0.00309914      -0.00889394
Cl       0.00402055       3.07213599       8.66627535        9       0.00975443      -0.00657044       0.00415711
Cs      11.58982556       5.73968011      11.69847457       10      -0.04008578       0.03069304      -0.04569183
Pb       3.10106901       8.71341072       2.86814061       11       0.00917646       0.02225257       0.03732105
Cl       3.15579068       8.75134471       0.00183625       12       0.01845855       0.02037530      -0.04208591
Cl       3.11389347       5.82158299       3.02574168       13       0.01277563      -0.04173484       0.00360756
I       11.71615302       8.73648131       2.95026625       14       0.00533689       0.01238636      -0.01228344
Cs      11.71557498       5.64579702       5.94279314       15      -0.00030563       0.01636692       0.02547376
Pb       3.01597392       8.72380069       8.87560584       16      -0.00726736       0.00258654      -0.02920652
Br       3.08889059       8.74934817       5.87764466       17       0.01165699       0.01670884       0.03756483
Cl       2.99675977       5.82120158       8.74373620       18      -0.02135548       0.00551398      -0.00831340
Br      11.70607622       8.62318202       8.84349228       19       0.08127183      -0.01575814       0.01886257
Cs       5.86167342      11.61733833       0.14139646       20      -0.00485390      -0.07028112       0.02555363
Pb       8.76389965       2.94083176       2.98499369       21      -0.00506784       0.01154154       0.01572709
Cl       8.79762124       3.08060784       0.00153313       22       0.02048221      -0.00312009       0.06413109
Cl       8.61248687      11.65269015       3.02513648       23       0.00036979       0.10301152      -0.01062246
Cl       5.85995657       2.90553601       3.12101651       24       0.05556824      -0.01271779       0.00102030
Cs       5.76494856       0.09974645       5.74974533       25      -0.00958422      -0.02902011      -0.00233712
Pb       8.76245818       3.06639348       8.80047530       26       0.02554829       0.02170225      -0.00234844
Cl       8.79748547       3.07000847       5.89229656       27       0.01912626      -0.00167335      -0.07040843
I        8.76953333      11.64233205       8.81133617       28       0.00753686       0.08858387       0.00636363
Cl       5.86926813       3.07028588       8.65486107       29      -0.01175434       0.00418383      -0.01326769
Cs       5.93936133       5.82818605       0.02746444       30       0.00510099       0.05060561      -0.01380541
Pb       8.61504839       8.72358756       3.04392296       31      -0.00880290      -0.00179690      -0.04772502
Br       8.63784211       8.63057482       0.00808902       32      -0.00017525      -0.00364860       0.02548583
Cl       8.60799408       5.82363508       3.01697117       33      -0.00336467      -0.10715978      -0.01972707
Cl       5.86017675       8.75776202       2.92794506       34      -0.00783055       0.02814751      -0.02693600
Cs       5.86147439       5.72021546       5.84467353       35       0.00291120       0.03944070       0.01370979
Pb       8.66575524       8.56628167       8.71526211       36       0.03832460      -0.00931001       0.07880471
Cl       8.55673490       8.56899986       5.89336156       37      -0.02906403      -0.01997051      -0.04853397
Cl       8.76108670       5.81900323       8.80406137       38       0.02667948      -0.07469138       0.02296239
Cl       5.86345505       8.56247076       8.84502306       39      -0.09927037      -0.02293045       0.02288847
40
Lattice="11.717583969725206 0.0 0.0 0.00205343973427073 11.653479195228694 0.0 -0.0005920031032218233 -0.0015516236263857799 11.776948228997389" Properties=species:S:1:pos:R:3:spacegroup_kinds:I:1:forces:R:3 spacegroup="P 1" unit_cell=conventional occupancy="_JSON {\"0\": {\"Cs\": 1.0}, \"1\": {\"Pb\": 1.0}, \"2\": {\"I\": 1.0}, \"3\": {\"Cl\": 1.0}, \"4\": {\"Cl\": 1.0}, \"5\": {\"Cs\": 1.0}, \"6\": {\"Pb\": 1.0}, \"7\": {\"Cl\": 1.0}, \"8\": {\"Cl\": 1.0}, \"9\": {\"Cl\": 1.0}, \"10\": {\"Cs\": 1.0}, \"11\": {\"Pb\": 1.0}, \"12\": {\"Cl\": 1.0}, \"13\": {\"Cl\": 1.0}, \"14\": {\"I\": 1.0}, \"15\": {\"Cs\": 1.0}, \"16\": {\"Pb\": 1.0}, \"17\": {\"Br\": 1.0}, \"18\": {\"Cl\": 1.0}, \"19\": {\"Br\": 1.0}, \"20\": {\"Cs\": 1.0}, \"21\": {\"Pb\": 1.0}, \"22\": {\"Cl\": 1.0}, \"23\": {\"Cl\": 1.0}, \"24\": {\"Cl\": 1.0}, \"25\": {\"Cs\": 1.0}, \"26\": {\"Pb\": 1.0}, \"27\": {\"Cl\": 1.0}, \"28\": {\"I\": 1.0}, \"29\": {\"Cl\": 1.0}, \"30\": {\"Cs\": 1.0}, \"31\": {\"Pb\": 1.0}, \"32\": {\"Br\": 1.0}, \"33\": {\"Cl\": 1.0}, \"34\": {\"Cl\": 1.0}, \"35\": {\"Cs\": 1.0}, \"36\": {\"Pb\": 1.0}, \"37\": {\"Cl\": 1.0}, \"38\": {\"Cl\": 1.0}, \"39\": {\"Cl\": 1.0}}" candidate_id=e20572c7d264bfea formula=MAPbBr0.12Cl0.75I0.123 config_index=1 rattle_stdev=0.08 method=PBE fidelity=phase2_force energy=-134.53094481791763 stress="-0.0011525842771350984 1.6688200234294365e-05 -0.00010817083159514203 1.6688200234294365e-05 8.790422662392077e-06 -7.554665880983906e-05 -0.00010817083159514203 -7.554665880983906e-05 -0.002636979650523296" pbc="T T T"
Cs      11.59129457      -0.02222008      -0.00882574        0      -0.03086402       0.02023628       0.03115729
Pb       2.84867672       2.83566497       3.04105520        1       0.25468311       0.21195769       0.47222440
I        3.03367034       3.06255751      11.84088370        2      -0.12294114      -0.08759300      -0.15802105
Cl       3.10255218      -0.00860824       2.94780684        3      -0.03742448       0.06737810      -0.01575855
Cl      -0.07893643       2.89974769       3.21058474        4       0.37222541      -0.02952668       0.01365712
Cs      -0.02888924       0.27249159       5.94967296        5       0.09223375       0.03847358      -0.03894068
Pb       3.00062808       2.91015792       8.72171830        6       0.06540439      -0.03369259      -0.13391143
Cl       2.80218906       2.87552400       5.98166398        7       0.01472451      -0.00122016      -0.28233116
Cl       2.94448239       0.12988835       8.81715505        8      -0.01330482      -0.36134737      -0.04011291
Cl      -0.01709967       3.05907893       8.58914677        9       0.03741326      -0.01528616       0.03434058
Cs      11.56241377       5.74359244      11.65850401       10      -0.05950015      -0.00461687      -0.00034189
Pb       2.92411665       8.73819767       2.74096851       11       1.39318392      -0.22394630      -0.11156661
Cl       3.21414705       8.74271261      -0.05017747       12      -0.06451257       0.03133500      -0.06807752
Cl       2.97844894       5.79210506       2.89851194       13      -0.02500884      -0.02870866       0.07105476
I       11.83459349       8.77443653       3.02337536       14      -1.38331614       0.03543873       0.11253239
Cs      11.79241260       5.65256043       6.08017162       15       0.03827406      -0.00641091      -0.03832797
Pb       3.08412533       8.66340986       8.69259549       16       0.22605693       0.05915360       0.41763195
Br       3.09762968       8.71333552       5.84460686       17       0.00164438       0.00252948      -0.10794097
Cl       3.02227847       5.77791295       8.81962951       18      -0.04799306       0.36629891      -0.08757908
Br      11.71819102       8.62933421       8.83874025       19       0.38678480       0.00019597      -0.02337407
Cs       5.85606233      11.57204641       0.16627689       20       0.00962093      -0.04140554       0.05948197
Pb       8.82183635       2.98214777       3.06707615       21      -0.39327893      -0.23554402      -0.56002344
Cl       8.83923345       3.01102075       0.12157834       22       0.10505591       0.02868479      -0.21962723
Cl       8.70580464      11.69204330       2.96655551       23       0.00909322      -0.04878993       0.07540396
Cl       5.91438106       2.94625576       3.05401361       24      -0.27824961      -0.03994811       0.08240845
Cs       5.81676015       0.10074961       5.87451246       25      -0.05410759      -0.01497433      -0.08456909
Pb       8.84522581       3.09340889       8.69626647       26      -0.16097393       0.37932666       0.27681421
Cl       8.70800192       3.17476968       5.85083920       27       0.04892512      -0.03554148       0.36403132
I        8.73808339      11.72576953       8.81731339       28      -0.02109452      -0.13209092       0.00924362
Cl       5.87642309       3.07459847       8.68833683       29      -0.02629002      -0.02141586      -0.06317466
Cs       5.84114293       5.74102273       0.05283439       30       0.08927158       0.10142240       0.01516450
Pb       8.55261594       8.65509708       2.93833325       31       0.00757494       0.20578661       0.13114987
Br       8.67414464       8.71071681       0.12118779       32       0.01866552       0.00512943      -0.25236053
Cl       8.59277945       5.82604392       2.86709783       33       0.02556228       0.06986381       0.01729540
Cl       5.85083460       8.74756280       3.00011981       34       0.10803966       0.02035668       0.00049816
Cs       5.75632461       5.71225141       5.85591752       35       0.01186429       0.01516493      -0.02080324
Pb       8.87605971       8.70674397       8.50441029       36      -0.49832518      -0.53099277       1.31433383
Cl       8.45380334       8.55526208       6.03739785       37      -0.07253641      -0.01469939      -1.25299260
Cl       8.80978235       5.82152527       8.68674839       38       0.06688828       0.24468677       0.03689039
Cl       5.88821031       8.65384819       8.80415553       39      -0.10227973       0.00886405      -0.00486231
40
Lattice="11.717583969725206 0.0 0.0 0.00205343973427073 11.653479195228694 0.0 -0.0005920031032218233 -0.0015516236263857799 11.776948228997389" Properties=species:S:1:pos:R:3:spacegroup_kinds:I:1:forces:R:3 spacegroup="P 1" unit_cell=conventional occupancy="_JSON {\"0\": {\"Cs\": 1.0}, \"1\": {\"Pb\": 1.0}, \"2\": {\"I\": 1.0}, \"3\": {\"Cl\": 1.0}, \"4\": {\"Cl\": 1.0}, \"5\": {\"Cs\": 1.0}, \"6\": {\"Pb\": 1.0}, \"7\": {\"Cl\": 1.0}, \"8\": {\"Cl\": 1.0}, \"9\": {\"Cl\": 1.0}, \"10\": {\"Cs\": 1.0}, \"11\": {\"Pb\": 1.0}, \"12\": {\"Cl\": 1.0}, \"13\": {\"Cl\": 1.0}, \"14\": {\"I\": 1.0}, \"15\": {\"Cs\": 1.0}, \"16\": {\"Pb\": 1.0}, \"17\": {\"Br\": 1.0}, \"18\": {\"Cl\": 1.0}, \"19\": {\"Br\": 1.0}, \"20\": {\"Cs\": 1.0}, \"21\": {\"Pb\": 1.0}, \"22\": {\"Cl\": 1.0}, \"23\": {\"Cl\": 1.0}, \"24\": {\"Cl\": 1.0}, \"25\": {\"Cs\": 1.0}, \"26\": {\"Pb\": 1.0}, \"27\": {\"Cl\": 1.0}, \"28\": {\"I\": 1.0}, \"29\": {\"Cl\": 1.0}, \"30\": {\"Cs\": 1.0}, \"31\": {\"Pb\": 1.0}, \"32\": {\"Br\": 1.0}, \"33\": {\"Cl\": 1.0}, \"34\": {\"Cl\": 1.0}, \"35\": {\"Cs\": 1.0}, \"36\": {\"Pb\": 1.0}, \"37\": {\"Cl\": 1.0}, \"38\": {\"Cl\": 1.0}, \"39\": {\"Cl\": 1.0}}" candidate_id=e20572c7d264bfea formula=MAPbBr0.12Cl0.75I0.123 config_index=2 rattle_stdev=0.08 method=PBE fidelity=phase2_force energy=-134.61128941445145 stress="-0.0004713366191301004 -9.932408251411306e-05 -4.168237923983563e-05 -9.932408251411306e-05 -0.00039370801259707724 5.043446054146505e-05 -4.168237923983563e-05 5.043446054146505e-05 -0.00013079107273526375" pbc="T T T"
Cs      11.66919324      -0.03665999       0.15848036        0       0.03985360      -0.03188878      -0.09933031
Pb       2.83931275       2.90608616       2.99160162        1       0.63307065       0.32043140       0.45161133
I        2.95910401       2.84466889      11.74655644        2      -0.06239563       0.00323843      -0.16074167
Cl       3.12814890       0.10414983       2.89561680        3      -0.05602235      -0.54976870       0.02666201
Cl       0.15536528       2.94615611       3.10606074        4      -0.79065069      -0.05052709      -0.04466417
Cs       0.06966844       0.09634309       5.82616472        5       0.02765658       0.02043654       0.10858620
Pb       2.91161253       3.03888545       8.61247016        6       0.33099205      -0.04374396      -0.02421582
Cl       2.86977092       2.89680046       5.88779159        7      -0.02086988      -0.10612205      -0.18475752
Cl       2.90828571      -0.10828985       8.81456323        8      -0.01876360       0.27841826      -0.02218527
Cl       0.03703421       3.01647447       8.48317360        9      -0.14702575       0.04733378       0.08834637
Cs      11.52684624       5.65739878      11.70593922       10       0.00762825       0.07209691      -0.06021472
Pb       3.05873348       8.77583031       2.85207544       11       0.31190489      -0.23915231       0.19097624
Cl       3.11734199       8.66852374      -0.03838250       12       0.02749327       0.02201929       0.36589609
Cl       3.17708468       5.74758318       3.20254451       13      -0.08902369       0.42716266      -0.13698738
I       11.60413413       8.71735352       2.96765351       14       0.90074086       0.00047821       0.04785840
Cs      11.68738415       5.65266706       5.95132530       15       0.00524635       0.04300432       0.01638412
Pb       3.00021142       8.83155539       8.90321976       16      -0.04252616      -0.32705612      -0.14458613
Br       3.13350214       8.70172535       5.93627123       17      -0.04630755       0.11015515      -0.36334729
Cl       3.10325998       5.76279895       8.70487573       18      -0.07749379      -0.01521901       0.01335955
Br      11.79222936       8.41555342       8.85684654       19       0.00152199       0.02193923       0.03352169
Cs       5.94479020      11.47265242       0.20208774       20      -0.06562398       0.01216832      -0.01979743
Pb       8.72389062       2.75328831       2.97636028       21      -0.39281136       0.53648242       0.25986575
Cl       8.67739823       3.11971013      -0.04272115       22       0.11253069      -0.00192425       0.17650697
Cl       8.69708747      11.58314472       3.01912920       23       0.02124657       0.26958172      -0.04912778
Cl       5.85138417       3.07344177       3.09377347       24       0.46105766      -0.24927691      -0.06471342
Cs       5.72271615      -0.00382290       5.76687325       25       0.02610182      -0.00488184       0.02755839
Pb       8.85255975       3.09851634       8.86172213       26      -0.40698012      -0.12150847      -0.29163942
Cl       8.68923527       3.11591715       5.87468559       27       0.12108663      -0.14905894      -0.17643357
I        8.82114845      11.56195451       8.96331525       28       0.06734062       0.85678877       0.02366746
Cl       5.88661699       3.11028351       8.60473379       29       0.11826195      -0.06276212       0.04383923
Cs       5.85913060       5.76568124       0.04380666       30      -0.01183257      -0.01072861       0.00123400
Pb       8.65793575       8.63758776       2.86649458       31      -0.71915441      -0.31310172       0.59003710
Br       8.68959653       8.60478796      -0.00571612       32      -0.00026591      -0.04740369       0.07184021
Cl       8.42492034       5.81467157       3.09339627       33       0.14674194      -0.13298330      -0.14545689
Cl       5.89655581       8.92271622       2.93294190       34      -0.49095959       0.09938508      -0.08031565
Cs       5.86170178       5.68393116       5.87455213       35       0.01339144       0.02807636      -0.00194365
Pb       8.60070596       8.55815706       8.75091917       36       0.34725883       0.10042295      -0.40086354
Cl       8.45472461       8.57762640       5.96154051       37       0.05103582       0.07317176      -0.24625092
Cl       8.74853853       5.91410877       8.68628029       38       0.09861642      -0.91086351       0.05993337
Cl       5.93273832       8.49099960       8.80110541       39      -0.43290901       0.02895562       0.11929014
40
Lattice="11.717583969725206 0.0 0.0 0.00205343973427073 11.653479195228694 0.0 -0.0005920031032218233 -0.0015516236263857799 11.776948228997389" Properties=species:S:1:pos:R:3:spacegroup_kinds:I:1:forces:R:3 spacegroup="P 1" unit_cell=conventional occupancy="_JSON {\"0\": {\"Cs\": 1.0}, \"1\": {\"Pb\": 1.0}, \"2\": {\"I\": 1.0}, \"3\": {\"Cl\": 1.0}, \"4\": {\"Cl\": 1.0}, \"5\": {\"Cs\": 1.0}, \"6\": {\"Pb\": 1.0}, \"7\": {\"Cl\": 1.0}, \"8\": {\"Cl\": 1.0}, \"9\": {\"Cl\": 1.0}, \"10\": {\"Cs\": 1.0}, \"11\": {\"Pb\": 1.0}, \"12\": {\"Cl\": 1.0}, \"13\": {\"Cl\": 1.0}, \"14\": {\"I\": 1.0}, \"15\": {\"Cs\": 1.0}, \"16\": {\"Pb\": 1.0}, \"17\": {\"Br\": 1.0}, \"18\": {\"Cl\": 1.0}, \"19\": {\"Br\": 1.0}, \"20\": {\"Cs\": 1.0}, \"21\": {\"Pb\": 1.0}, \"22\": {\"Cl\": 1.0}, \"23\": {\"Cl\": 1.0}, \"24\": {\"Cl\": 1.0}, \"25\": {\"Cs\": 1.0}, \"26\": {\"Pb\": 1.0}, \"27\": {\"Cl\": 1.0}, \"28\": {\"I\": 1.0}, \"29\": {\"Cl\": 1.0}, \"30\": {\"Cs\": 1.0}, \"31\": {\"Pb\": 1.0}, \"32\": {\"Br\": 1.0}, \"33\": {\"Cl\": 1.0}, \"34\": {\"Cl\": 1.0}, \"35\": {\"Cs\": 1.0}, \"36\": {\"Pb\": 1.0}, \"37\": {\"Cl\": 1.0}, \"38\": {\"Cl\": 1.0}, \"39\": {\"Cl\": 1.0}}" candidate_id=e20572c7d264bfea formula=MAPbBr0.12Cl0.75I0.123 config_index=3 rattle_stdev=0.08 method=PBE fidelity=phase2_force energy=-134.39638999973303 stress="-0.0011920450320303498 1.216768124974231e-05 3.844271132714987e-06 1.216768124974231e-05 -0.0007484421919116459 0.00019049848720450706 3.844271132714987e-06 0.00019049848720450706 -3.066497868871692e-05" pbc="T T T"
Cs      11.57252680       0.21080536       0.01948337        0      -0.00886618       0.06888496       0.03815567
Pb       2.93685772       2.93892163       3.16915672        1      -0.22082645      -0.26740431      -1.05760974
I        2.87450681       2.95724631      11.71256105        2       0.02768108      -0.01813003      -0.07553528
Cl       3.21681258      -0.00989756       2.91666557        3       0.00121503      -0.15482218       0.04362154
Cl      -0.04723984       2.77696450       3.01411978        4       0.09567881       0.00946930       0.06921383
Cs       0.08397436       0.10619119       5.80310285        5      -0.04490713       0.02265862      -0.02213790
Pb       2.99009991       2.73675854       8.54102349        6       0.07216606       0.49350131       0.72986221
Cl       2.85991415       2.70566792       5.77929042        7      -0.06925987      -0.09801258       0.52082108
Cl       3.05603160      -0.08669718       8.67834996        8       0.00265379       0.45249347      -0.04346256
Cl      -0.11616912       2.97697280       8.84761056        9       0.33670521       0.00860971      -0.08699219
Cs      11.55168333       5.81141324      11.55407951       10      -0.01011198      -0.09567779      -0.04425359
Pb       3.06177184       8.61745100       2.80372299       11       0.13704722       0.33824285       0.10453876
Cl       3.26825617       8.73291945      -0.05525947       12      -0.01795427      -0.02964584       0.48047426
Cl       3.10088646       5.76727259       3.14687110       13      -0.01434139       0.21721453       0.01864272
I       11.57634720       8.78916368       2.92273695       14       1.53723519      -0.02983578      -0.07241736
Cs      11.65487913       5.65955912       5.89020986       15      -0.04690574      -0.00465199       0.04026355
Pb       3.06018955       8.75440935       8.84590261       16      -0.18416929      -0.55893186       0.10107642
Br       3.21514211       8.76669197       5.97457199       17      -0.00319070       0.03810492      -0.62199492
Cl       3.05527821       5.87512127       8.69731171       18      -0.05085874      -0.26164143      -0.07084283
Br      11.69812905       8.49639282       8.83751497       19      -0.09110992       0.01604991      -0.01027692
Cs       5.95757813      11.59610451       0.08925249       20      -0.07664633      -0.04113293       0.01997566
Pb       8.61217672       2.81760785       2.95356783       21       0.47371807       0.38490689      -0.02764691
Cl       8.76446278       3.13749326       0.05293516       22      -0.03712152      -0.08991367       0.01098151
Cl       8.80427377      11.63910756       2.94406579       23      -0.12556857      -0.13329205       0.00030672
Cl       5.82447208       2.97321419       3.16056523       24      -0.10234139      -0.08651088       0.05474385
Cs       5.78723962       0.14151372       5.77515466       25       0.00699822      -0.08840282      -0.01104161
Pb       8.78062909       3.03516624       8.74303390       26      -0.02451295       0.01461239       0.07133983
Cl       8.92101436       3.00097286       5.86359035       27      -0.02431567      -0.01703216       0.00845976
I        8.77623748      11.77666982       8.71698919       28      -0.02233836      -1.43580424       0.03730825
Cl       5.83736996       3.03641473       8.69960802       29      -0.29762388      -0.09588547      -0.13010668
Cs       5.89318176       5.83388584       0.09684085       30       0.00783779      -0.01075138      -0.06357378
Pb       8.64824111       8.70548878       3.10437041       31      -0.06359462      -0.25921381       0.24762184
Br       8.65585250       8.59539458       0.06041536       32       0.02638642       0.00417672       0.03886833
Cl       8.53630422       5.70967919       3.15636990       33       0.05473328       0.16473300      -0.02744683
Cl       6.09372280       8.70386400       2.86626312       34      -1.56070638       0.04569006      -0.10311872
Cs       5.94591377       5.81187251       5.85432337       35       0.00899501       0.04126071       0.05803417
Pb       8.66675471       8.51031995       8.86536604       36       0.08238260       0.11995295      -0.19227194
Cl       8.52068223       8.54450111       6.00638090       37      -0.00037871      -0.00395095      -0.08042474
Cl       8.70879942       5.63767790       8.85248952       38      -0.00460880       1.31854334       0.02196501
Cl       5.82150961       8.57906994       8.93273523       39       0.22200735       0.00932847       0.03373936
