40
Lattice="12.725998112156802 0.0 0.0 0.0 12.724272147248808 0.0 0.0 -1.0377310861165009e-13 12.725998112156812" Properties=species:S:1:pos:R:3:spacegroup_kinds:I:1:forces:R:3 spacegroup="P 1" unit_cell=conventional candidate_id=dfd1b1f3b27d8b82 formula=FAPb0.8Sn0.2I3 config_index=0 rattle_stdev=0.0 method=PBE fidelity=phase2_force energy=-112.9315667285123 stress="2.8885856691191537e-05 2.1219688354916526e-31 -8.132291056091687e-11 2.1219688354916526e-31 -6.721054364147164e-05 -5.48062869701162e-19 -8.132291056091687e-11 -5.48062869701162e-19 2.888585669119161e-05" pbc="T T T"
Cs      12.72599811      12.72103162      12.72599811        0       0.00000000      -0.01495273      -0.00000000
Pb       3.18149953       3.18106804       3.18149953        1       0.00031960       0.00028270       0.00031960
I        3.18149953       3.18106804      12.72027941        2       0.00000006      -0.00000204       0.02121740
I        3.18149953      12.70431124       3.18149953        3      -0.00000058       0.08159245      -0.00000058
I       12.72027941       3.18106804       3.18149953        4       0.02121740      -0.00000204       0.00000006
Cs      12.72599811      12.72103162       6.36299906        5       0.00000000      -0.01495044       0.00000000
Pb       3.18149953       3.18106804       9.54449858        6       0.00034835       0.00012357      -0.00034835
I        3.18149953       3.18106804       6.36871776        7       0.00000165      -0.00000128      -0.02122669
I        3.18149953      12.63936793       9.54449858        8      -0.00000089       0.27772306       0.00000089
I        0.00571871       3.18106804       9.54449858        9      -0.02121740      -0.00000204      -0.00000006
Cs      12.72599811       6.36537660      12.72599811       10       0.00000000       0.01494912      -0.00000000
Pb       3.18149953       9.54320411       3.18149953       11       0.00016535      -0.00037974       0.00016535
I        3.18149953       9.54320411      12.65585118       12      -0.00000119       0.00000253       0.22084826
I        3.18149953       6.38209698       3.18149953       13       0.00000043      -0.08162291       0.00000043
I       12.65585118       9.54320411       3.18149953       14       0.22084826       0.00000253      -0.00000119
Cs      12.72599811       6.36537660       6.36299906       15       0.00000000       0.01494695       0.00000000
Sn       3.18149953       9.54320411       9.54449858       16       0.00019527      -0.00018713      -0.00019527
I        3.18149953       9.54320411       6.43314599       17      -0.00000052       0.00000148      -0.22092882
I        3.18149953       6.44704029       9.54449858       18       0.00000021      -0.27781240      -0.00000021
I        0.07014694       9.54320411       9.54449858       19      -0.22084826       0.00000253       0.00000119
Cs       6.36299906      12.72103162      12.72599811       20       0.00000000      -0.01495044       0.00000000
Pb       9.54449858       3.18106804       3.18149953       21      -0.00034835       0.00012357       0.00034835
I        9.54449858       3.18106804       0.00571871       22      -0.00000006      -0.00000204      -0.02121740
I        9.54449858      12.63936793       3.18149953       23       0.00000089       0.27772306      -0.00000089
I        6.36871776       3.18106804       3.18149953       24      -0.02122669      -0.00000128       0.00000165
Cs       6.36299906      12.72103162       6.36299906       25       0.00000000      -0.01494678       0.00000000
Pb       9.54449858       3.18106804       9.54449858       26      -0.00031960       0.00028270      -0.00031960
I        9.54449858       3.18106804       6.35728035       27      -0.00000165      -0.00000128       0.02122669
I        9.54449858      12.70431124       9.54449858       28       0.00000058       0.08159245       0.00000058
I        6.35728035       3.18106804       9.54449858       29       0.02122669      -0.00000128      -0.00000165
Cs       6.36299906       6.36537660      12.72599811       30      -0.00000000       0.01494695       0.00000000
Sn       9.54449858       9.54320411       3.18149953       31      -0.00019527      -0.00018713       0.00019527
I        9.54449858       9.54320411       0.07014694       32       0.00000119       0.00000253      -0.22084826
I        9.54449858       6.44704029       3.18149953       33      -0.00000021      -0.27781240       0.00000021
I        6.43314599       9.54320411       3.18149953       34      -0.22092882       0.00000148      -0.00000052
Cs       6.36299906       6.36537660       6.36299906       35       0.00000000       0.01494317       0.00000000
Pb       9.54449858       9.54320411       9.54449858       36      -0.00016535      -0.00037974      -0.00016535
I        9.54449858       9.54320411       6.29285212       37       0.00000052       0.00000148       0.22092882
I        9.54449858       6.38209698       9.54449858       38      -0.00000043      -0.08162291      -0.00000043
I        6.29285212       9.54320411       9.54449858       39       0.22092882       0.00000148       0.00000052
40
Lattice="12.725998112156802 0.0 0.0 0.0 12.724272147248808 0.0 0.0 -1.0377310861165009e-13 12.725998112156812" Properties=species:S:1:pos:R:3:spacegroup_kinds:I:1:forces:R:3 spacegroup="P 1" unit_cell=conventional candidate_id=dfd1b1f3b27d8b82 formula=FAPb0.8Sn0.2I3 config_index=1 rattle_stdev=0.08 method=PBE fidelity=phase2_force energy=-112.56502502231052 stress="-0.0014063200230060827 2.991834079983682e-05 -3.019888844417074e-07 2.991834079983682e-05 -0.0006655873498001668 -6.838370785974944e-05 -3.019888844417074e-07 -6.838370785974944e-05 -0.0020594670982789533" pbc="T T T"
Cs      12.63908240      12.64934641      12.70149416        0      -0.01706075       0.00938774       0.03500974
Pb       3.07430484       3.08454119       3.13016138        1       0.25653438       0.24169736       0.22704662
I        3.28613518       3.32870487      12.78660860        2      -0.05594216      -0.02942700      -0.05047297
I        3.17963562      12.68762612       3.10816995        3       0.02150576       0.10790187      -0.00182888
I       12.63430000       3.17417656       3.27556661        4       0.51982792      -0.00581956       0.01693192
Cs      12.59519077      12.81928714       6.44910996        5       0.02696077       0.00776346      -0.04055843
Pb       3.21308136       3.15005197       9.59157072        6       0.06681316      -0.05624898      -0.10087266
I        3.06683562       3.15518206       6.46895654        7       0.03867395       0.02317933      -0.22926219
I        3.12304012      12.75364674       9.62007090        8      -0.00730393      -0.12354212       0.00274851
I       -0.01540152       3.16801097       9.46737000        9       0.09349943       0.00816070       0.02832474
Cs      12.69858633       6.36928893      12.68602755       10      -0.00478637      -0.00691977       0.02510466
Pb       3.00454717       9.56799106       3.05432743       11       0.47632578      -0.27186036      -0.13997876
I        3.23985590       9.53457201      12.60383746       12      -0.03713309       0.01975201       0.23836675
I        3.04605501       6.35261906       3.05426979       13       0.00824830      -0.03876175       0.06279420
I       12.77429164       9.58115933       3.25460863       14      -0.41812202       0.00777683       0.03645111
Cs      12.80283573       6.37214001       6.50037753       15       0.01317550      -0.01027950      -0.02110290
Sn       3.24965095       9.48281329       9.36148824       16       0.21309314       0.10643676       0.31473517
I        3.19023862       9.50719146       6.40010820       17       0.00459405      -0.01610283      -0.31984536
I        3.20701823       6.40375165       9.62039190       18      -0.01242946       0.05217799      -0.05216097
I        0.08226174       9.54935631       9.53974655       19      -0.02646818       0.01699414      -0.00560236
Cs       6.35738796      12.67573969      12.75087854       20       0.00996288       0.00461992       0.02964902
Pb       9.60243529       3.22238404       3.26358198       21      -0.42313472      -0.19138429      -0.45581639
I        9.58611079       3.11148095       0.12576392       22       0.04014421       0.01906192      -0.42579243
I        9.63781636      12.67872109       3.12291855       23      -0.00912707       0.12380373       0.09908873
I        6.42314225       3.22178778       3.11449663       24      -0.34322901      -0.00772547       0.05396839
Cs       6.41481064      12.72203477       6.48776618       25      -0.01789446      -0.00806839      -0.02530602
Pb       9.62726621       3.20808345       9.44028975       26      -0.17488069       0.24348272       0.32647936
I        9.45501504       3.28582925       6.31582299       27      -0.02937654      -0.02549886       0.42759268
I        9.51304864      12.78774872       9.55047580       28       0.01176356      -0.07951285      -0.02197523
I        6.36443531       3.18538063       9.57797434       29       0.01299608      -0.00019965      -0.01181917
Cs       6.26478065       6.27821328      12.75136806       30       0.00976410       0.00365068       0.03214884
Sn       9.48206614       9.47471363       3.07590982       31      -0.12473617       0.25517672       0.24568523
I        9.58080112       9.62334610       0.18324571       32       0.00440631      -0.00793187      -0.46027546
I        9.52928395       6.44944913       3.03162619       33       0.02937556      -0.19599619       0.01323293
I        6.42380384       9.53300488       3.25367427       34       0.04154452      -0.00133501      -0.00532551
Cs       6.25784928       6.35741255       6.37424304       35       0.00192824       0.00213151      -0.01460325
Pb       9.75480306       9.68366642       9.33364676       36      -0.32041145      -0.30796061       0.52719195
I        9.44156702       9.52946633       6.43688842       37       0.03500566       0.03811579      -0.45312171
I        9.59319423       6.38461903       9.42718561       38       0.01081891       0.08656342       0.05389040
I        6.31760738       9.63458154       9.50363105       39       0.07970063      -0.00528436      -0.00012909
40
Lattice="12.725998112156802 0.0 0.0 0.0 12.724272147248808 0.0 0.0 -1.0377310861165009e-13 12.725998112156812" Properties=species:S:1:pos:R:3:spacegroup_kinds:I:1:forces:R:3 spacegroup="P 1" unit_cell=conventional candidate_id=dfd1b1f3b27d8b82 formula=FAPb0.8Sn0.2I3 config_index=2 rattle_stdev=0.08 method=PBE fidelity=phase2_force energy=-112.39200930056728 stress="-0.0011938786587505936 4.4387913293925974e-05 1.2121884223222817e-05 4.4387913293925974e-05 -0.0014547246315282116 -4.726120676251602e-05 1.2121884223222817e-05 -4.726120676251602e-05 -0.0008192123351914684" pbc="T T T"
Cs      12.71698107      12.63490650      12.86880027        0       0.01742973      -0.02314135      -0.04689472
Pb       3.06494086       3.15496237       3.08070781        1       0.69448327       0.24651754       0.12959277
I        3.21156885       3.11081625      12.69228134        2      -0.03442026       0.02520531      -0.03073806
I        3.20523234      12.80038419       3.05597991        3      -0.00988016      -0.48586846       0.02931448
I       12.86860170       3.22058498       3.17104261        4      -0.93791295       0.02087108      -0.01840709
Cs      12.69374845      12.64313864       6.32560171        5      -0.01879554      -0.02704374       0.04425075
Pb       3.12406581       3.27877950       9.48232258        6       0.38122182       0.09501384       0.01083931
I        3.13441748       3.17645853       6.37508415        7       0.01999757      -0.08573334      -0.12096801
I        3.08684344      12.51546854       9.61747908        8      -0.00620475       0.74934586      -0.00149931
I        0.03873237       3.12540652       9.36139683        9      -0.19394100       0.00081526       0.02872995
Cs      12.66301879       6.28309527      12.73346276       10       0.02759197       0.03619506      -0.02473707
Pb       3.13916399       9.60562370       3.16543435       11       0.18807194      -0.21378325       0.03897222
I        3.14305084       9.46038314      12.61563243       12       0.01284517      -0.03325202       0.57683140
I        3.24469074       6.30809717       3.35830235       13      -0.02175814       0.40105498      -0.04889214
I       12.54383228       9.52407632       3.19888678       14       0.74953199      -0.01162169       0.02800009
Cs      12.69780729       6.37224665       6.37153121       15       0.00227037       0.02717978       0.01977072
Sn       3.16573703       9.65095882       9.57211250       16      -0.00819094      -0.48676523      -0.11145968
I        3.22611108       9.49558130       6.49177257       17      -0.02393024       0.06727727      -0.51341688
I        3.28799974       6.38863765       9.50563812       18      -0.02438617      -0.30577182       0.03034332
I        0.15630007       9.33557552       9.55785284       19      -0.30213461       0.00387161      -0.00783839
Cs       6.44611583      12.57634571      12.78668939       20      -0.02067854       0.01428269      -0.01982582
Pb       9.50448956       2.99352458       3.17286611       21      -0.15786588       0.18818208       0.12534466
I        9.42427557       3.22017033      -0.03853557       22       0.06193985       0.03348091       0.15726736
I        9.62909919      12.56982250       3.17549224       23       0.01596397       0.44855692      -0.00871202
I        6.36014537       3.34897380       3.15425649       24       0.27752257      -0.09956110      -0.01039866
Cs       6.32076665      12.61746227       6.38012698       25       0.02350620      -0.01747537       0.01829094
Pb       9.63460015       3.21319090       9.60574541       26      -0.32235014      -0.05792963      -0.23923285
I        9.43624839       3.22697672       6.33966938       27       0.04597667      -0.05608149      -0.04304748
I        9.59611370      12.62393369       9.69647767       28       0.03636660       0.52969092       0.01565318
I        6.37462921       3.22106567       9.49437130       29       0.07485356      -0.05620116       0.00467069
Cs       6.28276832       6.30287179      12.74234033       30      -0.02360736      -0.02270677      -0.00309836
Sn       9.58738594       9.45720431       3.00407115       31      -0.40155156      -0.18282479       0.53545209
I        9.59625300       9.51741725       0.05634180       32       0.01294377      -0.02902557      -0.23788755
I        9.36142484       6.43807678       3.25792463       33       0.07797984      -0.28769511      -0.05396192
I        6.46952505       9.70815831       3.18649637       34      -0.52155413       0.02896492      -0.04346153
Cs       6.36322645       6.32909230       6.39287766       35       0.00285002       0.00250469       0.00006346
Pb       9.47944930       9.53507951       9.58015564       36       0.09578852       0.08994181      -0.39067987
I        9.44248829       9.55183066       6.36103107       37       0.05825788       0.06013371       0.06651198
I        9.53195042       6.47720252       9.42671751       38       0.05598859      -0.63480331       0.04205462
I        6.36213539       9.47173295       9.50058094       39       0.09201986       0.04751102       0.07183957
40
Lattice="12.725998112156802 0.0 0.0 0.0 12.724272147248808 0.0 0.0 -1.0377310861165009e-13 12.725998112156812" Properties=species:S:1:pos:R:3:spacegroup_kinds:I:1:forces:R:3 spacegroup="P 1" unit_cell=conventional candidate_id=dfd1b1f3b27d8b82 formula=FAPb0.8Sn0.2I3 config_index=3 rattle_stdev=0.08 method=PBE fidelity=phase2_force energy=-112.18761864432967 stress="-0.001540653680706672 8.96106874569242e-05 1.689415432205917e-05 8.96106874569242e-05 -0.0012698216249717568 3.508853752495031e-05 1.689415432205917e-05 3.508853752495031e-05 -0.0007940820837813303" pbc="T T T"
Cs      12.62031463      12.88237185      12.72980327        0       0.02311383       0.03435071       0.02766780
Pb       3.16248583       3.18779785       3.25826291        1      -0.25952526      -0.26658534      -0.63208890
I        3.12697165       3.22339367      12.65828595        2       0.02537236      -0.00188297      -0.05728450
I        3.29389602      12.68633680       3.07702867        3       0.02285125      -0.10735767       0.00597590
I       12.66599659       3.05139337       3.07910165        4       0.14380210       0.03553153       0.02875508
Cs      12.70805438      12.65298673       6.30253985        5      -0.03247743      -0.00117022      -0.01920424
Pb       3.20255319       2.97665259       9.41087591        6      -0.03230451       0.28015152       0.44353539
I        3.12456071       2.98532599       6.26658298        7      -0.03341831      -0.02721892       0.34181175
I        3.23458933      12.53706121       9.48126581        8      -0.03320375       0.79646850       0.01174190
I       -0.11447096       3.08590484       9.72583380        9       0.43047189       0.02271607      -0.01627928
Cs      12.68785589       6.43710973      12.58160305       10       0.01856873      -0.05004559      -0.01827571
Pb       3.14220236       9.44724438       3.11708190       11      -0.01182856       0.31935805      -0.04054281
I        3.29396502       9.52477886      12.59875546       12      -0.03930860      -0.04010900       0.66354210
I        3.16849252       6.32778659       3.30262894       13      -0.00965653       0.11546342       0.02486939
I       12.51604535       9.59588648       3.15397023       14       1.24296802      -0.06873488       0.01804910
Cs      12.66530226       6.37913871       6.31041578       15      -0.03478413       0.01273926       0.00987346
Sn       3.22571517       9.57381277       9.51479536       16      -0.16050868      -0.58059672       0.06327440
I        3.30775105       9.56054791       6.53007332       17      -0.00456311       0.00868411      -0.70985771
I        3.24001797       6.50095998       9.49807410       18      -0.01311299      -0.47576159      -0.03326926
I        0.06219977       9.41641492       9.53852127       19      -0.32772470       0.01807053       0.00806702
Cs       6.45890376      12.69979780      12.67385414       20      -0.03233683       0.00011486       0.00505264
Pb       9.39277566       3.05784412       3.15007367       21       0.37960436       0.19253180       0.04056093
I        9.51134012       3.23795346       0.05712074       22      -0.04946719      -0.02082070      -0.20393503
I        9.73628549      12.62578535       3.10042883       23      -0.09123337       0.08254795       0.01604019
I        6.33323327       3.24874621       3.22104825       24      -0.17850925      -0.01435609       0.02450818
Cs       6.38529012      12.76279889       6.38840839       25       0.01233703      -0.04267786       0.00513302
Pb       9.56266949       3.14984080       9.48705718       26      -0.14394305      -0.03628902       0.03392282
I        9.66802748       3.11203243       6.32857414       27       0.00259779       0.00035209       0.11431089
I        9.55120273      12.83864900       9.45015161       28      -0.03170999      -0.81617597       0.05394625
I        6.32538218       3.14719689       9.58924553       29      -0.16044436      -0.02918763      -0.04485987
Cs       6.31681948       6.37107639      12.79537452       30      -0.00767501      -0.01448131      -0.03189560
Sn       9.57769130       9.52510533       3.24194698       31      -0.12964216      -0.21366637       0.18682427
I        9.56250897       9.50802387       0.12247328       32       0.02007887      -0.01127720      -0.23538980
I        9.47280872       6.33308440       3.32089826       33       0.06101528      -0.02015440       0.00290826
I        6.66669204       9.48930609       3.11981759       34      -1.13556367       0.03149227       0.00404065
Cs       6.44743844       6.45703365       6.37264890       35       0.01896331       0.03504725       0.01541694
Pb       9.54549806       9.48724239       9.69460251       36       0.07391220       0.02589205      -0.21142123
I        9.50844591       9.51870537       6.40587147       37       0.00577652       0.01498303       0.10215205
I        9.49221130       6.20077166       9.59292674       38      -0.01335111       0.79803495       0.00122569
I        6.25090668       9.55980329       9.63221075       39       0.48229000       0.00976786       0.00240458
