Cs Pb Br Cs Pb Br Cs Ge Br Cs Ge Br Cs Ge Br Cs Pb Br Cs Ge Br Cs Pb Br
 1.0000000000000000
    11.6603322431224061    0.0000000000000000    0.0000000000000000
     0.0000000000000000   11.6603322431224061    0.0000000000000000
     0.0000000000000000    0.0000000000000000   11.6603322431224061
 Cs  Pb  Br  Cs  Pb  Br  Cs  Ge  Br  Cs  Ge  Br  Cs  Ge  Br  Cs  Pb  Br  Cs  Ge  Br  Cs  Pb  Br 
   1   1   3   1   1   3   1   1   3   1   1   3   1   1   3   1   1   3   1   1   3   1   1   3
Cartesian
  0.0000000000000000  0.0000000000000000  0.0000000000000000
  2.9150830607806015  2.9150830607806015  2.9150830607806015
  2.9150830607806015  2.9150830607806015  0.0000000000000000
  2.9150830607806015  0.0000000000000000  2.9150830607806015
  0.0000000000000000  2.9150830607806015  2.9150830607806015
  0.0000000000000000  0.0000000000000000  5.8301661215612022
  2.9150830607806015  2.9150830607806015  8.7452491823418050
  2.9150830607806015  2.9150830607806015  5.8301661215612022
  2.9150830607806015  0.0000000000000000  8.7452491823418050
  0.0000000000000000  2.9150830607806015  8.7452491823418050
  0.0000000000000000  5.8301661215612022  0.0000000000000000
  2.9150830607806015  8.7452491823418050  2.9150830607806015
  2.9150830607806015  8.7452491823418050  0.0000000000000000
  2.9150830607806015  5.8301661215612022  2.9150830607806015
  0.0000000000000000  8.7452491823418050  2.9150830607806015
  0.0000000000000000  5.8301661215612022  5.8301661215612022
  2.9150830607806015  8.7452491823418050  8.7452491823418050
  2.9150830607806015  8.7452491823418050  5.8301661215612022
  2.9150830607806015  5.8301661215612022  8.7452491823418050
  0.0000000000000000  8.7452491823418050  8.7452491823418050
  5.8301661215612022  0.0000000000000000  0.0000000000000000
  8.7452491823418050  2.9150830607806015  2.9150830607806015
  8.7452491823418050  2.9150830607806015  0.0000000000000000
  8.7452491823418050  0.0000000000000000  2.9150830607806015
  5.8301661215612022  2.9150830607806015  2.9150830607806015
  5.8301661215612022  0.0000000000000000  5.8301661215612022
  8.7452491823418050  2.9150830607806015  8.7452491823418050
  8.7452491823418050  2.9150830607806015  5.8301661215612022
  8.7452491823418050  0.0000000000000000  8.7452491823418050
  5.8301661215612022  2.9150830607806015  8.7452491823418050
  5.8301661215612022  5.8301661215612022  0.0000000000000000
  8.7452491823418050  8.7452491823418050  2.9150830607806015
  8.7452491823418050  8.7452491823418050  0.0000000000000000
  8.7452491823418050  5.8301661215612022  2.9150830607806015
  5.8301661215612022  8.7452491823418050  2.9150830607806015
  5.8301661215612022  5.8301661215612022  5.8301661215612022
  8.7452491823418050  8.7452491823418050  8.7452491823418050
  8.7452491823418050  8.7452491823418050  5.8301661215612022
  8.7452491823418050  5.8301661215612022  8.7452491823418050
  5.8301661215612022  8.7452491823418050  8.7452491823418050
