Cs Sn I  Cs Sn I  Cs Sn Cl I  Cs Sn I  Cs Sn I  Cs Sn I  Cs Sn I  Cs Sn I 
 1.0000000000000000
    13.4254121903202641    0.0000000000000000    0.0000000000000000
     0.0000000000000000   13.4254121903202641    0.0000000000000000
     0.0000000000000000    0.0000000000000000   13.4254121903202641
 Cs  Sn  I   Cs  Sn  I   Cs  Sn  Cl  I   Cs  Sn  I   Cs  Sn  I   Cs  Sn  I   Cs  Sn  I   Cs  Sn  I  
   1   1   3   1   1   3   1   1   1   2   1   1   3   1   1   3   1   1   3   1   1   3   1   1   3
Cartesian
  0.0000000000000000  0.0000000000000000  0.0000000000000000
  3.3563530475800651  3.3563530475800651  3.3563530475800651
  3.3563530475800651  3.3563530475800651  0.0000000000000000
  3.3563530475800651  0.0000000000000000  3.3563530475800651
  0.0000000000000000  3.3563530475800651  3.3563530475800651
  0.0000000000000000  0.0000000000000000  6.7127060951601312
  3.3563530475800651  3.3563530475800651 10.0690591427401959
  3.3563530475800651  3.3563530475800651  6.7127060951601312
  3.3563530475800651  0.0000000000000000 10.0690591427401959
  0.0000000000000000  3.3563530475800651 10.0690591427401959
  0.0000000000000000  6.7127060951601312  0.0000000000000000
  3.3563530475800651 10.0690591427401959  3.3563530475800651
  3.3563530475800651 10.0690591427401959  0.0000000000000000
  3.3563530475800651  6.7127060951601312  3.3563530475800651
  0.0000000000000000 10.0690591427401959  3.3563530475800651
  0.0000000000000000  6.7127060951601312  6.7127060951601312
  3.3563530475800651 10.0690591427401959 10.0690591427401959
  3.3563530475800651 10.0690591427401959  6.7127060951601312
  3.3563530475800651  6.7127060951601312 10.0690591427401959
  0.0000000000000000 10.0690591427401959 10.0690591427401959
  6.7127060951601312  0.0000000000000000  0.0000000000000000
 10.0690591427401959  3.3563530475800651  3.3563530475800651
 10.0690591427401959  3.3563530475800651  0.0000000000000000
 10.0690591427401959  0.0000000000000000  3.3563530475800651
  6.7127060951601312  3.3563530475800651  3.3563530475800651
  6.7127060951601312  0.0000000000000000  6.7127060951601312
 10.0690591427401959  3.3563530475800651 10.0690591427401959
 10.0690591427401959  3.3563530475800651  6.7127060951601312
 10.0690591427401959  0.0000000000000000 10.0690591427401959
  6.7127060951601312  3.3563530475800651 10.0690591427401959
  6.7127060951601312  6.7127060951601312  0.0000000000000000
 10.0690591427401959 10.0690591427401959  3.3563530475800651
 10.0690591427401959 10.0690591427401959  0.0000000000000000
 10.0690591427401959  6.7127060951601312  3.3563530475800651
  6.7127060951601312 10.0690591427401959  3.3563530475800651
  6.7127060951601312  6.7127060951601312  6.7127060951601312
 10.0690591427401959 10.0690591427401959 10.0690591427401959
 10.0690591427401959 10.0690591427401959  6.7127060951601312
 10.0690591427401959  6.7127060951601312 10.0690591427401959
  6.7127060951601312 10.0690591427401959 10.0690591427401959
