Rb Sn Br Rb Sn Br Rb Ge Br Rb Ge Br Rb Ge Br Rb Sn Br Rb Ge Br Rb Sn Br
 1.0000000000000000
    11.6910206774259020    0.0000000000000000    0.0000000000000000
     0.0000000000000000   11.6910206774259020    0.0000000000000000
     0.0000000000000000    0.0000000000000000   11.6910206774259020
 Rb  Sn  Br  Rb  Sn  Br  Rb  Ge  Br  Rb  Ge  Br  Rb  Ge  Br  Rb  Sn  Br  Rb  Ge  Br  Rb  Sn  Br 
   1   1   3   1   1   3   1   1   3   1   1   3   1   1   3   1   1   3   1   1   3   1   1   3
Cartesian
  0.0000000000000000  0.0000000000000000  0.0000000000000000
  2.9227551693564755  2.9227551693564755  2.9227551693564755
  2.9227551693564755  2.9227551693564755  0.0000000000000000
  2.9227551693564755  0.0000000000000000  2.9227551693564755
  0.0000000000000000  2.9227551693564755  2.9227551693564755
  0.0000000000000000  0.0000000000000000  5.8455103387129501
  2.9227551693564755  2.9227551693564755  8.7682655080694261
  2.9227551693564755  2.9227551693564755  5.8455103387129501
  2.9227551693564755  0.0000000000000000  8.7682655080694261
  0.0000000000000000  2.9227551693564755  8.7682655080694261
  0.0000000000000000  5.8455103387129501  0.0000000000000000
  2.9227551693564755  8.7682655080694261  2.9227551693564755
  2.9227551693564755  8.7682655080694261  0.0000000000000000
  2.9227551693564755  5.8455103387129501  2.9227551693564755
  0.0000000000000000  8.7682655080694261  2.9227551693564755
  0.0000000000000000  5.8455103387129501  5.8455103387129501
  2.9227551693564755  8.7682655080694261  8.7682655080694261
  2.9227551693564755  8.7682655080694261  5.8455103387129501
  2.9227551693564755  5.8455103387129501  8.7682655080694261
  0.0000000000000000  8.7682655080694261  8.7682655080694261
  5.8455103387129501  0.0000000000000000  0.0000000000000000
  8.7682655080694261  2.9227551693564755  2.9227551693564755
  8.7682655080694261  2.9227551693564755  0.0000000000000000
  8.7682655080694261  0.0000000000000000  2.9227551693564755
  5.8455103387129501  2.9227551693564755  2.9227551693564755
  5.8455103387129501  0.0000000000000000  5.8455103387129501
  8.7682655080694261  2.9227551693564755  8.7682655080694261
  8.7682655080694261  2.9227551693564755  5.8455103387129501
  8.7682655080694261  0.0000000000000000  8.7682655080694261
  5.8455103387129501  2.9227551693564755  8.7682655080694261
  5.8455103387129501  5.8455103387129501  0.0000000000000000
  8.7682655080694261  8.7682655080694261  2.9227551693564755
  8.7682655080694261  8.7682655080694261  0.0000000000000000
  8.7682655080694261  5.8455103387129501  2.9227551693564755
  5.8455103387129501  8.7682655080694261  2.9227551693564755
  5.8455103387129501  5.8455103387129501  5.8455103387129501
  8.7682655080694261  8.7682655080694261  8.7682655080694261
  8.7682655080694261  8.7682655080694261  5.8455103387129501
  8.7682655080694261  5.8455103387129501  8.7682655080694261
  5.8455103387129501  8.7682655080694261  8.7682655080694261
