Cs Sn I  Cl Cs Sn Cl I  Cs Sn Cl I  Cs Sn I  Cl I  Cs Sn Cl I  Cl Cs Sn Cl I  Cl Cs Sn I  Cl Cs Sn I  Cl
 1.0000000000000000
    12.5925818234387474    0.0000000000000000    0.0000000000000000
     0.0000000000000000   12.5925818234387474    0.0000000000000000
     0.0000000000000000    0.0000000000000000   12.5925818234387474
 Cs  Sn  I   Cl  Cs  Sn  Cl  I   Cs  Sn  Cl  I   Cs  Sn  I   Cl  I   Cs  Sn  Cl  I   Cl  Cs  Sn  Cl  I   Cl  Cs  Sn  I   Cl  Cs  Sn  I   Cl 
   1   1   2   1   1   1   2   1   1   1   2   1   1   1   1   1   1   1   1   1   1   1   1   1   1   1   1   1   1   1   2   1   1   1   2
Cartesian
  0.0000000000000000  0.0000000000000000  0.0000000000000000
  3.1481454558596869  3.1481454558596869  3.1481454558596869
  3.1481454558596869  3.1481454558596869  0.0000000000000000
  3.1481454558596869  0.0000000000000000  3.1481454558596869
  0.0000000000000000  3.1481454558596869  3.1481454558596869
  0.0000000000000000  0.0000000000000000  6.2962909117193728
  3.1481454558596869  3.1481454558596869  9.4444363675790584
  3.1481454558596869  3.1481454558596869  6.2962909117193728
  3.1481454558596869  0.0000000000000000  9.4444363675790584
  0.0000000000000000  3.1481454558596869  9.4444363675790584
  0.0000000000000000  6.2962909117193728  0.0000000000000000
  3.1481454558596869  9.4444363675790584  3.1481454558596869
  3.1481454558596869  9.4444363675790584  0.0000000000000000
  3.1481454558596869  6.2962909117193728  3.1481454558596869
  0.0000000000000000  9.4444363675790584  3.1481454558596869
  0.0000000000000000  6.2962909117193728  6.2962909117193728
  3.1481454558596869  9.4444363675790584  9.4444363675790584
  3.1481454558596869  9.4444363675790584  6.2962909117193728
  3.1481454558596869  6.2962909117193728  9.4444363675790584
  0.0000000000000000  9.4444363675790584  9.4444363675790584
  6.2962909117193728  0.0000000000000000  0.0000000000000000
  9.4444363675790584  3.1481454558596869  3.1481454558596869
  9.4444363675790584  3.1481454558596869  0.0000000000000000
  9.4444363675790584  0.0000000000000000  3.1481454558596869
  6.2962909117193728  3.1481454558596869  3.1481454558596869
  6.2962909117193728  0.0000000000000000  6.2962909117193728
  9.4444363675790584  3.1481454558596869  9.4444363675790584
  9.4444363675790584  3.1481454558596869  6.2962909117193728
  9.4444363675790584  0.0000000000000000  9.4444363675790584
  6.2962909117193728  3.1481454558596869  9.4444363675790584
  6.2962909117193728  6.2962909117193728  0.0000000000000000
  9.4444363675790584  9.4444363675790584  3.1481454558596869
  9.4444363675790584  9.4444363675790584  0.0000000000000000
  9.4444363675790584  6.2962909117193728  3.1481454558596869
  6.2962909117193728  9.4444363675790584  3.1481454558596869
  6.2962909117193728  6.2962909117193728  6.2962909117193728
  9.4444363675790584  9.4444363675790584  9.4444363675790584
  9.4444363675790584  9.4444363675790584  6.2962909117193728
  9.4444363675790584  6.2962909117193728  9.4444363675790584
  6.2962909117193728  9.4444363675790584  9.4444363675790584
