40
Lattice="12.481615150759529 0.0 0.0 0.004482852962245398 12.481614345736881 0.0 -0.0015326440136874256 0.0015331945715791045 12.4439142356852" Properties=species:S:1:pos:R:3:spacegroup_kinds:I:1:forces:R:3 spacegroup="P 1" unit_cell=conventional occupancy="_JSON {\"0\": {\"Cs\": 1.0}, \"1\": {\"Sn\": 1.0}, \"2\": {\"I\": 1.0}, \"3\": {\"I\": 1.0}, \"4\": {\"I\": 1.0}, \"5\": {\"Cs\": 1.0}, \"6\": {\"Sn\": 1.0}, \"7\": {\"I\": 1.0}, \"8\": {\"I\": 1.0}, \"9\": {\"I\": 1.0}, \"10\": {\"Cs\": 1.0}, \"11\": {\"Sn\": 1.0}, \"12\": {\"Cl\": 1.0}, \"13\": {\"I\": 1.0}, \"14\": {\"I\": 1.0}, \"15\": {\"Cs\": 1.0}, \"16\": {\"Sn\": 1.0}, \"17\": {\"I\": 1.0}, \"18\": {\"I\": 1.0}, \"19\": {\"I\": 1.0}, \"20\": {\"Cs\": 1.0}, \"21\": {\"Sn\": 1.0}, \"22\": {\"I\": 1.0}, \"23\": {\"I\": 1.0}, \"24\": {\"Cl\": 1.0}, \"25\": {\"Cs\": 1.0}, \"26\": {\"Sn\": 1.0}, \"27\": {\"I\": 1.0}, \"28\": {\"I\": 1.0}, \"29\": {\"I\": 1.0}, \"30\": {\"Cs\": 1.0}, \"31\": {\"Sn\": 1.0}, \"32\": {\"I\": 1.0}, \"33\": {\"Cl\": 1.0}, \"34\": {\"I\": 1.0}, \"35\": {\"Cs\": 1.0}, \"36\": {\"Sn\": 1.0}, \"37\": {\"I\": 1.0}, \"38\": {\"I\": 1.0}, \"39\": {\"I\": 1.0}}" candidate_id=e45cf3b9f3ba6012 formula=MASnCl0.14I0.863 config_index=0 rattle_stdev=0.0 method=PBE fidelity=phase2_force energy=-115.42489748221259 stress="0.00010354796264554694 -3.985661967808806e-05 1.4345012019371064e-05 -3.985661967808806e-05 0.000103576592173846 -1.435016504893126e-05 1.4345012019371064e-05 -1.435016504893126e-05 0.00020623855835870048" pbc="T T T"
Cs       0.01030367      12.47579143       0.04449369        0      -0.01418466       0.01418975      -0.00901745
Sn       3.48051722       3.12467801       3.09557716        1      -0.16105015      -0.00087025       0.00235106
I        3.22744398       3.11850315       0.02098018        2      -0.01837587      -0.00651016      -0.12371504
I        3.22430140      12.46665591       2.99044914        3      -0.01035971      -0.02254288      -0.00720043
I       12.25999113       3.24748029       3.11277383        4       0.05543995       0.03697763       0.00086671
Cs       0.05680233      12.42927607       6.17608674        5       0.00741089      -0.00741355       0.00889905
Sn       3.13170638       3.12018160       9.34962456        6       0.01900308      -0.00798593       0.00489622
I        3.21695570       3.12279519       6.19164983        7      -0.01331860      -0.00483018       0.12468080
I        3.12132864      12.46499861       9.46354093        8      -0.00366866       0.06693530       0.00654085
I        0.01206418       3.12055785       9.33542564        9      -0.00963402      -0.00352366      -0.00439777
Cs       0.02934258       6.22955789       0.02265275       10      -0.01324906      -0.01648380      -0.00799108
Sn       3.14080262       9.34416794       2.80216945       11       0.01586871      -0.01587441       0.25404563
Cl       3.12842558       9.35654943       0.00450958       12      -0.00261189       0.00261283      -0.00079472
I        3.21274375       6.23006505       2.98930890       13      -0.01165210       0.02465792      -0.00395225
I        0.01828487       9.26179063       2.99044914       14       0.02254660       0.01035162      -0.00720043
Cs       0.07561792       6.28069448       6.19285201       15       0.00852573       0.00485779       0.00560396
Sn       3.12244784       9.36252932       9.65112821       16      -0.00599986       0.00600202      -0.23299278
I        3.12233664       9.36264056       6.21848565       17      -0.00166435       0.00166495      -0.01186423
I        3.12546445       6.26042197       9.46407478       18      -0.00665043      -0.06889017       0.00410578
I        0.01997915       9.36476279       9.46354093       19      -0.06693398       0.00369270       0.00654085
Cs       6.25652998      12.45450915       0.02265275       20       0.01648856       0.01324314      -0.00799108
Sn       9.26704130       3.21572859       3.11454043       21       0.11684856      -0.11689053       0.00906777
I        9.27729830       3.20546791       0.02396547       22      -0.03115706       0.03116825      -0.14767131
I        9.23421467       0.22279036       3.11277383       23      -0.03699754      -0.05542666       0.00086671
Cl       6.02909165       3.17642719       3.10382096       24       0.08782883       0.01245592       0.00198919
Cs       6.20537677      12.40825219       6.19285201       25      -0.00486085      -0.00852399       0.00560396
Sn       9.34883211       3.13390841       9.32884096       26       0.01285254      -0.01285716      -0.01015967
I        9.27674854       3.20601786       6.19873799       27      -0.03570771       0.03572053       0.14819375
I        9.36553602      12.47067093       9.33542564       28       0.00352712       0.00963276      -0.00439777
I        6.24533274       3.12678031       9.33180348       29      -0.00007997      -0.00789084      -0.00766783
Cs       6.23821697       6.24564094       0.00648031       30       0.01376617      -0.01377112      -0.01317218
Sn       9.36017015       9.00221959       3.09557716       31       0.00092809       0.16104982       0.00235106
I        9.36643590       9.25529060       0.02098018       32       0.00651676       0.01837353      -0.12371504
Cl       9.30750563       6.45366392       3.10382096       33      -0.01248746      -0.08782435       0.00198919
I        6.25487948       9.27110837       2.98930890       34      -0.02465373       0.01166095      -0.00395225
Cs       6.18740239       6.29647377       6.20412096       35      -0.00803140       0.00803428       0.01144433
Sn       9.36479183       9.35102880       9.34962456       36       0.00797910      -0.01900595       0.00489622
I        9.36214762       9.26578042       6.19164983       37       0.00483496       0.01331686       0.12468080
I        9.35707485       6.23740501       9.33180348       38       0.00789087       0.00007713      -0.00766783
I        6.22455391       9.35839857       9.46407478       39       0.06889256       0.00662568       0.00410578
40
Lattice="12.481615150759529 0.0 0.0 0.004482852962245398 12.481614345736881 0.0 -0.0015326440136874256 0.0015331945715791045 12.4439142356852" Properties=species:S:1:pos:R:3:spacegroup_kinds:I:1:forces:R:3 spacegroup="P 1" unit_cell=conventional occupancy="_JSON {\"0\": {\"Cs\": 1.0}, \"1\": {\"Sn\": 1.0}, \"2\": {\"I\": 1.0}, \"3\": {\"I\": 1.0}, \"4\": {\"I\": 1.0}, \"5\": {\"Cs\": 1.0}, \"6\": {\"Sn\": 1.0}, \"7\": {\"I\": 1.0}, \"8\": {\"I\": 1.0}, \"9\": {\"I\": 1.0}, \"10\": {\"Cs\": 1.0}, \"11\": {\"Sn\": 1.0}, \"12\": {\"Cl\": 1.0}, \"13\": {\"I\": 1.0}, \"14\": {\"I\": 1.0}, \"15\": {\"Cs\": 1.0}, \"16\": {\"Sn\": 1.0}, \"17\": {\"I\": 1.0}, \"18\": {\"I\": 1.0}, \"19\": {\"I\": 1.0}, \"20\": {\"Cs\": 1.0}, \"21\": {\"Sn\": 1.0}, \"22\": {\"I\": 1.0}, \"23\": {\"I\": 1.0}, \"24\": {\"Cl\": 1.0}, \"25\": {\"Cs\": 1.0}, \"26\": {\"Sn\": 1.0}, \"27\": {\"I\": 1.0}, \"28\": {\"I\": 1.0}, \"29\": {\"I\": 1.0}, \"30\": {\"Cs\": 1.0}, \"31\": {\"Sn\": 1.0}, \"32\": {\"I\": 1.0}, \"33\": {\"Cl\": 1.0}, \"34\": {\"I\": 1.0}, \"35\": {\"Cs\": 1.0}, \"36\": {\"Sn\": 1.0}, \"37\": {\"I\": 1.0}, \"38\": {\"I\": 1.0}, \"39\": {\"I\": 1.0}}" candidate_id=e45cf3b9f3ba6012 formula=MASnCl0.14I0.863 config_index=1 rattle_stdev=0.08 method=PBE fidelity=phase2_force energy=-114.8976585396103 stress="-0.0013664680767711494 -9.79592461443496e-05 3.547026863308209e-05 -9.79592461443496e-05 -0.001355608322235561 -9.074883249715293e-05 3.547026863308209e-05 -9.074883249715293e-05 -0.0018311554668836317" pbc="T T T"
Cs      -0.07661204      12.40410622       0.01998974        0      -0.04597447       0.05260565       0.02009036
Sn       3.37332253       3.02815116       3.04423902        1       0.47531349       0.29980352       0.23663771
I        3.33207963       3.26613998       0.08730938        2      -0.07925215      -0.09185866      -0.19422947
I        3.22243750      12.44997079       2.91711956        3      -0.02239944       0.01256407      -0.00212389
I       12.17401172       3.24058881       3.20684092        4       0.81082188       0.08539756       0.03554720
Cs      -0.07400501      12.52753159       6.26219764        5       0.04313534       0.02856139      -0.03425173
Sn       3.16328821       3.08916554       9.39669670        6       0.10456146      -0.02729073      -0.20711366
I        3.10229180       3.09690922       6.29188861        7       0.02678862       0.00863304      -0.00522194
I        3.06286923      12.57927742       9.53911324        8      -0.01386714      -0.35376198       0.01560209
I       -0.00905604       3.10750079       9.25829705        9       0.05523332       0.01100646       0.01901386
Cs       0.00193080       6.23347021      -0.01731780       10      -0.03872933      -0.05006313       0.01165422
Sn       2.96385026       9.36895489       2.67499735       11       0.77480585      -0.29254718       0.06599351
Cl       3.18678195       9.34791733      -0.04750414       12      -0.09680594       0.01765529       0.00535926
I        3.07729923       6.20058712       2.86207916       13      -0.02001375       0.09346506       0.08631879
I        0.13672534       9.29974585       3.06355825       14      -0.69304334       0.03452936       0.01934503
Cs       0.15245554       6.28745789       6.33023049       15       0.03549806      -0.03055369      -0.01356749
Sn       3.19059926       9.30213850       9.46811787       16       0.23646487       0.09396126      -0.22525265
I        3.13107574       9.32662791       6.18544785       17      -0.01108002      -0.00048190       0.21810852
I        3.15098315       6.21713333       9.53996809       18      -0.03230685       0.29912146      -0.03572039
I        0.03209396       9.37091499       9.45878889       19       0.16307112       0.01886468      -0.01307879
Cs       6.25091888      12.40921723       0.04753318       20       0.04080445       0.02999735       0.01863190
Sn       9.32497801       3.25704459       3.19662289       21      -0.55819408      -0.19280485      -0.55583284
I        9.31891050       3.13588083       0.14401068       22      -0.00535616       0.09306606      -0.54604940
I        9.32753244       0.26214352       3.05419286       23      -0.06310031      -0.16743094       0.14751742
Cl       6.08351614       3.21714694       3.03681806       24      -0.53116150      -0.03920063       0.05475103
Cs       6.25718836      12.40925535       6.31761914       25      -0.03321029      -0.00242931      -0.03084044
Sn       9.43159974       3.16092382       9.22463213       26      -0.13167011       0.23834089       0.26851487
I        9.18726500       3.31077907       6.15728063       27      -0.06611906      -0.01187595       0.63481404
I        9.33408608      12.55410841       9.34140285       28       0.03895343      -0.15958725      -0.05281261
I        6.25248770       3.13109289       9.36527924       29      -0.04371950      -0.01162626      -0.01896844
Cs       6.13999857       6.15847762       0.03185026       30       0.06960697      -0.00387046       0.03622083
Sn       9.29773770       8.93372911       2.98998745       31      -0.15491042       0.61089430       0.25230344
I        9.40273843       9.33543259       0.13407895       32       0.01822545       0.00112352      -0.41983979
Cl       9.29229100       6.45607276       2.95394762       33      -0.00997850      -0.45343387      -0.03175994
I        6.24553732       9.26090914       3.06148364       34       0.19004495      -0.04699200       0.01447376
Cs       6.08225262       6.28850971       6.21536495       35      -0.02501512      -0.00794604      -0.00999583
Sn       9.57509630       9.49149110       9.13877273       36      -0.46218766      -0.27782978       0.69482214
I        9.25921606       9.25204264       6.33568613       37       0.05537478       0.07524606      -0.57849478
I        9.40577050       6.23992706       9.21449051       38       0.02171673       0.13698155       0.08156144
I        6.24930917       9.44977599       9.42320724       39      -0.02905411      -0.01349538       0.04018535
40
Lattice="12.481615150759529 0.0 0.0 0.004482852962245398 12.481614345736881 0.0 -0.0015326440136874256 0.0015331945715791045 12.4439142356852" Properties=species:S:1:pos:R:3:spacegroup_kinds:I:1:forces:R:3 spacegroup="P 1" unit_cell=conventional occupancy="_JSON {\"0\": {\"Cs\": 1.0}, \"1\": {\"Sn\": 1.0}, \"2\": {\"I\": 1.0}, \"3\": {\"I\": 1.0}, \"4\": {\"I\": 1.0}, \"5\": {\"Cs\": 1.0}, \"6\": {\"Sn\": 1.0}, \"7\": {\"I\": 1.0}, \"8\": {\"I\": 1.0}, \"9\": {\"I\": 1.0}, \"10\": {\"Cs\": 1.0}, \"11\": {\"Sn\": 1.0}, \"12\": {\"Cl\": 1.0}, \"13\": {\"I\": 1.0}, \"14\": {\"I\": 1.0}, \"15\": {\"Cs\": 1.0}, \"16\": {\"Sn\": 1.0}, \"17\": {\"I\": 1.0}, \"18\": {\"I\": 1.0}, \"19\": {\"I\": 1.0}, \"20\": {\"Cs\": 1.0}, \"21\": {\"Sn\": 1.0}, \"22\": {\"I\": 1.0}, \"23\": {\"I\": 1.0}, \"24\": {\"Cl\": 1.0}, \"25\": {\"Cs\": 1.0}, \"26\": {\"Sn\": 1.0}, \"27\": {\"I\": 1.0}, \"28\": {\"I\": 1.0}, \"29\": {\"I\": 1.0}, \"30\": {\"Cs\": 1.0}, \"31\": {\"Sn\": 1.0}, \"32\": {\"I\": 1.0}, \"33\": {\"Cl\": 1.0}, \"34\": {\"I\": 1.0}, \"35\": {\"Cs\": 1.0}, \"36\": {\"Sn\": 1.0}, \"37\": {\"I\": 1.0}, \"38\": {\"I\": 1.0}, \"39\": {\"I\": 1.0}}" candidate_id=e45cf3b9f3ba6012 formula=MASnCl0.14I0.863 config_index=2 rattle_stdev=0.08 method=PBE fidelity=phase2_force energy=-114.97561147244467 stress="0.0004774658905916577 0.0002477711010224328 7.844685268273272e-05 0.0002477711010224328 -0.0018162794270204492 4.767633824332195e-05 7.844685268273272e-05 4.767633824332195e-05 -0.0005478825868898958" pbc="T T T"
Cs       0.00128663      12.38966632       0.18729585        0      -0.00255844       0.03162436      -0.06439448
Sn       3.36395856       3.09857235       2.99478545        1       0.15816327       0.38106134       0.21183751
I        3.25751330       3.04825136      -0.00701788        2      -0.03904513       0.04864065      -0.13756217
I        3.24803422      12.56272886       2.86492952        3      -0.04962265      -0.60718046       0.03843644
I       12.40831343       3.28699723       3.10231692        4      -0.29930689      -0.03569406      -0.03998310
Cs       0.02455267      12.35138309       6.13868940        5       0.00244284      -0.00659218       0.04457169
Sn       3.07427267       3.21789307       9.28744856        6       0.38192006       0.00204046      -0.07320782
I        3.16987365       3.11818569       6.19801622        7      -0.00498075      -0.07443537       0.07088248
I        3.02667256      12.34109921       9.53652142        8       0.00312707       0.50582398       0.02312490
I        0.04507784       3.06489633       9.15232389        9      -0.15295008       0.01936178       0.03988992
Cs      -0.03363674       6.14727656       0.03011740       10       0.04182038      -0.01720135      -0.02412946
Sn       3.09846709       9.40658753       2.78610427       11       0.25988042      -0.23240582       0.26197805
Cl       3.08997689       9.27372846      -0.03570917       12       0.00321121       0.03182130       0.30714893
I        3.27593497       6.15606524       3.16611173       13      -0.06357170       0.47605187      -0.08951012
I       -0.09373403       9.24266284       3.00783640       14       0.52256153       0.01548229       0.01662091
Cs       0.04742709       6.28756452       6.20138417       15       0.01773659      -0.00120702       0.01031049
Sn       3.10668534       9.47028403       9.67874213       16      -0.05606396      -0.44411396      -0.34934233
I        3.16694820       9.31501774       6.27711222       17      -0.04377563       0.09278106      -0.19057063
I        3.23196467       6.20201933       9.42521431       18      -0.04959137      -0.11896269       0.00613370
I        0.10613229       9.15713420       9.47689518       19      -0.13381040       0.01894436       0.02123017
Cs       6.33964675      12.30982324       0.08334403       20      -0.00421047       0.05969530      -0.06148975
Sn       9.22703228       3.02818514       3.10590702       21       0.20266565       0.41724183       0.17358139
I        9.15707528       3.24457021      -0.02028881       22       0.04028215       0.05046114       0.00076264
I        9.31881527       0.15324493       3.10676655       23      -0.01073365      -0.33431033      -0.00936878
Cl       6.02051925       3.34433295       3.07657793       24       0.02740648      -0.12380219      -0.04714059
Cs       6.16314436      12.30468284       6.20997994       25       0.00825627      -0.00575044       0.02847032
Sn       9.43893367       3.16603127       9.39008779       26      -0.34726976      -0.05928072      -0.19842709
I        9.16849835       3.25192654       6.18112702       27       0.00546278      -0.03065111       0.00851952
I        9.41715114      12.39029339       9.48740472       28       0.02824541       0.42839582       0.00672525
I        6.26268160       3.16677794       9.28167620       29       0.06533357      -0.07082938       0.00260418
Cs       6.15798623       6.18313612       0.02282253       30      -0.01570616      -0.05112112       0.01969348
Sn       9.40305751       8.91621980       2.91814878       31      -0.42440969       0.30476888       0.68659045
I        9.41819032       9.22950374       0.00717504       32       0.00521520      -0.03282724      -0.13418963
Cl       9.12443189       6.44470041       3.18024607       33       0.05264269      -0.31438914      -0.10698740
I        6.29125854       9.43606256       2.99430574       34      -0.35753937       0.02676389      -0.05915863
Cs       6.18762979       6.26018946       6.23399956       35       0.00101720      -0.01582047      -0.02405012
Sn       9.29974255       9.34290420       9.38528161       36       0.16200046       0.06620902      -0.44354262
I        9.26013733       9.27440697       6.25982878       37       0.05506045       0.09965717      -0.04462154
I        9.34452668       6.33251055       9.21402241       38       0.05810440      -0.54184526       0.05513542
I        6.29383718       9.28692741       9.42015713       39      -0.05277292       0.05024894       0.06296598
40
Lattice="12.481615150759529 0.0 0.0 0.004482852962245398 12.481614345736881 0.0 -0.0015326440136874256 0.0015331945715791045 12.4439142356852" Properties=species:S:1:pos:R:3:spacegroup_kinds:I:1:forces:R:3 spacegroup="P 1" unit_cell=conventional occupancy="_JSON {\"0\": {\"Cs\": 1.0}, \"1\": {\"Sn\": 1.0}, \"2\": {\"I\": 1.0}, \"3\": {\"I\": 1.0}, \"4\": {\"I\": 1.0}, \"5\": {\"Cs\": 1.0}, \"6\": {\"Sn\": 1.0}, \"7\": {\"I\": 1.0}, \"8\": {\"I\": 1.0}, \"9\": {\"I\": 1.0}, \"10\": {\"Cs\": 1.0}, \"11\": {\"Sn\": 1.0}, \"12\": {\"Cl\": 1.0}, \"13\": {\"I\": 1.0}, \"14\": {\"I\": 1.0}, \"15\": {\"Cs\": 1.0}, \"16\": {\"Sn\": 1.0}, \"17\": {\"I\": 1.0}, \"18\": {\"I\": 1.0}, \"19\": {\"I\": 1.0}, \"20\": {\"Cs\": 1.0}, \"21\": {\"Sn\": 1.0}, \"22\": {\"I\": 1.0}, \"23\": {\"I\": 1.0}, \"24\": {\"Cl\": 1.0}, \"25\": {\"Cs\": 1.0}, \"26\": {\"Sn\": 1.0}, \"27\": {\"I\": 1.0}, \"28\": {\"I\": 1.0}, \"29\": {\"I\": 1.0}, \"30\": {\"Cs\": 1.0}, \"31\": {\"Sn\": 1.0}, \"32\": {\"I\": 1.0}, \"33\": {\"Cl\": 1.0}, \"34\": {\"I\": 1.0}, \"35\": {\"Cs\": 1.0}, \"36\": {\"Sn\": 1.0}, \"37\": {\"I\": 1.0}, \"38\": {\"I\": 1.0}, \"39\": {\"I\": 1.0}}" candidate_id=e45cf3b9f3ba6012 formula=MASnCl0.14I0.863 config_index=3 rattle_stdev=0.08 method=PBE fidelity=phase2_force energy=-114.70976187015866 stress="-0.0008874811221430049 -6.063239136819847e-06 3.7727558327879e-05 -6.063239136819847e-06 -0.0012475852925113399 0.00022545828265400228 3.7727558327879e-05 0.00022545828265400228 -0.0004885366878872592" pbc="T T T"
Cs      -0.09537981      12.63713167       0.04829885        0       0.01457347       0.06489591       0.02273612
Sn       3.46150353       3.13140782       3.17234054        1      -0.35669994      -0.25593611      -0.68217365
I        3.17291610       3.16082878      -0.04101328        2      -0.00352390      -0.02210524      -0.17644897
I        3.33669790      12.44868147       2.88597829        3       0.00066497      -0.20558835      -0.00262415
I       12.20570831       3.11780563       3.01037595        4       0.02022519       0.14449060       0.04467753
Cs       0.03885860      12.36123119       6.11562753        5      -0.01687178       0.00639303      -0.01275136
Sn       3.15276005       2.91576616       9.21600188        6       0.04614442       0.38021703       0.47557274
I        3.16001689       2.92705314       6.08951505        7      -0.04809333      -0.03013888       0.47222788
I        3.17441845      12.36269189       9.40030815        8      -0.03748687       0.56712846      -0.00420107
I       -0.10812548       3.02539465       9.51676085        9       0.32274160       0.03143098      -0.04061204
Cs      -0.00879964       6.30129101      -0.12174231       10       0.01811257      -0.11279062       0.00036824
Sn       3.10150545       9.24820822       2.73775182       11       0.07717773       0.28992549       0.17301138
Cl       3.24089107       9.33812418      -0.05258614       12      -0.05062017      -0.05371141       0.38771169
I        3.19973675       6.17575465       3.11043832       13      -0.04081514       0.24993490       0.00500817
I       -0.12152096       9.31447300       2.96291984       14       0.99681359       0.02510401      -0.02120134
Cs       0.01492206       6.29445658       6.14026873       15      -0.01630163      -0.00872602       0.00595919
Sn       3.16666348       9.39313798       9.62142499       16      -0.12169077      -0.59804242      -0.33771592
I        3.24858816       9.37998436       6.31541298       17      -0.04345800       0.01225936      -0.18287192
I        3.18398290       6.31434165       9.41765029       18      -0.02373424      -0.29693480      -0.02177337
I        0.01203198       9.23797360       9.45756361       19      -0.20375287       0.03907637      -0.00613814
Cs       6.35243468      12.43327533      -0.02949121       20      -0.02008352       0.03565946       0.00495555
Sn       9.11531838       3.09250467       3.08311457       21       0.42358426       0.33810462      -0.00083394
I        9.24413983       3.26235334       0.07536751       22      -0.10002216       0.01113236      -0.30487539
I        9.42600157       0.20920777       3.03170314       23      -0.18025726      -0.54557071       0.01409927
Cl       5.99360716       3.24410537       3.14336968       24       0.25445916      -0.00808130       0.04649840
Cs       6.22766783      12.45001946       6.21826135       25       0.01128723      -0.05065393       0.00106405
Sn       9.36700302       3.10268117       9.27139956       26      -0.06029546      -0.12317542       0.00463908
I        9.40027744       3.13698225       6.17003179       27      -0.03186508       0.04356902       0.29403431
I        9.37224017      12.60500870       9.24107866       28      -0.02248465      -0.80978865       0.05895008
I        6.21343457       3.09290916       9.37655043       29      -0.21131686      -0.04397179      -0.06988011
Cs       6.19203739       6.25134073       0.07585672       30      -0.00367234      -0.05832915      -0.04829788
Sn       9.39336287       8.98412081       3.15602461       31      -0.15356798      -0.33782830       0.26537249
I        9.38444629       9.22011036       0.07330652       32       0.03547283       0.01827618      -0.08280136
Cl       9.23581577       6.33970803       3.24321969       33       0.05831137       0.28714988      -0.00538304
I        6.48842553       9.21721035       2.92762696       34      -0.96705946       0.08130547       0.01117497
Cs       6.27184178       6.38813081       6.21377081       35       0.00688132       0.01424397       0.01070933
Sn       9.36579130       9.29506708       9.49972849       36       0.08645523      -0.00501359      -0.27465131
I        9.32609495       9.24128168       6.30466918       37       0.01643761       0.02156379      -0.01289437
I        9.30478757       6.05607969       9.38023164       38       0.00013524       0.90307274      -0.00707157
I        6.18260847       9.37499775       9.55178694       39       0.31542135       0.01090851       0.00685036
