40
Lattice="12.022715075779972 0.0 0.0 0.0 12.031511649510799 0.0 0.0 4.878860132103056e-14 12.022715075779914" Properties=species:S:1:pos:R:3:spacegroup_kinds:I:1:forces:R:3 spacegroup="P 1" unit_cell=conventional candidate_id=468a48ea4c670a31 formula=KGe0.59Sn0.41I3 config_index=0 rattle_stdev=0.0 method=PBE fidelity=phase2_force energy=-110.71422618591511 stress="-0.002340426043309213 1.4753662540484597e-16 -3.5222024325814317e-09 1.4753662540484597e-16 -0.002184409701856766 -1.3867221388099927e-16 -3.5222024325814317e-09 -1.3867221388099927e-16 -0.0023404260433092347" pbc="T T T"
K       11.93545629      11.78601007       0.08725878        0       0.00086124      -0.00232158      -0.00086124
Sn       3.00567877       3.00787791       3.00567877        1       0.00000000       0.00000000       0.00000000
I        3.00567877       3.00787791      12.01890689        2      -0.00000048       0.00000000       0.04411060
I        3.00567877      11.94471936       3.00567877        3       0.00000000       0.04179054       0.00000000
I       11.93671041       3.00787791       3.00567877        4       0.09314694      -0.00000000       0.00000006
K       11.93545629      11.78601007       5.92409875        5       0.00086119      -0.00232136       0.00086119
Sn       3.00567877       3.00787791       9.01703631        6       0.00000000       0.00000000      -0.00000000
I        3.00567877       3.00787791       6.01516572        7       0.00000048       0.00000000      -0.04411060
I        3.00567877      11.94902328       9.01703631        8       0.00000000       0.01306471      -0.00000000
I        0.00380819       3.00787791       9.01703631        9      -0.04411060       0.00000000       0.00000048
K       11.93545629       6.26125741       0.08725878       10       0.00086124       0.00232158      -0.00086124
Ge       3.00567877       9.02363374       3.00567877       11       0.00000000      -0.00000000       0.00000000
I        3.00567877       9.02363374       0.00324561       12       0.00000010      -0.00000000       0.00662670
I        3.00567877       6.10254811       3.00567877       13       0.00000000      -0.04179054       0.00000000
I       12.02090344       9.02363374       3.00567877       14      -0.02880056       0.00000000      -0.00000011
K       11.93545629       6.26125741       5.92409875       15       0.00086119       0.00232136       0.00086119
Ge       3.00567877       9.02363374       9.01703631       16      -0.00000000      -0.00000000       0.00000000
I        3.00567877       9.02363374       6.00811193       17      -0.00000010      -0.00000000      -0.00662670
I        3.00567877       6.09824419       9.01703631       18       0.00000000      -0.01306471      -0.00000000
I       12.01946947       9.02363374       9.01703631       19      -0.00662670      -0.00000000      -0.00000010
K        6.09861632      11.78601007       0.08725878       20      -0.00086119      -0.00232136      -0.00086119
Ge       9.01703631       3.00787791       3.00567877       21      -0.00000000      -0.00000000       0.00000000
I        9.01703631       3.00787791       0.08600467       22      -0.00000006      -0.00000000      -0.09314694
I        9.01703631      12.02456582       3.00567877       23      -0.00000000      -0.06686710       0.00000000
I        6.09736220       3.00787791       3.00567877       24      -0.09314694       0.00000000      -0.00000006
K        6.09861632      11.78601007       5.92409875       25      -0.00086124      -0.00232158       0.00086124
Sn       9.01703631       3.00787791       9.01703631       26      -0.00000000       0.00000000      -0.00000000
I        9.01703631       3.00787791       5.92535287       27       0.00000006       0.00000000       0.09314694
I        9.01703631      11.94471936       9.01703631       28      -0.00000000       0.04179054      -0.00000000
I        6.00754935       3.00787791       9.01703631       29       0.04411060       0.00000000      -0.00000048
K        6.09861632       6.26125741       0.08725878       30      -0.00086119       0.00232136      -0.00086119
Ge       9.01703631       9.02363374       3.00567877       31      -0.00000000      -0.00000000       0.00000000
I        9.01703631       9.02363374       0.00181164       32       0.00000011       0.00000000       0.02880056
I        9.01703631       6.02270165       3.00567877       33      -0.00000000       0.06686710       0.00000000
I        6.01316918       9.02363374       3.00567877       34       0.02880056      -0.00000000       0.00000011
K        6.09861632       6.26125741       5.92409875       35      -0.00086124       0.00232158       0.00086124
Ge       9.01703631       9.02363374       9.01703631       36      -0.00000000      -0.00000000      -0.00000000
I        9.01703631       9.02363374       6.00954590       37      -0.00000011      -0.00000000      -0.02880056
I        9.01703631       6.10254811       9.01703631       38      -0.00000000      -0.04179054      -0.00000000
I        6.01460315       9.02363374       9.01703631       39       0.00662670      -0.00000000       0.00000010
40
Lattice="12.022715075779972 0.0 0.0 0.0 12.031511649510799 0.0 0.0 4.878860132103056e-14 12.022715075779914" Properties=species:S:1:pos:R:3:spacegroup_kinds:I:1:forces:R:3 spacegroup="P 1" unit_cell=conventional candidate_id=468a48ea4c670a31 formula=KGe0.59Sn0.41I3 config_index=1 rattle_stdev=0.08 method=PBE fidelity=phase2_force energy=-110.29124779360048 stress="-0.004389363613668956 1.587362201335143e-05 6.273184560032802e-05 1.587362201335143e-05 -0.003472471844672264 8.532473589910488e-07 6.273184560032802e-05 8.532473589910488e-07 -0.004722812296996807" pbc="T T T"
K       11.84854058      11.71432486       0.06275483        0      -0.01794540       0.04375758       0.02013173
Sn       2.89848408       2.91135107       2.95434062        1       0.25978688       0.25753329       0.38605296
I        3.11031442       3.15551475      12.08523609        2      -0.03858108       0.00374819      -0.09314611
I        3.00381486      11.92803425       2.93234919        3       0.04208512       0.05409699      -0.00435573
I       11.85073100       3.00098643       3.09974585        4       0.65776647       0.01345283       0.03509697
K       11.80464895      11.88426559       6.01020965        5       0.02292091       0.06110216      -0.02924218
Sn       3.03726060       2.97686185       9.06410845        6       0.07589619      -0.03539140      -0.15072734
I        2.89101486       2.98199194       6.11540450        7       0.06150075       0.03993732      -0.36799294
I        2.94721936      12.06330209       9.09260862        8      -0.02100286      -0.47611852       0.03087683
I       -0.01731204       2.99482085       8.93990772        9       0.14859650       0.01496887       0.05488363
K       11.90804450       6.26516973       0.04728823       10       0.00528689      -0.04032942       0.01532688
Ge       2.82872641       9.04842069       2.87850667       11       0.45435357      -0.28555464      -0.20881391
I        3.06403514       9.01500164      -0.04876811       12      -0.05791810       0.03559191       0.17175337
I        2.87023425       6.07307019       2.87844903       13       0.01745652       0.01304294       0.08115272
I       12.13934391       9.06158895       3.07878787       14      -0.63474528       0.01582836       0.02367476
K       12.01229391       6.26802081       6.06147723       15       0.03678293      -0.05351184       0.00646186
Ge       3.07383019       8.96324291       8.83402596       16       0.31618678       0.01099943       0.08317587
I        3.01441786       8.98762109       5.97507413       17       0.01855328      -0.01759863       0.10513208
I        3.03119747       6.05495556       9.09292962       18      -0.01866889       0.46426536      -0.06389885
I       12.03158427       9.02978593       9.01228428       19       0.11944430       0.04083647      -0.01767654
K        6.09300523      11.74071814       0.11213921       20      -0.00380925       0.02547809       0.01701337
Ge       9.07497301       3.04919391       3.08776122       21      -0.42900509      -0.23124280      -0.54801145
I        9.05864852       2.93829083       0.20604988       22       0.05913299       0.02474251      -0.59168774
I        9.11035408      12.06391898       2.94709779       23      -0.02301196      -0.17193394       0.17105739
I        6.15178669       3.04859766       2.93867587       24      -0.48428657      -0.00529935       0.06813989
K        6.15042791      11.78701322       6.04886588       25      -0.02506466       0.01282133      -0.00287633
Sn       9.09980394       3.03489333       8.91282747       26      -0.25729030       0.29424443       0.31344996
I        8.92755276       3.11263912       5.88389551       27      -0.05492197      -0.02547513       0.57268180
I        8.98558636      12.02815684       9.02301352       28       0.03477389      -0.20437216      -0.03120752
I        6.01470432       3.01219050       9.05051207       29       0.04905632       0.00261989       0.00225327
K        6.00039792       6.17409408       0.11262873       30      -0.03314702      -0.04954761       0.02948441
Ge       8.95460386       8.95514325       2.90008906       31      -0.26805866       0.13678429      -0.07649842
I        9.05333884       9.10377572       0.11491041       32      -0.01168436      -0.04771957      -0.04788215
I        9.00182168       6.02511050       2.85580543       33       0.04816533       0.24435359       0.04224535
I        6.00382702       9.01343451       3.07785351       34       0.40919700      -0.01062063      -0.00878297
K        5.99346655       6.25329335       5.93534274       35      -0.02045071      -0.02790472      -0.00088334
Ge       9.22734078       9.16409604       8.80618448       36      -0.29029054      -0.28310004       0.52990860
I        8.91410475       9.00989596       6.15358220       37       0.10921570       0.07650573      -0.67355902
I        9.06573196       6.10507016       8.89972333       38       0.00671946       0.09479145       0.09944217
I        6.03935841       9.11501116       8.97616877       39      -0.26056712      -0.02121733       0.03823871
40
Lattice="12.022715075779972 0.0 0.0 0.0 12.031511649510799 0.0 0.0 4.878860132103056e-14 12.022715075779914" Properties=species:S:1:pos:R:3:spacegroup_kinds:I:1:forces:R:3 spacegroup="P 1" unit_cell=conventional candidate_id=468a48ea4c670a31 formula=KGe0.59Sn0.41I3 config_index=2 rattle_stdev=0.08 method=PBE fidelity=phase2_force energy=-110.29609656648742 stress="-0.003791759244636856 5.7996359324141735e-05 6.683874185046945e-05 5.7996359324141735e-05 -0.003979249629054272 7.936067316026183e-06 6.683874185046945e-05 7.936067316026183e-06 -0.00340879364902007" pbc="T T T"
K       11.92643925      11.69988495       0.23006094        0       0.02296891      -0.00358799      -0.04055631
Sn       2.88912010       2.98177225       2.90488705        1       0.62863395       0.27363427       0.20657946
I        3.03574809       2.93762612      11.99090883        2      -0.01977962       0.04338861      -0.04495670
I        3.02941159      12.04079232       2.88015915        3      -0.02364802      -0.60246410       0.05576224
I       12.08503271       3.04739486       2.99522185        4      -0.89428075       0.05216944      -0.03228461
K       11.90320663      11.70811709       5.88670141        5      -0.01860129      -0.01727948       0.04856330
Sn       2.94824505       3.10558938       8.95486031        6       0.53000713       0.03645366       0.04002799
I        2.95859672       3.00326840       6.02153211        7       0.06915324      -0.12312092      -0.24848829
I        2.91102268      11.82512389       9.09001680        8       0.02217686       0.48655490      -0.01277281
I        0.03682184       2.95221639       8.83393456        9      -0.25054761      -0.00566595       0.01586636
K       11.87247697       6.17897607       0.09472343       10       0.01445234       0.01550265      -0.01906505
Ge       2.96334324       9.08605333       2.98961359       11       0.20910964      -0.18483312       0.01777732
I        2.96723008       8.94081277      -0.03697314       12       0.03080124      -0.06632376       0.37615363
I        3.06886999       6.02854830       3.18248159       13      -0.00531856       0.46424399      -0.06360884
I       11.90888454       9.00450595       3.02306602       14       0.45342342      -0.03811361       0.02923338
K       11.90726547       6.26812745       5.93263091       15      -0.00470054       0.00517048       0.02989885
Ge       2.98991627       9.13138845       9.04465023       16      -0.20675805      -0.28500309      -0.08766049
I        3.05029032       8.97601092       6.06673850       17      -0.02220279       0.10349578      -0.31151482
I        3.11217898       6.03984156       8.97817584       18       0.00440695      -0.10673815       0.03623542
I       12.10562260       8.81600514       9.03039056       19      -0.00239985       0.01713353      -0.02526267
K        6.18173309      11.64132416       0.14795006       20      -0.01937507       0.02989544      -0.02526340
Ge       8.97702728       2.82033446       2.99704535       21      -0.28703324       0.15179463       0.17880120
I        8.89681329       3.04698021       0.04175039       22       0.10152345       0.05388521       0.07648794
I        9.10163691      11.95502039       2.99967148       23       0.00641292       0.23316588      -0.01265075
I        6.08878981       3.17578367       2.97843573       24       0.28364796      -0.15648292      -0.00270648
K        6.05638391      11.68244072       5.94122668       25       0.01088435      -0.01301972       0.02545368
Sn       9.10713787       3.04000078       9.07828313       26      -0.46336536      -0.06768580      -0.18000542
I        8.90878611       3.05378659       5.90774190       27       0.06107586      -0.08073699      -0.04340206
I        9.06865143      11.86434182       9.16901539       28       0.04376086       0.54076004       0.00871758
I        6.02489822       3.04787554       8.96690902       29       0.08757500      -0.07661616      -0.01859175
K        6.01838559       6.19875259       0.10360100       30      -0.02898000      -0.05465770       0.01295675
Ge       9.05992367       8.93763394       2.82825039       31      -0.29807024      -0.28719685       0.31484737
I        9.06879072       8.99784687      -0.01199350       32       0.00138116      -0.07491236       0.17084704
I        8.83396256       6.01373815       3.08210387       33       0.14016048       0.21816491      -0.08355685
I        6.04954823       9.18858793       3.01067561       34      -0.32293257      -0.01327898      -0.05950377
K        6.09884372       6.22497310       5.95397735       35       0.00043115      -0.03557930       0.00122507
Ge       8.95198703       9.01550914       9.05269336       36       0.01544760       0.09947190      -0.44419634
I        8.91502602       9.03226028       6.07772485       37       0.09498900       0.10072860      -0.06770246
I        9.00448814       6.19765365       8.89925524       38       0.06323860      -0.68802166       0.05174219
I        6.08388642       8.95216257       8.97311866       39      -0.04950150       0.06927130       0.11517964
40
Lattice="12.022715075779972 0.0 0.0 0.0 12.031511649510799 0.0 0.0 4.878860132103056e-14 12.022715075779914" Properties=species:S:1:pos:R:3:spacegroup_kinds:I:1:forces:R:3 spacegroup="P 1" unit_cell=conventional candidate_id=468a48ea4c670a31 formula=KGe0.59Sn0.41I3 config_index=3 rattle_stdev=0.08 method=PBE fidelity=phase2_force energy=-110.00053414748034 stress="-0.0039353620656336 7.358660494154797e-05 -6.4452604465347995e-06 7.358660494154797e-05 -0.0038585142591580643 -2.1728013340984668e-05 -6.4452604465347995e-06 -2.1728013340984668e-05 -0.0034230412664936157" pbc="T T T"
K       11.82977281      11.94735030       0.09106394        0       0.01634552       0.08826861       0.02413278
Sn       2.98666508       3.01460773       3.08244215        1      -0.31521986      -0.28836833      -0.94021140
I        2.95115089       3.05020354      11.95691343        2       0.02175769       0.01479757      -0.00938243
I        3.11807527      11.92674492       2.90120791        3       0.03845048      -0.13553827      -0.00388384
I       11.88242759       2.87820325       2.90328089        4       0.33664797       0.05801116       0.01311146
K       11.91751256      11.71796518       5.86363955        5      -0.02323204       0.02516079      -0.01362594
Sn       3.02673243       2.80346247       8.88341363        6      -0.07529065       0.43337948       0.59599567
I        2.94873995       2.81213586       5.91303094        7      -0.06934180      -0.05188475       0.47726559
I        3.05876857      11.84671656       8.95380353        8      -0.06114622       0.54614680       0.04385344
I       -0.11638148       2.91271472       9.19837152        9       0.57006624       0.02528274       0.02989446
K       11.89731406       6.33299053      -0.05713628       10       0.02417759      -0.05400678      -0.04292962
Ge       2.96638160       8.92767401       2.94126114       11      -0.03981714       0.30407385      -0.09636019
I        3.11814426       9.00520848      -0.05385011       12      -0.07128905      -0.07024635       0.53732688
I        2.99267177       6.04823772       3.12680818       13      -0.02229429       0.21779469       0.01890847
I       11.88109761       9.07631610       2.97814947       14       1.02186079      -0.10668781       0.03397722
K       11.87476044       6.27501951       5.87151547       15      -0.03276522       0.00635166       0.00327071
Ge       3.04989441       9.05424240       8.98733308       16      -0.03313594      -0.67118463      -0.05075695
I        3.13193029       9.04097754       6.10503926       17      -0.02033498       0.02147893      -0.44273986
I        3.06419721       6.15216388       8.97061182       18      -0.02691247      -0.35498428      -0.03450811
I       12.01152230       8.89684454       9.01105899       19      -0.18138706       0.03247021       0.03088525
K        6.19452103      11.76477625       0.03511482       20      -0.03401957       0.00398584      -0.00116215
Ge       8.86531338       2.88465399       2.97425291       21       0.35118078       0.21806571      -0.01519699
I        8.98387784       3.06476334       0.13740670       22      -0.09416394      -0.02749488      -0.25330858
I        9.20882321      12.01098323       2.92460807       23      -0.17598376      -0.25950474       0.02467980
I        6.06187771       3.07555609       3.04522749       24      -0.18400951      -0.05945867       0.02704905
K        6.12090738      11.82777734       5.94950809       25      -0.00322735      -0.02671123       0.01331026
Sn       9.03520722       2.97665067       8.95959490       26      -0.23428566      -0.05433292      -0.05089164
I        9.14056520       2.93884230       5.89664666       27      -0.00404497      -0.02396109       0.29299837
I        9.02374045      12.07905713       8.92268933       28      -0.03844748      -0.93068333       0.08312997
I        5.97565118       2.97400677       9.06178325       29      -0.10752272      -0.02666607      -0.04545403
K        6.05243675       6.26695720       0.15663519       30      -0.01481734      -0.02767381      -0.03156700
Ge       9.05022903       9.00553496       3.06612622       31      -0.19103291      -0.17334351       0.14970747
I        9.03504670       8.98845349       0.05413798       32       0.03711527      -0.00922212      -0.05135018
I        8.94534645       5.90874576       3.14507750       33       0.10468804       0.31372736      -0.00054504
I        6.24671522       8.96973572       2.94399683       34      -0.83124074       0.04905966       0.03250830
K        6.18305571       6.35291445       5.93374860       35       0.00935675       0.02512888       0.01230257
Ge       9.01803578       8.96767202       9.16714024       36       0.09884673      -0.02198813      -0.20861230
I        8.98098364       8.99913499       6.12256525       37       0.01311340       0.01727152      -0.18060796
I        8.96474903       5.92122279       9.06546446       38      -0.01924411       0.95577814       0.01167751
I        5.97265771       9.04023292       9.10474847       39       0.26599120       0.01277914       0.01609152
