40
Lattice="12.666742552280352 0.0 0.0 0.0 12.664134698043574 0.0 0.0 4.296434197173629e-14 12.666742552280352" Properties=species:S:1:pos:R:3:spacegroup_kinds:I:1:forces:R:3 spacegroup="P 1" unit_cell=conventional occupancy="_JSON {\"0\": {\"Cs\": 1.0}, \"1\": {\"Pb\": 1.0}, \"2\": {\"I\": 1.0}, \"3\": {\"I\": 1.0}, \"4\": {\"I\": 1.0}, \"5\": {\"Cs\": 1.0}, \"6\": {\"Pb\": 1.0}, \"7\": {\"I\": 1.0}, \"8\": {\"I\": 1.0}, \"9\": {\"I\": 1.0}, \"10\": {\"Cs\": 1.0}, \"11\": {\"Sn\": 1.0}, \"12\": {\"I\": 1.0}, \"13\": {\"I\": 1.0}, \"14\": {\"I\": 1.0}, \"15\": {\"Cs\": 1.0}, \"16\": {\"Sn\": 1.0}, \"17\": {\"I\": 1.0}, \"18\": {\"I\": 1.0}, \"19\": {\"I\": 1.0}, \"20\": {\"Cs\": 1.0}, \"21\": {\"Sn\": 1.0}, \"22\": {\"I\": 1.0}, \"23\": {\"I\": 1.0}, \"24\": {\"I\": 1.0}, \"25\": {\"Cs\": 1.0}, \"26\": {\"Pb\": 1.0}, \"27\": {\"I\": 1.0}, \"28\": {\"I\": 1.0}, \"29\": {\"I\": 1.0}, \"30\": {\"Cs\": 1.0}, \"31\": {\"Sn\": 1.0}, \"32\": {\"I\": 1.0}, \"33\": {\"I\": 1.0}, \"34\": {\"I\": 1.0}, \"35\": {\"Cs\": 1.0}, \"36\": {\"Sn\": 1.0}, \"37\": {\"I\": 1.0}, \"38\": {\"I\": 1.0}, \"39\": {\"I\": 1.0}}" candidate_id=4a258e50a54e8ae2 formula=CsPb0.42Sn0.58I3 config_index=0 rattle_stdev=0.0 method=PBE fidelity=phase2_force energy=-112.62557042815172 stress="0.0006770401362048236 -3.882605987411661e-12 4.7498337040159e-11 -3.882605987411661e-12 0.0004935533497320837 3.882604313327356e-12 4.7498337040159e-11 3.882604313327356e-12 0.0006770401362048236" pbc="T T T"
Cs      12.65591414      12.62637062       0.01082841        0      -0.00281881      -0.00569482       0.00281881
Pb       3.16668564       3.16603367       3.16668564        1       0.00014541       0.00013251       0.00033564
I        3.16668564       3.16603367       0.00929730        2      -0.00000100      -0.00000088      -0.03836578
I        3.16668564      12.58257220       3.16668564        3      -0.00000257       0.24403421      -0.00000155
I       12.58986772       3.16603367       3.16668564        4       0.24850650      -0.00000250      -0.00000170
Cs      12.65591414      12.62637062       6.32254287        5      -0.00281703      -0.00569255      -0.00281354
Pb       3.16668564       3.16603367       9.50005691        6       0.00029517       0.00010302      -0.00029517
I        3.16668564       3.16603367       6.32407398        7       0.00000030      -0.00000031       0.03837870
I        3.16668564      12.57097154       9.50005691        8      -0.00000179       0.29649460       0.00000179
I       12.65744526       3.16603367       9.50005691        9       0.03836578      -0.00000088       0.00000100
Cs      12.65591414       6.36983143       0.01082841       10      -0.00281898       0.00567916       0.00281898
Sn       3.16668564       9.49810102       3.16668564       11       0.00019368      -0.00019562       0.00019812
I        3.16668564       9.49810102       0.00057479       12      -0.00000362       0.00000314       0.00596158
I        3.16668564       6.41362985       3.16668564       13      -0.00000183      -0.24411496      -0.00000083
I       12.65999562       9.49810102       3.16668564       14       0.01056202       0.00000271      -0.00000353
Cs      12.65591414       6.36983143       6.32254287       15      -0.00281720       0.00567687      -0.00281374
Sn       3.16668564       9.49810102       9.50005691       16       0.00019842      -0.00018592      -0.00019842
I        3.16668564       9.49810102       6.33279648       17      -0.00000225       0.00000250      -0.00596130
I        3.16668564       6.42523051       9.50005691       18      -0.00000103      -0.29658364       0.00000103
I       12.66616776       9.49810102       9.50005691       19      -0.00596158       0.00000314       0.00000362
Cs       6.34419969      12.62637062       0.01082841       20       0.00281354      -0.00569255       0.00281703
Sn       9.50005691       3.16603367       3.16668564       21      -0.00019984       0.00019033       0.00019984
I        9.50005691       3.16603367       0.07687483       22       0.00000170      -0.00000250      -0.24850650
I        9.50005691      12.65050612       3.16668564       23       0.00000263       0.01134282      -0.00000263
I        6.41024611       3.16603367       3.16668564       24      -0.24858286      -0.00000175      -0.00000017
Cs       6.34419969      12.62637062       6.32254287       25       0.00281175      -0.00569073      -0.00281175
Pb       9.50005691       3.16603367       9.50005691       26      -0.00033564       0.00013251      -0.00014541
I        9.50005691       3.16603367       6.25649645       27       0.00000017      -0.00000175       0.24858286
I        9.50005691      12.58257220       9.50005691       28       0.00000155       0.24403421       0.00000257
I        6.34266857       3.16603367       9.50005691       29      -0.03837870      -0.00000031      -0.00000030
Cs       6.34419969       6.36983143       0.01082841       30       0.00281374       0.00567687       0.00281720
Sn       9.50005691       9.49810102       3.16668564       31      -0.00020122      -0.00020495       0.00020122
I        9.50005691       9.49810102       0.00674693       32       0.00000353       0.00000271      -0.01056202
I        9.50005691       6.34569592       3.16668564       33       0.00000224      -0.01134554      -0.00000224
I        6.34011821       9.49810102       3.16668564       34      -0.01056330       0.00000227      -0.00000210
Cs       6.34419969       6.36983143       6.32254287       35       0.00281159       0.00567399      -0.00281159
Sn       9.50005691       9.49810102       9.50005691       36      -0.00019812      -0.00019562      -0.00019368
I        9.50005691       9.49810102       6.32662434       37       0.00000210       0.00000227       0.01056330
I        9.50005691       6.41362985       9.50005691       38       0.00000083      -0.24411496       0.00000183
I        6.33394607       9.49810102       9.50005691       39       0.00596130       0.00000250       0.00000225
40
Lattice="12.666742552280352 0.0 0.0 0.0 12.664134698043574 0.0 0.0 4.296434197173629e-14 12.666742552280352" Properties=species:S:1:pos:R:3:spacegroup_kinds:I:1:forces:R:3 spacegroup="P 1" unit_cell=conventional occupancy="_JSON {\"0\": {\"Cs\": 1.0}, \"1\": {\"Pb\": 1.0}, \"2\": {\"I\": 1.0}, \"3\": {\"I\": 1.0}, \"4\": {\"I\": 1.0}, \"5\": {\"Cs\": 1.0}, \"6\": {\"Pb\": 1.0}, \"7\": {\"I\": 1.0}, \"8\": {\"I\": 1.0}, \"9\": {\"I\": 1.0}, \"10\": {\"Cs\": 1.0}, \"11\": {\"Sn\": 1.0}, \"12\": {\"I\": 1.0}, \"13\": {\"I\": 1.0}, \"14\": {\"I\": 1.0}, \"15\": {\"Cs\": 1.0}, \"16\": {\"Sn\": 1.0}, \"17\": {\"I\": 1.0}, \"18\": {\"I\": 1.0}, \"19\": {\"I\": 1.0}, \"20\": {\"Cs\": 1.0}, \"21\": {\"Sn\": 1.0}, \"22\": {\"I\": 1.0}, \"23\": {\"I\": 1.0}, \"24\": {\"I\": 1.0}, \"25\": {\"Cs\": 1.0}, \"26\": {\"Pb\": 1.0}, \"27\": {\"I\": 1.0}, \"28\": {\"I\": 1.0}, \"29\": {\"I\": 1.0}, \"30\": {\"Cs\": 1.0}, \"31\": {\"Sn\": 1.0}, \"32\": {\"I\": 1.0}, \"33\": {\"I\": 1.0}, \"34\": {\"I\": 1.0}, \"35\": {\"Cs\": 1.0}, \"36\": {\"Sn\": 1.0}, \"37\": {\"I\": 1.0}, \"38\": {\"I\": 1.0}, \"39\": {\"I\": 1.0}}" candidate_id=4a258e50a54e8ae2 formula=CsPb0.42Sn0.58I3 config_index=1 rattle_stdev=0.08 method=PBE fidelity=phase2_force energy=-112.19755858581432 stress="-0.0010572544832829882 1.621494213507408e-05 2.099855510612573e-05 1.621494213507408e-05 -9.555293940443057e-05 -5.1911075905946776e-05 2.099855510612573e-05 -5.1911075905946776e-05 -0.0014654023461535158" pbc="T T T"
Cs      12.56899843      12.55468541      -0.01367554        0      -0.02147588       0.01869453       0.02869556
Pb       3.05949095       3.06950683       3.11534749        1       0.19504707       0.19377414       0.27665943
I        3.27132129       3.31367051       0.07562649        2      -0.04715690      -0.01739682      -0.11967532
I        3.16482173      12.56588709       3.09335606        3       0.01230631       0.30673752       0.00027907
I       12.50388832       3.15914220       3.26075272        4       0.77340483       0.00008617       0.01617427
Cs      12.52510680      12.72462614       6.40865377        5       0.03520480       0.02523324      -0.03976202
Pb       3.19826747       3.13501761       9.54712905        6       0.06471470      -0.05582907      -0.11062311
I        3.05202173       3.14014770       6.42431276        7       0.03191294       0.02444599      -0.19107102
I        3.10822623      12.68525035       9.57562923        8      -0.01404696      -0.13563685       0.00701462
I       12.63632503       3.15297661       9.42292833        9       0.17600984       0.00732754       0.02926090
Cs      12.62850236       6.37374375      -0.02914215       10      -0.01118774      -0.01469349       0.02049481
Sn       2.98973328       9.52288797       3.03951354       11       0.52245593      -0.28556971      -0.12464212
I        3.22504201       9.48946892      -0.05143893       12      -0.05519051       0.02021706       0.07033420
I        3.03124112       6.38415192       3.03945590       13       0.00423849      -0.18335126       0.06119100
I       12.77843609       9.53605624       3.23979474       14      -0.57571825       0.01229136       0.01925323
Cs      12.73275176       6.37659483       6.45992134       15       0.01415224      -0.02917190      -0.02244511
Sn       3.23483706       9.43771020       9.31704657       16       0.25144937       0.14599700       0.18549639
I        3.17542473       9.46208837       6.29975869       17       0.00248767      -0.01458184      -0.01440792
I        3.19220434       6.38194187       9.57595023       18      -0.01980091       0.04131624      -0.04207586
I       12.67828256       9.50425322       9.49530488       19       0.19132219       0.02370300      -0.02008378
Cs       6.33858859      12.58107869       0.03570884       20       0.01703035       0.00734790       0.02409275
Sn       9.55799362       3.20734968       3.24876809       21      -0.45057039      -0.20516080      -0.50708004
I        9.54166912       3.09644659       0.19692004       22       0.04485688       0.01709248      -0.58290688
I        9.59337469      12.68985928       3.10810466       23      -0.01382622      -0.08021837       0.10791108
I        6.46467059       3.20675342       3.09968274       24      -0.51357858      -0.01405560       0.05051158
Cs       6.39601127      12.62737378       6.44730999       25      -0.02665453       0.00079097      -0.02707484
Pb       9.58282454       3.19304909       9.39584808       26      -0.22595137       0.23713073       0.22922224
I        9.41057337       3.27079488       6.21503909       27      -0.01948311      -0.02566888       0.71288147
I        9.46860697      12.66600968       9.50603413       28       0.02844698       0.12133003      -0.03004208
I        6.34982354       3.17034626       9.53353267       29      -0.02974575      -0.00118155      -0.00562631
Cs       6.24598128       6.28266810       0.03619836       30       0.01624257       0.00041183       0.02906619
Sn       9.43762447       9.42961054       3.06109593       31      -0.20543581       0.18921588       0.03534265
I        9.53635945       9.57824301       0.11984571       32       0.00034619      -0.02264039      -0.12526167
I        9.48484228       6.34810477       3.01681230       33       0.03240086       0.09671268       0.02286051
I        6.33077605       9.48790180       3.23886038       34       0.28130637      -0.00713393      -0.01179775
Cs       6.23904991       6.36186737       6.33378685       35       0.00100900      -0.00657595      -0.01613489
Sn       9.71036139       9.63856333       9.28920509       36      -0.38537024      -0.33759659       0.60395464
I        9.39712535       9.48436325       6.47066064       37       0.05904746       0.04942732      -0.60407350
I        9.54875256       6.41615189       9.38274394       38       0.01481887      -0.09018454       0.05366185
I        6.35870133       9.58947845       9.45918938       39      -0.15547447      -0.01634490       0.00977401
40
Lattice="12.666742552280352 0.0 0.0 0.0 12.664134698043574 0.0 0.0 4.296434197173629e-14 12.666742552280352" Properties=species:S:1:pos:R:3:spacegroup_kinds:I:1:forces:R:3 spacegroup="P 1" unit_cell=conventional occupancy="_JSON {\"0\": {\"Cs\": 1.0}, \"1\": {\"Pb\": 1.0}, \"2\": {\"I\": 1.0}, \"3\": {\"I\": 1.0}, \"4\": {\"I\": 1.0}, \"5\": {\"Cs\": 1.0}, \"6\": {\"Pb\": 1.0}, \"7\": {\"I\": 1.0}, \"8\": {\"I\": 1.0}, \"9\": {\"I\": 1.0}, \"10\": {\"Cs\": 1.0}, \"11\": {\"Sn\": 1.0}, \"12\": {\"I\": 1.0}, \"13\": {\"I\": 1.0}, \"14\": {\"I\": 1.0}, \"15\": {\"Cs\": 1.0}, \"16\": {\"Sn\": 1.0}, \"17\": {\"I\": 1.0}, \"18\": {\"I\": 1.0}, \"19\": {\"I\": 1.0}, \"20\": {\"Cs\": 1.0}, \"21\": {\"Sn\": 1.0}, \"22\": {\"I\": 1.0}, \"23\": {\"I\": 1.0}, \"24\": {\"I\": 1.0}, \"25\": {\"Cs\": 1.0}, \"26\": {\"Pb\": 1.0}, \"27\": {\"I\": 1.0}, \"28\": {\"I\": 1.0}, \"29\": {\"I\": 1.0}, \"30\": {\"Cs\": 1.0}, \"31\": {\"Sn\": 1.0}, \"32\": {\"I\": 1.0}, \"33\": {\"I\": 1.0}, \"34\": {\"I\": 1.0}, \"35\": {\"Cs\": 1.0}, \"36\": {\"Sn\": 1.0}, \"37\": {\"I\": 1.0}, \"38\": {\"I\": 1.0}, \"39\": {\"I\": 1.0}}" candidate_id=4a258e50a54e8ae2 formula=CsPb0.42Sn0.58I3 config_index=2 rattle_stdev=0.08 method=PBE fidelity=phase2_force energy=-112.22318117662398 stress="-0.00022582415669868735 4.980101437454412e-05 1.914457809410509e-05 4.980101437454412e-05 -0.0009536711960083804 -3.1006780221290727e-05 1.914457809410509e-05 -3.1006780221290727e-05 -0.00011859421079569103" pbc="T T T"
Cs      12.64689710      12.54024550       0.15363056        0       0.01568351      -0.01162659      -0.04369654
Pb       3.05012697       3.13992801       3.06589392        1       0.46615578       0.21771690       0.18018248
I        3.19675496       3.09578189      -0.01870077        2      -0.02507476       0.02195683      -0.10266483
I        3.19041845      12.67864516       3.04116602        3      -0.01970196      -0.26565778       0.03312528
I       12.73819002       3.20555062       3.15622872        4      -0.52427589       0.01575568      -0.02732292
Cs      12.62366448      12.54847764       6.28514552        5      -0.01853099      -0.01877393       0.03839416
Pb       3.10925192       3.26374514       9.43788091        6       0.38230613       0.09178687       0.00399935
I        3.11960359       3.16142417       6.33044037        7       0.02488501      -0.08404883      -0.07326541
I        3.07202955      12.44707215       9.57303741        8      -0.00593137       0.82798342       0.00076332
I       12.69045892       3.11037215       9.31695516        9      -0.12190550      -0.00365790       0.02063674
Cs      12.59293482       6.28755010       0.01829306       10       0.02249662       0.02601674      -0.01305080
Sn       3.12435010       9.56052061       3.15062046       11       0.20392891      -0.22360315       0.04320453
I        3.12823695       9.41528005      -0.03964396       12       0.01281789      -0.02591184       0.32911787
I        3.22987685       6.33963004       3.34348846       13      -0.01812666       0.22169818      -0.06383778
I       12.54797672       9.47897323       3.18407289       14       0.45141541      -0.00790772       0.01622987
Cs      12.62772332       6.37670147       6.33107502       15       0.00007594       0.01686696       0.00909126
Sn       3.15092314       9.60585573       9.52767083       16      -0.09620486      -0.58509892      -0.09820482
I        3.21129719       9.45047821       6.39142306       17      -0.02552464       0.08124727      -0.28027020
I        3.27318585       6.36682787       9.46119645       18      -0.02120218      -0.31395389       0.03004964
I       12.75232090       9.29047243       9.51341117       19      -0.04362467       0.03306688      -0.00840828
Cs       6.42731646      12.48168471       0.07151969       20      -0.01860599       0.02961896      -0.01790010
Sn       9.46004789       2.97849022       3.15805222       21      -0.16349824       0.24164621       0.13302256
I        9.37983390       3.20513597       0.03262055       22       0.07256168       0.02510130      -0.13038892
I        9.58465752      12.58096069       3.16067835       23      -0.00166149       0.17125264      -0.00862827
I        6.40167371       3.33393944       3.13944260       24       0.09589342      -0.12181363      -0.00886145
Cs       6.30196728      12.52280127       6.33967079       25       0.02430005      -0.00337753       0.01198828
Pb       9.59015848       3.19815654       9.56130374       26      -0.37277877      -0.05351696      -0.14149817
I        9.39180672       3.21194235       6.23888548       27       0.04792154      -0.06378608       0.14585794
I        9.55167203      12.50219466       9.65203600       28       0.03285708       0.65837239       0.00369210
I        6.36001744       3.20603131       9.44992963       29       0.03080107      -0.05649852       0.00072581
Cs       6.26396895       6.30732661       0.02717063       30      -0.01754796      -0.03070873       0.00635073
Sn       9.54294427       9.41210123       2.98925726       31      -0.32255646      -0.21791364       0.40647604
I        9.55181133       9.47231416      -0.00705820       32       0.00617944      -0.03846984       0.06668000
I        9.31698317       6.33673242       3.24311074       33       0.09990604       0.01104259      -0.06544996
I        6.37649726       9.66305522       3.17168248       34      -0.32416626       0.00960821      -0.04333230
Cs       6.34442708       6.33354712       6.35242147       35       0.00351126      -0.00817331      -0.00893166
Sn       9.43500763       9.48997642       9.53571397       36       0.11580792       0.08618602      -0.41754615
I        9.39804662       9.50672757       6.39480329       37       0.06274449       0.06859808      -0.05139371
I        9.48750875       6.50873539       9.38227584       38       0.04957666      -0.77856462       0.04685118
I        6.40322934       9.42662986       9.45613927       39      -0.08389121       0.05696445       0.07865707
