Cs Pb I  Cs Pb I  Cs Ge I  Cs Ge I  Cs Ge I  Cs Pb I  Cs Ge I  Cs Ge I 
 1.0000000000000000
    12.4204720328979441    0.0000000000000000    0.0000000000000000
     0.0000000000000000   12.4204720328979441    0.0000000000000000
     0.0000000000000000    0.0000000000000000   12.4204720328979441
 Cs  Pb  I   Cs  Pb  I   Cs  Ge  I   Cs  Ge  I   Cs  Ge  I   Cs  Pb  I   Cs  Ge  I   Cs  Ge  I  
   1   1   3   1   1   3   1   1   3   1   1   3   1   1   3   1   1   3   1   1   3   1   1   3
Cartesian
  0.0000000000000000  0.0000000000000000  0.0000000000000000
  3.1051180082244851  3.1051180082244851  3.1051180082244851
  3.1051180082244851  3.1051180082244851  0.0000000000000000
  3.1051180082244851  0.0000000000000000  3.1051180082244851
  0.0000000000000000  3.1051180082244851  3.1051180082244851
  0.0000000000000000  0.0000000000000000  6.2102360164489712
  3.1051180082244851  3.1051180082244851  9.3153540246734572
  3.1051180082244851  3.1051180082244851  6.2102360164489712
  3.1051180082244851  0.0000000000000000  9.3153540246734572
  0.0000000000000000  3.1051180082244851  9.3153540246734572
  0.0000000000000000  6.2102360164489712  0.0000000000000000
  3.1051180082244851  9.3153540246734572  3.1051180082244851
  3.1051180082244851  9.3153540246734572  0.0000000000000000
  3.1051180082244851  6.2102360164489712  3.1051180082244851
  0.0000000000000000  9.3153540246734572  3.1051180082244851
  0.0000000000000000  6.2102360164489712  6.2102360164489712
  3.1051180082244851  9.3153540246734572  9.3153540246734572
  3.1051180082244851  9.3153540246734572  6.2102360164489712
  3.1051180082244851  6.2102360164489712  9.3153540246734572
  0.0000000000000000  9.3153540246734572  9.3153540246734572
  6.2102360164489712  0.0000000000000000  0.0000000000000000
  9.3153540246734572  3.1051180082244851  3.1051180082244851
  9.3153540246734572  3.1051180082244851  0.0000000000000000
  9.3153540246734572  0.0000000000000000  3.1051180082244851
  6.2102360164489712  3.1051180082244851  3.1051180082244851
  6.2102360164489712  0.0000000000000000  6.2102360164489712
  9.3153540246734572  3.1051180082244851  9.3153540246734572
  9.3153540246734572  3.1051180082244851  6.2102360164489712
  9.3153540246734572  0.0000000000000000  9.3153540246734572
  6.2102360164489712  3.1051180082244851  9.3153540246734572
  6.2102360164489712  6.2102360164489712  0.0000000000000000
  9.3153540246734572  9.3153540246734572  3.1051180082244851
  9.3153540246734572  9.3153540246734572  0.0000000000000000
  9.3153540246734572  6.2102360164489712  3.1051180082244851
  6.2102360164489712  9.3153540246734572  3.1051180082244851
  6.2102360164489712  6.2102360164489712  6.2102360164489712
  9.3153540246734572  9.3153540246734572  9.3153540246734572
  9.3153540246734572  9.3153540246734572  6.2102360164489712
  9.3153540246734572  6.2102360164489712  9.3153540246734572
  6.2102360164489712  9.3153540246734572  9.3153540246734572
