Cs Sn I  Cs Sn I  Cs Sn I  Cs Sn I  Cs Sn I  Cs Sn I  Cs Ge I  Cs Sn I 
 1.0000000000000000
    13.2728185469402096    0.0000000000000000    0.0000000000000000
     0.0000000000000000   13.2728185469402096    0.0000000000000000
     0.0000000000000000    0.0000000000000000   13.2728185469402096
 Cs  Sn  I   Cs  Sn  I   Cs  Sn  I   Cs  Sn  I   Cs  Sn  I   Cs  Sn  I   Cs  Ge  I   Cs  Sn  I  
   1   1   3   1   1   3   1   1   3   1   1   3   1   1   3   1   1   3   1   1   3   1   1   3
Cartesian
  0.0000000000000000  0.0000000000000000  0.0000000000000000
  3.3182046367350524  3.3182046367350524  3.3182046367350524
  3.3182046367350524  3.3182046367350524  0.0000000000000000
  3.3182046367350524  0.0000000000000000  3.3182046367350524
  0.0000000000000000  3.3182046367350524  3.3182046367350524
  0.0000000000000000  0.0000000000000000  6.6364092734701039
  3.3182046367350524  3.3182046367350524  9.9546139102051576
  3.3182046367350524  3.3182046367350524  6.6364092734701039
  3.3182046367350524  0.0000000000000000  9.9546139102051576
  0.0000000000000000  3.3182046367350524  9.9546139102051576
  0.0000000000000000  6.6364092734701039  0.0000000000000000
  3.3182046367350524  9.9546139102051576  3.3182046367350524
  3.3182046367350524  9.9546139102051576  0.0000000000000000
  3.3182046367350524  6.6364092734701039  3.3182046367350524
  0.0000000000000000  9.9546139102051576  3.3182046367350524
  0.0000000000000000  6.6364092734701039  6.6364092734701039
  3.3182046367350524  9.9546139102051576  9.9546139102051576
  3.3182046367350524  9.9546139102051576  6.6364092734701039
  3.3182046367350524  6.6364092734701039  9.9546139102051576
  0.0000000000000000  9.9546139102051576  9.9546139102051576
  6.6364092734701039  0.0000000000000000  0.0000000000000000
  9.9546139102051576  3.3182046367350524  3.3182046367350524
  9.9546139102051576  3.3182046367350524  0.0000000000000000
  9.9546139102051576  0.0000000000000000  3.3182046367350524
  6.6364092734701039  3.3182046367350524  3.3182046367350524
  6.6364092734701039  0.0000000000000000  6.6364092734701039
  9.9546139102051576  3.3182046367350524  9.9546139102051576
  9.9546139102051576  3.3182046367350524  6.6364092734701039
  9.9546139102051576  0.0000000000000000  9.9546139102051576
  6.6364092734701039  3.3182046367350524  9.9546139102051576
  6.6364092734701039  6.6364092734701039  0.0000000000000000
  9.9546139102051576  9.9546139102051576  3.3182046367350524
  9.9546139102051576  9.9546139102051576  0.0000000000000000
  9.9546139102051576  6.6364092734701039  3.3182046367350524
  6.6364092734701039  9.9546139102051576  3.3182046367350524
  6.6364092734701039  6.6364092734701039  6.6364092734701039
  9.9546139102051576  9.9546139102051576  9.9546139102051576
  9.9546139102051576  9.9546139102051576  6.6364092734701039
  9.9546139102051576  6.6364092734701039  9.9546139102051576
  6.6364092734701039  9.9546139102051576  9.9546139102051576
