40
Lattice="10.507286705158473 0.0 0.0 0.0 10.514114145987206 0.0 0.0 -1.3363810118356717e-14 10.514114145987127" Properties=species:S:1:pos:R:3:spacegroup_kinds:I:1:forces:R:3 spacegroup="P 1" unit_cell=conventional occupancy="_JSON {\"0\": {\"K\": 1.0}, \"1\": {\"Ge\": 1.0}, \"2\": {\"Cl\": 1.0}, \"3\": {\"Cl\": 1.0}, \"4\": {\"Cl\": 1.0}, \"5\": {\"Cs\": 1.0}, \"6\": {\"Ge\": 1.0}, \"7\": {\"Cl\": 1.0}, \"8\": {\"Cl\": 1.0}, \"9\": {\"Cl\": 1.0}, \"10\": {\"K\": 1.0}, \"11\": {\"Ge\": 1.0}, \"12\": {\"Cl\": 1.0}, \"13\": {\"Cl\": 1.0}, \"14\": {\"Cl\": 1.0}, \"15\": {\"K\": 1.0}, \"16\": {\"Ge\": 1.0}, \"17\": {\"Cl\": 1.0}, \"18\": {\"Cl\": 1.0}, \"19\": {\"Cl\": 1.0}, \"20\": {\"K\": 1.0}, \"21\": {\"Ge\": 1.0}, \"22\": {\"Cl\": 1.0}, \"23\": {\"Cl\": 1.0}, \"24\": {\"Cl\": 1.0}, \"25\": {\"Cs\": 1.0}, \"26\": {\"Ge\": 1.0}, \"27\": {\"Cl\": 1.0}, \"28\": {\"Cl\": 1.0}, \"29\": {\"Cl\": 1.0}, \"30\": {\"K\": 1.0}, \"31\": {\"Ge\": 1.0}, \"32\": {\"Cl\": 1.0}, \"33\": {\"Cl\": 1.0}, \"34\": {\"Cl\": 1.0}, \"35\": {\"K\": 1.0}, \"36\": {\"Ge\": 1.0}, \"37\": {\"Cl\": 1.0}, \"38\": {\"Cl\": 1.0}, \"39\": {\"Cl\": 1.0}}" candidate_id=3428115d4d1362da formula=FA0.25K0.75GeCl3 config_index=0 rattle_stdev=0.0 method=PBE fidelity=phase2_force energy=-139.186070143341 stress="-0.0014233414716953161 0.0 0.0 0.0 -0.0017008076489820668 -2.1617865426656102e-18 0.0 -2.1617865426656102e-18 -0.001700807648982567" pbc="T T T"
K       10.50728671      10.51411415      10.51411415        0       0.00000000      -0.00000000       0.00000000
Ge       2.62682168       2.67404803       2.58300904        1      -0.00000000      -0.01198293       0.01198293
Cl       2.62682168       2.74791770      10.51411415        2      -0.00000000      -0.06682381       0.00000000
Cl       2.62682168      10.51411415       2.46529425        3      -0.00000000      -0.00000000       0.01769711
Cl      10.50728671       2.74644699       2.51061008        4       0.00000000      -0.04501295       0.04501295
Cs      10.50728671      10.51411415       5.25705707        5      -0.00000000       0.00000000       0.00000000
Ge       2.62682168       2.67404803       7.93110510        6      -0.00000000      -0.01198293      -0.01198293
Cl       2.62682168       2.79176283       5.25705707        7       0.00000000      -0.01769711       0.00000000
Cl       2.62682168      10.51411415       8.04881990        8      -0.00000000       0.00000000      -0.01769711
Cl      10.50728671       2.74644699       8.00350407        9       0.00000000      -0.04501295      -0.04501295
K       10.50728671       5.25705707      10.51411415       10      -0.00000000       0.00000000       0.00000000
Ge       2.62682168       7.84006611       2.58300904       11      -0.00000000       0.01198293       0.01198293
Cl       2.62682168       7.76619645      10.51411415       12      -0.00000000       0.06682381       0.00000000
Cl       2.62682168       5.25705707       2.50913937       13      -0.00000000      -0.00000000       0.06682381
Cl      10.50728671       7.76766715       2.51061008       14       0.00000000       0.04501295       0.04501295
K       10.50728671       5.25705707       5.25705707       15       0.00000000       0.00000000       0.00000000
Ge       2.62682168       7.84006611       7.93110510       16      -0.00000000       0.01198293      -0.01198293
Cl       2.62682168       7.72235132       5.25705707       17       0.00000000       0.01769711       0.00000000
Cl       2.62682168       5.25705707       8.00497477       18      -0.00000000       0.00000000      -0.06682381
Cl      10.50728671       7.76766715       8.00350407       19       0.00000000       0.04501295      -0.04501295
K        5.25364335      10.51411415      10.51411415       20      -0.00000000       0.00000000       0.00000000
Ge       7.88046503       2.67404803       2.58300904       21       0.00000000      -0.01198293       0.01198293
Cl       7.88046503       2.74791770      10.51411415       22       0.00000000      -0.06682381       0.00000000
Cl       7.88046503      10.51411415       2.46529425       23       0.00000000      -0.00000000       0.01769711
Cl       5.25364335       2.74644699       2.51061008       24      -0.00000000      -0.04501295       0.04501295
Cs       5.25364335      10.51411415       5.25705707       25      -0.00000000      -0.00000000       0.00000000
Ge       7.88046503       2.67404803       7.93110510       26       0.00000000      -0.01198293      -0.01198293
Cl       7.88046503       2.79176283       5.25705707       27      -0.00000000      -0.01769711       0.00000000
Cl       7.88046503      10.51411415       8.04881990       28       0.00000000       0.00000000      -0.01769711
Cl       5.25364335       2.74644699       8.00350407       29      -0.00000000      -0.04501295      -0.04501295
K        5.25364335       5.25705707      10.51411415       30       0.00000000       0.00000000       0.00000000
Ge       7.88046503       7.84006611       2.58300904       31       0.00000000       0.01198293       0.01198293
Cl       7.88046503       7.76619645      10.51411415       32       0.00000000       0.06682381       0.00000000
Cl       7.88046503       5.25705707       2.50913937       33       0.00000000      -0.00000000       0.06682381
Cl       5.25364335       7.76766715       2.51061008       34       0.00000000       0.04501295       0.04501295
K        5.25364335       5.25705707       5.25705707       35       0.00000000      -0.00000000       0.00000000
Ge       7.88046503       7.84006611       7.93110510       36       0.00000000       0.01198293      -0.01198293
Cl       7.88046503       7.72235132       5.25705707       37      -0.00000000       0.01769711       0.00000000
Cl       7.88046503       5.25705707       8.00497477       38       0.00000000       0.00000000      -0.06682381
Cl       5.25364335       7.76766715       8.00350407       39       0.00000000       0.04501295      -0.04501295
40
Lattice="10.507286705158473 0.0 0.0 0.0 10.514114145987206 0.0 0.0 -1.3363810118356717e-14 10.514114145987127" Properties=species:S:1:pos:R:3:spacegroup_kinds:I:1:forces:R:3 spacegroup="P 1" unit_cell=conventional occupancy="_JSON {\"0\": {\"K\": 1.0}, \"1\": {\"Ge\": 1.0}, \"2\": {\"Cl\": 1.0}, \"3\": {\"Cl\": 1.0}, \"4\": {\"Cl\": 1.0}, \"5\": {\"Cs\": 1.0}, \"6\": {\"Ge\": 1.0}, \"7\": {\"Cl\": 1.0}, \"8\": {\"Cl\": 1.0}, \"9\": {\"Cl\": 1.0}, \"10\": {\"K\": 1.0}, \"11\": {\"Ge\": 1.0}, \"12\": {\"Cl\": 1.0}, \"13\": {\"Cl\": 1.0}, \"14\": {\"Cl\": 1.0}, \"15\": {\"K\": 1.0}, \"16\": {\"Ge\": 1.0}, \"17\": {\"Cl\": 1.0}, \"18\": {\"Cl\": 1.0}, \"19\": {\"Cl\": 1.0}, \"20\": {\"K\": 1.0}, \"21\": {\"Ge\": 1.0}, \"22\": {\"Cl\": 1.0}, \"23\": {\"Cl\": 1.0}, \"24\": {\"Cl\": 1.0}, \"25\": {\"Cs\": 1.0}, \"26\": {\"Ge\": 1.0}, \"27\": {\"Cl\": 1.0}, \"28\": {\"Cl\": 1.0}, \"29\": {\"Cl\": 1.0}, \"30\": {\"K\": 1.0}, \"31\": {\"Ge\": 1.0}, \"32\": {\"Cl\": 1.0}, \"33\": {\"Cl\": 1.0}, \"34\": {\"Cl\": 1.0}, \"35\": {\"K\": 1.0}, \"36\": {\"Ge\": 1.0}, \"37\": {\"Cl\": 1.0}, \"38\": {\"Cl\": 1.0}, \"39\": {\"Cl\": 1.0}}" candidate_id=3428115d4d1362da formula=FA0.25K0.75GeCl3 config_index=1 rattle_stdev=0.08 method=PBE fidelity=phase2_force energy=-138.59834542866867 stress="-0.004721665909872326 0.00016789014204069856 0.00020401553513884157 0.00016789014204069856 -0.003811259805118978 -0.00028271025111030555 0.00020401553513884157 -0.00028271025111030555 -0.00513585494927872" pbc="T T T"
K       10.42037100      10.44242894      10.48961020        0      -0.05587675       0.04869109       0.04724523
Ge       2.51962698       2.57752119       2.53167090        1       0.40437433       0.37859544       0.09812178
Cl       2.73145733       2.89555453      10.58044334        2      -0.19774903      -0.29916004       0.04984494
Cl       2.62495777      10.49742903       2.39196467        3      -0.08700800       0.11938300      -0.02302064
Cl      10.42130730       2.73955551       2.60467716        4       0.61949395      -0.06039997       0.03662985
Cs      10.37647937      10.61236967       5.34316797        5       0.12660632       0.01845110      -0.13395660
Ge       2.65840351       2.64303197       7.97817725        6       0.17900436      -0.16489249      -0.29328023
Cl       2.51215777       2.76587685       5.35729585        7       0.09329860      -0.02794263      -0.03241224
Cl       2.56836227      10.62839295       8.12439221        8       0.00037278      -0.31712661      -0.06718780
Cl      10.48616648       2.73338993       7.92637548        9      -0.00885629      -0.02573335      -0.00043559
K       10.47987492       5.26096940      10.47414359       10      -0.01761156      -0.05876100       0.03160723
Ge       2.44986932       7.86485306       2.45583694       11       0.79631140      -0.32200983      -0.14013863
Cl       2.68517804       7.75756435      10.46210043       12      -0.12768695       0.13545776       0.10594241
Cl       2.49137716       5.22757915       2.38190964       13      -0.02671583       0.07527751       0.25185498
Cl      10.62572717       7.80562237       2.58371919       14      -0.69832218       0.06524827       0.01366116
K       10.58412433       5.26382048       5.39443555       15       0.03585024      -0.07581886      -0.03136334
Ge       2.69497309       7.77967529       7.74809476       16       0.44145772       0.00578552       0.29048142
Cl       2.63556077       7.68633867       5.22401928       17      -0.03006107      -0.03106095       0.20286065
Cl       2.65234038       5.21376844       8.08086809       18      -0.03720566       0.65335382      -0.25272404
Cl      10.51940151       7.77381935       7.99875203       19       0.18539642       0.07331621      -0.16720132
K        5.24803226      10.46882222      10.53899458       20       0.03807600       0.02598504       0.04127440
Ge       7.93840173       2.71536403       2.66509150       21      -0.58446459      -0.38447793      -0.71480341
Cl       7.92207724       2.67833062      10.63415936       22       0.11590277      -0.00978385      -0.50676953
Cl       7.97378280      10.55346730       2.40671327       23      -0.03437600      -0.09547616       0.20878155
Cl       5.30806784       2.78716674       2.44360718       24      -0.38889459      -0.10780188       0.21157243
Cs       5.30545494      10.51511730       5.38182420       25      -0.09408471       0.04859645      -0.13866397
Ge       7.96323266       2.70106345       7.82689627       26      -0.21847089       0.36955015       0.39012951
Cl       7.79098149       2.89652404       5.21559971       27       0.04500718      -0.08781151       0.58092114
Cl       7.84901509      10.59755163       8.05479712       28       0.13414942      -0.22295208      -0.18312549
Cl       5.26079832       2.75075958       8.03697983       29      -0.12130090      -0.07883386      -0.11635421
K        5.15542495       5.16989375      10.53948410       30       0.04938295       0.01246782       0.04339128
Ge       7.81803259       7.77157563       2.47741933       31      -0.43400520       0.26482164       0.01618340
Cl       7.91676756       7.84633843      10.62721292       32       0.00472475       0.03826830      -0.13578264
Cl       7.86525040       5.25946592       2.35926604       33       0.07009183       0.21758750       0.12247351
Cl       5.24430120       7.75746793       2.58278482       34       0.56888201       0.02898883      -0.00550239
K        5.14849358       5.24909301       5.26830106       35      -0.00559985      -0.03472288      -0.03922960
Ge       8.09076950       7.98052842       7.72025328       36      -0.71647827      -0.44352698       0.60332926
Cl       7.77753347       7.70861354       5.40109337       37       0.21133324       0.13104272      -0.35946190
Cl       7.92916068       5.25957912       7.88766180       38       0.06567763       0.13283178       0.04821073
Cl       5.27839861       7.85904458       7.96263653       39      -0.29603677       0.00410986      -0.08670145
40
Lattice="10.507286705158473 0.0 0.0 0.0 10.514114145987206 0.0 0.0 -1.3363810118356717e-14 10.514114145987127" Properties=species:S:1:pos:R:3:spacegroup_kinds:I:1:forces:R:3 spacegroup="P 1" unit_cell=conventional occupancy="_JSON {\"0\": {\"K\": 1.0}, \"1\": {\"Ge\": 1.0}, \"2\": {\"Cl\": 1.0}, \"3\": {\"Cl\": 1.0}, \"4\": {\"Cl\": 1.0}, \"5\": {\"Cs\": 1.0}, \"6\": {\"Ge\": 1.0}, \"7\": {\"Cl\": 1.0}, \"8\": {\"Cl\": 1.0}, \"9\": {\"Cl\": 1.0}, \"10\": {\"K\": 1.0}, \"11\": {\"Ge\": 1.0}, \"12\": {\"Cl\": 1.0}, \"13\": {\"Cl\": 1.0}, \"14\": {\"Cl\": 1.0}, \"15\": {\"K\": 1.0}, \"16\": {\"Ge\": 1.0}, \"17\": {\"Cl\": 1.0}, \"18\": {\"Cl\": 1.0}, \"19\": {\"Cl\": 1.0}, \"20\": {\"K\": 1.0}, \"21\": {\"Ge\": 1.0}, \"22\": {\"Cl\": 1.0}, \"23\": {\"Cl\": 1.0}, \"24\": {\"Cl\": 1.0}, \"25\": {\"Cs\": 1.0}, \"26\": {\"Ge\": 1.0}, \"27\": {\"Cl\": 1.0}, \"28\": {\"Cl\": 1.0}, \"29\": {\"Cl\": 1.0}, \"30\": {\"K\": 1.0}, \"31\": {\"Ge\": 1.0}, \"32\": {\"Cl\": 1.0}, \"33\": {\"Cl\": 1.0}, \"34\": {\"Cl\": 1.0}, \"35\": {\"K\": 1.0}, \"36\": {\"Ge\": 1.0}, \"37\": {\"Cl\": 1.0}, \"38\": {\"Cl\": 1.0}, \"39\": {\"Cl\": 1.0}}" candidate_id=3428115d4d1362da formula=FA0.25K0.75GeCl3 config_index=2 rattle_stdev=0.08 method=PBE fidelity=phase2_force energy=-138.5390640742737 stress="-0.003809943406682624 -2.8784892957542077e-06 -0.00017058348656772982 -2.8784892957542077e-06 -0.003993170743904987 0.00020817874974607276 -0.00017058348656772982 0.00020817874974607276 -0.0038621977075403123" pbc="T T T"
K       10.49826966      10.42798903      10.65691630        0       0.04169382      -0.02443466      -0.12543665
Ge       2.51026301       2.64794237       2.48221732        1       0.77299235       0.25861977       0.20203835
Cl       2.65689100       2.67766591      10.48611608        2      -0.13929485       0.06028458       0.07971312
Cl       2.65055449      10.61018710       2.33977463        3      -0.09967080      -0.71297255       0.06767450
Cl      10.65560900       2.78596394       2.50015317        4      -0.95313495      -0.05264424      -0.05492892
Cs      10.47503704      10.43622116       5.21965973        5      -0.01669936      -0.00792155       0.11954320
Ge       2.56938796       2.77175950       7.86892910        6       0.52914258       0.04955665      -0.24061453
Cl       2.57973962       2.78715332       5.26342346        7      -0.03012746      -0.12890712       0.10729694
Cl       2.53216559      10.39021475       8.12180039        8      -0.02083800       0.09442900      -0.04653094
Cl      10.54030036       2.69078547       7.82040232        9      -0.18022899       0.07146754       0.09465145
K       10.44430738       5.17477574      10.52157879       10       0.05038158       0.05288860      -0.04712746
Ge       2.58448614       7.90248570       2.56694387       11       0.40128168      -0.35025444       0.03422594
Cl       2.58837299       7.68337548      10.47389540       12       0.02559944       0.02152499       0.58374158
Cl       2.69001289       5.18305726       2.68594220       13      -0.09482669       0.72351729      -0.10699422
Cl      10.39526781       7.74853936       2.52799733       14       0.64612740       0.00829524       0.01515358
K       10.47909588       5.26392712       5.26558923       15      -0.00671706       0.02270715       0.03454819
Ge       2.61105918       7.94782082       7.95871902       16      -0.27549835      -0.19685292      -0.17807954
Cl       2.67143323       7.67472851       5.31568365       17      -0.08544479       0.19626712      -0.38400907
Cl       2.73332189       5.19865444       7.96611431       18      -0.09009458      -0.24678955      -0.01687525
Cl      10.59343984       7.56003856       8.01685832       19       0.08948276       0.15947129      -0.08899688
K        5.33676012      10.36942824      10.57480542       20      -0.04901864       0.05824577      -0.04985649
Ge       7.84045600       2.48650458       2.57437563       21      -0.55161961       0.57632837       0.28080227
Cl       7.76024202       2.78701999      10.46985986       22       0.19531034      -0.02342678       0.18088525
Cl       7.96506563      10.44456872       2.45928696       23      -0.01959441       0.34679794      -0.04107211
Cl       5.24507096       2.91435275       2.48336705       24       0.68795945      -0.43238330       0.06325974
Cs       5.21141094      10.41054480       5.27418500       25       0.03559366       0.07966032       0.04408962
Ge       7.97056659       2.70617090       7.99235193       26      -0.62052647      -0.08972148      -0.33418947
Cl       7.77221483       2.83767151       5.23944610       27       0.11169295      -0.21987965      -0.22906748
Cl       7.93208015      10.43373660       8.20079898       28       0.00990867       0.50207524      -0.02855330
Cl       5.27099222       2.78644462       7.95337678       29       0.15056145      -0.14030349      -0.04541562
K        5.17341262       5.19455226      10.53045636       30      -0.02898893      -0.05589544      -0.00335067
Ge       7.92335239       7.75406632       2.40558066       31      -0.48099474      -0.31888452       0.75284952
Cl       7.93221945       7.74040958      10.50030901       32       0.00824755      -0.03096226       0.17109958
Cl       7.69739128       5.24809357       2.58556448       33       0.22949336       0.02078155      -0.07832452
Cl       5.29002241       7.93262135       2.51560692       34      -0.58663647       0.08514964      -0.09558926
K        5.25387075       5.22077277       5.28693567       35       0.01139626      -0.03207554      -0.01883761
Ge       7.81541575       7.83194151       7.96676216       36       0.12030876       0.10091545      -0.80181993
Cl       7.77845474       7.73097786       5.32523602       37       0.10247700       0.14301214      -0.01437361
Cl       7.86791686       5.35216261       7.88719370       38       0.09510976      -0.73280282       0.07946617
Cl       5.32292662       7.69619599       7.95958642       39       0.00008189       0.17153959       0.11226561
40
Lattice="10.507286705158473 0.0 0.0 0.0 10.514114145987206 0.0 0.0 -1.3363810118356717e-14 10.514114145987127" Properties=species:S:1:pos:R:3:spacegroup_kinds:I:1:forces:R:3 spacegroup="P 1" unit_cell=conventional occupancy="_JSON {\"0\": {\"K\": 1.0}, \"1\": {\"Ge\": 1.0}, \"2\": {\"Cl\": 1.0}, \"3\": {\"Cl\": 1.0}, \"4\": {\"Cl\": 1.0}, \"5\": {\"Cs\": 1.0}, \"6\": {\"Ge\": 1.0}, \"7\": {\"Cl\": 1.0}, \"8\": {\"Cl\": 1.0}, \"9\": {\"Cl\": 1.0}, \"10\": {\"K\": 1.0}, \"11\": {\"Ge\": 1.0}, \"12\": {\"Cl\": 1.0}, \"13\": {\"Cl\": 1.0}, \"14\": {\"Cl\": 1.0}, \"15\": {\"K\": 1.0}, \"16\": {\"Ge\": 1.0}, \"17\": {\"Cl\": 1.0}, \"18\": {\"Cl\": 1.0}, \"19\": {\"Cl\": 1.0}, \"20\": {\"K\": 1.0}, \"21\": {\"Ge\": 1.0}, \"22\": {\"Cl\": 1.0}, \"23\": {\"Cl\": 1.0}, \"24\": {\"Cl\": 1.0}, \"25\": {\"Cs\": 1.0}, \"26\": {\"Ge\": 1.0}, \"27\": {\"Cl\": 1.0}, \"28\": {\"Cl\": 1.0}, \"29\": {\"Cl\": 1.0}, \"30\": {\"K\": 1.0}, \"31\": {\"Ge\": 1.0}, \"32\": {\"Cl\": 1.0}, \"33\": {\"Cl\": 1.0}, \"34\": {\"Cl\": 1.0}, \"35\": {\"K\": 1.0}, \"36\": {\"Ge\": 1.0}, \"37\": {\"Cl\": 1.0}, \"38\": {\"Cl\": 1.0}, \"39\": {\"Cl\": 1.0}}" candidate_id=3428115d4d1362da formula=FA0.25K0.75GeCl3 config_index=3 rattle_stdev=0.08 method=PBE fidelity=phase2_force energy=-138.2934250255171 stress="-0.003910679427783788 0.00038297954645812976 0.0002240920857931587 0.00038297954645812976 -0.004165024998212861 0.00015290953358310035 0.0002240920857931587 0.00015290953358310035 -0.003056842474650753" pbc="T T T"
K       10.40160322      10.67545438      10.51791930        0       0.05330633       0.11475686       0.04342343
Ge       2.60780798       2.68077785       2.65977242        1      -0.35341916      -0.50955705      -0.73487461
Cl       2.57229380       2.79024333      10.45212069        2       0.08469471      -0.11608524      -0.20627115
Cl       2.73921817      10.49613971       2.36082339        3       0.01083190      -0.20293680       0.09868262
Cl      10.45300389       2.61677233       2.40821220        4       0.21594933       0.03830602       0.16177525
Cs      10.48934297      10.44606926       5.19659786        5      -0.03248673       0.01507246      -0.00788271
Ge       2.64787534       2.46963259       7.79748243        6       0.17108899       0.54966508       0.83549306
Cl       2.56988286       2.59602078       5.15492229        7      -0.00334091      -0.00719454       0.28043974
Cl       2.67991148      10.41180743       7.98558712        8      -0.01237041       0.68978675      -0.02543721
Cl      10.38709704       2.65128380       8.18483928        9       0.33255503      -0.05819659      -0.20276606
K       10.46914448       5.32879019      10.36971909       10       0.04084844      -0.16156747       0.01307957
Ge       2.58752451       7.74410639       2.51859142       11       0.05903212       0.43248866      -0.13242043
Cl       2.73928717       7.74777119      10.45701843       12      -0.11639657      -0.02599336       0.84138072
Cl       2.61381467       5.20274668       2.63026879       13      -0.06374363       0.38261145       0.07005422
Cl      10.36748088       7.82034952       2.48308078       14       1.37166789      -0.10908379       0.04607162
K       10.44659085       5.27081918       5.20447379       15      -0.06173894      -0.01713318       0.01520519
Ge       2.67103731       7.87067477       7.90140188       16      -0.05175061      -0.77823257      -0.14851290
Cl       2.75307319       7.73969512       5.35398440       17      -0.02209808       0.06434645      -0.47258719
Cl       2.68534012       5.31097676       7.95855028       18      -0.03172577      -0.29745689      -0.18062887
Cl      10.49933954       7.64087796       7.99752675       19      -0.29227241       0.10702884      -0.04507158
K        5.34954806      10.49288033      10.46197018       20      -0.05617851       0.02846839       0.01594928
Ge       7.72874210       2.55082411       2.55158318       21       0.57440281       0.40520037      -0.06582395
Cl       7.84730656       2.80480312      10.56551618       22      -0.15162669      -0.18658448      -0.02382248
Cl       8.07225193      10.50053156       2.38422355       23      -0.23944502      -0.30584187       0.03808035
Cl       5.21815886       2.81412517       2.55015880       24      -0.20105467      -0.14222050       0.09570764
Cs       5.27593441      10.55588142       5.28246641       25       0.05299382      -0.07973101      -0.04657580
Ge       7.89863594       2.64282079       7.87366370       26       0.04214411      -0.18991778      -0.02222086
Cl       8.00399392       2.72272722       5.22835087       27      -0.02925490      -0.05841805       0.25715899
Cl       7.88716917      10.64845191       7.95447292       28      -0.01175714      -0.92104116       0.09631541
Cl       5.22174518       2.71257585       8.04825101       29      -0.51160242      -0.19934609      -0.20690856
K        5.20746378       5.26275686      10.58349055       30      -0.00869283      -0.08103138      -0.07704259
Ge       7.91365775       7.82196733       2.64345649       31      -0.28578743      -0.21787800       0.22398114
Cl       7.89847542       7.73101620      10.56644049       32       0.05844469       0.03200745      -0.04624518
Cl       7.80877517       5.14310118       2.64853810       33       0.14245898       0.32957185       0.07817651
Cl       5.48718940       7.71376913       2.44892814       34      -1.13792980       0.11401326       0.08669209
K        5.33808274       5.34871411       5.26670692       35       0.04007814       0.02221327       0.02520529
Ge       7.88146450       7.78410440       8.08120904       36       0.14140693      -0.05211281      -0.42428018
Cl       7.84441236       7.69785258       5.37007642       37       0.02236549       0.03834373      -0.07864442
Cl       7.82817775       5.07573175       8.05340293       38      -0.00212352       1.24682159      -0.09797057
Cl       5.21169791       7.78426634       8.09121623       39       0.26227453       0.09288581      -0.08009426
