Cs Sn I  Br Cl Cs Sn Cl Cs Sn Cl I  Cs Sn Br Cl Br Cs Sn Cl Br Cl Cs Sn Cl I  Cl Cs Sn Br Cl Cs Sn Br Cl
 1.0000000000000000
    12.3049307848520630    0.0000000000000000    0.0000000000000000
     0.0000000000000000   12.3049307848520630    0.0000000000000000
     0.0000000000000000    0.0000000000000000   12.3049307848520630
 Cs  Sn  I   Br  Cl  Cs  Sn  Cl  Cs  Sn  Cl  I   Cs  Sn  Br  Cl  Br  Cs  Sn  Cl  Br  Cl  Cs  Sn  Cl  I   Cl  Cs  Sn  Br  Cl  Cs  Sn  Br  Cl 
   1   1   1   1   1   1   1   3   1   1   2   1   1   1   1   1   1   1   1   1   1   1   1   1   1   1   1   1   1   1   2   1   1   1   2
Cartesian
  0.0000000000000000  0.0000000000000000  0.0000000000000000
  3.0762326962130158  3.0762326962130158  3.0762326962130158
  3.0762326962130158  3.0762326962130158  0.0000000000000000
  3.0762326962130158  0.0000000000000000  3.0762326962130158
  0.0000000000000000  3.0762326962130158  3.0762326962130158
  0.0000000000000000  0.0000000000000000  6.1524653924260306
  3.0762326962130158  3.0762326962130158  9.2286980886390477
  3.0762326962130158  3.0762326962130158  6.1524653924260306
  3.0762326962130158  0.0000000000000000  9.2286980886390477
  0.0000000000000000  3.0762326962130158  9.2286980886390477
  0.0000000000000000  6.1524653924260306  0.0000000000000000
  3.0762326962130158  9.2286980886390477  3.0762326962130158
  3.0762326962130158  9.2286980886390477  0.0000000000000000
  3.0762326962130158  6.1524653924260306  3.0762326962130158
  0.0000000000000000  9.2286980886390477  3.0762326962130158
  0.0000000000000000  6.1524653924260306  6.1524653924260306
  3.0762326962130158  9.2286980886390477  9.2286980886390477
  3.0762326962130158  9.2286980886390477  6.1524653924260306
  3.0762326962130158  6.1524653924260306  9.2286980886390477
  0.0000000000000000  9.2286980886390477  9.2286980886390477
  6.1524653924260306  0.0000000000000000  0.0000000000000000
  9.2286980886390477  3.0762326962130158  3.0762326962130158
  9.2286980886390477  3.0762326962130158  0.0000000000000000
  9.2286980886390477  0.0000000000000000  3.0762326962130158
  6.1524653924260306  3.0762326962130158  3.0762326962130158
  6.1524653924260306  0.0000000000000000  6.1524653924260306
  9.2286980886390477  3.0762326962130158  9.2286980886390477
  9.2286980886390477  3.0762326962130158  6.1524653924260306
  9.2286980886390477  0.0000000000000000  9.2286980886390477
  6.1524653924260306  3.0762326962130158  9.2286980886390477
  6.1524653924260306  6.1524653924260306  0.0000000000000000
  9.2286980886390477  9.2286980886390477  3.0762326962130158
  9.2286980886390477  9.2286980886390477  0.0000000000000000
  9.2286980886390477  6.1524653924260306  3.0762326962130158
  6.1524653924260306  9.2286980886390477  3.0762326962130158
  6.1524653924260306  6.1524653924260306  6.1524653924260306
  9.2286980886390477  9.2286980886390477  9.2286980886390477
  9.2286980886390477  9.2286980886390477  6.1524653924260306
  9.2286980886390477  6.1524653924260306  9.2286980886390477
  6.1524653924260306  9.2286980886390477  9.2286980886390477
