Cs Pb I  Cs Pb I  Cs Pb Br I  Cs Pb I  Br I  Cs Pb I  Br Cs Pb I  Br Cs Pb I  Br Cs Pb I  Br
 1.0000000000000000
    13.2441100116240342    0.0000000000000000    0.0000000000000000
     0.0000000000000000   13.2441100116240342    0.0000000000000000
     0.0000000000000000    0.0000000000000000   13.2441100116240342
 Cs  Pb  I   Cs  Pb  I   Cs  Pb  Br  I   Cs  Pb  I   Br  I   Cs  Pb  I   Br  Cs  Pb  I   Br  Cs  Pb  I   Br  Cs  Pb  I   Br 
   1   1   3   1   1   3   1   1   2   1   1   1   1   1   1   1   1   2   1   1   1   2   1   1   1   1   2   1   1   2   1
Cartesian
  0.0000000000000000  0.0000000000000000  0.0000000000000000
  3.3110275029060086  3.3110275029060086  3.3110275029060086
  3.3110275029060086  3.3110275029060086  0.0000000000000000
  3.3110275029060086  0.0000000000000000  3.3110275029060086
  0.0000000000000000  3.3110275029060086  3.3110275029060086
  0.0000000000000000  0.0000000000000000  6.6220550058120162
  3.3110275029060086  3.3110275029060086  9.9330825087180266
  3.3110275029060086  3.3110275029060086  6.6220550058120162
  3.3110275029060086  0.0000000000000000  9.9330825087180266
  0.0000000000000000  3.3110275029060086  9.9330825087180266
  0.0000000000000000  6.6220550058120162  0.0000000000000000
  3.3110275029060086  9.9330825087180266  3.3110275029060086
  3.3110275029060086  9.9330825087180266  0.0000000000000000
  3.3110275029060086  6.6220550058120162  3.3110275029060086
  0.0000000000000000  9.9330825087180266  3.3110275029060086
  0.0000000000000000  6.6220550058120162  6.6220550058120162
  3.3110275029060086  9.9330825087180266  9.9330825087180266
  3.3110275029060086  9.9330825087180266  6.6220550058120162
  3.3110275029060086  6.6220550058120162  9.9330825087180266
  0.0000000000000000  9.9330825087180266  9.9330825087180266
  6.6220550058120162  0.0000000000000000  0.0000000000000000
  9.9330825087180266  3.3110275029060086  3.3110275029060086
  9.9330825087180266  3.3110275029060086  0.0000000000000000
  9.9330825087180266  0.0000000000000000  3.3110275029060086
  6.6220550058120162  3.3110275029060086  3.3110275029060086
  6.6220550058120162  0.0000000000000000  6.6220550058120162
  9.9330825087180266  3.3110275029060086  9.9330825087180266
  9.9330825087180266  3.3110275029060086  6.6220550058120162
  9.9330825087180266  0.0000000000000000  9.9330825087180266
  6.6220550058120162  3.3110275029060086  9.9330825087180266
  6.6220550058120162  6.6220550058120162  0.0000000000000000
  9.9330825087180266  9.9330825087180266  3.3110275029060086
  9.9330825087180266  9.9330825087180266  0.0000000000000000
  9.9330825087180266  6.6220550058120162  3.3110275029060086
  6.6220550058120162  9.9330825087180266  3.3110275029060086
  6.6220550058120162  6.6220550058120162  6.6220550058120162
  9.9330825087180266  9.9330825087180266  9.9330825087180266
  9.9330825087180266  9.9330825087180266  6.6220550058120162
  9.9330825087180266  6.6220550058120162  9.9330825087180266
  6.6220550058120162  9.9330825087180266  9.9330825087180266
