40
Lattice="12.279841787966836 0.0 0.0 0.0026913160964398154 12.152137397436427 0.0 -0.0004984587444943877 -0.005671545868822636 12.409414507830723" Properties=species:S:1:pos:R:3:spacegroup_kinds:I:1:forces:R:3 spacegroup="P 1" unit_cell=conventional candidate_id=4976639170f9c4b2 formula=FAPbBr0.25Cl0.25I0.53 config_index=0 rattle_stdev=0.0 method=PBE fidelity=phase2_force energy=-123.4575399175689 stress="0.0003652657911287153 -2.9319473155508096e-05 7.943829131260596e-06 -2.9319473155508096e-05 0.0008250694328214645 -1.5720239448735147e-05 7.943829131260596e-06 -1.5720239448735147e-05 -0.0007650019963480099" pbc="T T T"
Cs       0.08436014      12.14264748      12.38525275        0      -0.00010720      -0.00015206      -0.00547728
Pb       3.28279501       3.24599880       3.19697333        1      -0.02156004       0.01485380       0.00463410
I        3.22876132       3.13444637      12.40068082        2      -0.02721520      -0.01923356       0.01005056
I        3.24499898       0.00419876       3.07024531        3      -0.01966881      -0.00628918      -0.00744880
I        0.00568141       3.25964199       3.24717954        4       0.00554828      -0.00790862      -0.01817773
Cs       0.08014202       0.02223175       6.21179811        5      -0.00303754       0.00576002      -0.00655699
Pb       3.20439481       3.24268001       9.20938243        6       0.02728569      -0.00345695       0.00854098
Br       3.20682577       3.16487477       6.20067512        7       0.01790890       0.00943559       0.00410558
Br       3.19480836      12.07026896       9.38679174        8       0.03270076      -0.03140134       0.02501748
I        0.01864552       3.11411644       9.14245261        9       0.00137895      -0.02079292       0.01518030
Cs       0.04718453       6.07645021      12.37556113       10      -0.01085961      -0.01067188      -0.00980503
Pb       3.20573020       8.90862187       2.88520376       11       0.04351146       0.00021153       0.03624329
Cl       3.27327590       8.92666549       0.00931563       12       0.01811419      -0.01408768      -0.01435362
Cl       3.28651047       6.07743143       3.04699925       13       0.01544228       0.00746745      -0.01640710
I        0.01740409       8.90593397       2.99059193       14       0.00744171       0.00459766      -0.00000248
Cs       0.04438324       6.06518354       6.23391017       15      -0.01921245       0.01228223       0.00447428
Pb       3.24966693       9.07805378       9.46318997       16      -0.02215169       0.00406614      -0.04186314
I        3.25782360       8.97592208       6.22345876       17      -0.03407862       0.00830994       0.01680817
Cl       3.27553890       6.01919907       9.34835787       18       0.00184232       0.01081056      -0.00021774
I        0.00491158       9.02431097       9.43738066       19       0.03727687       0.00924514       0.00145390
Cs       6.05509381      12.11117051      12.35459553       20       0.00794266      -0.02238180      -0.01320742
Pb       8.99480915       3.23748908       3.20832980       21       0.01749820      -0.02741835      -0.00790462
I        9.03589732       3.23453076      12.40433777       22       0.01282327      -0.02070406       0.01167146
I        9.02558243      12.14819967       3.17889542       23       0.00873266       0.01043495      -0.00554244
Cl       6.12915168       3.31524358       3.28353997       24      -0.00125614       0.01707111       0.03802131
Cs       6.05406066       0.03586428       6.22080041       25       0.00697379       0.01747414      -0.00355691
Pb       9.10035731       3.15311037       9.18992430       26      -0.03091400       0.05988956       0.00845814
Br       9.08164135       3.17688891       6.19694299       27      -0.02551613       0.02424504       0.00683537
I        9.05066052       0.00785444       9.22235694       28       0.00296600      -0.01580133       0.00388508
Br       6.13759804       3.11265423       9.18808156       29      -0.00226819      -0.00439387      -0.04090197
Cs       6.02062499       6.14356499      12.36378592       30      -0.01136836       0.02571326      -0.00086379
Pb       9.09442244       8.88036357       3.10741111       31      -0.03244595       0.05593222       0.00574746
I        9.04467217       8.93949289       0.00398713       32       0.01269745       0.01128744      -0.00176163
Cl       9.01283032       6.06490296       3.18359919       33      -0.01759605      -0.01291356       0.01760334
Br       6.13898483       8.94416920       3.02432707       34      -0.01700634      -0.02326669      -0.02644581
Cs       6.08981139       5.98030755       6.18476444       35       0.01754853      -0.02612198      -0.02745691
Pb       8.95129608       9.00586210       9.31423375       36       0.04285140      -0.01788246       0.00486967
I        9.03424975       8.90600690       6.21130909       37       0.01283831       0.00486853       0.00034023
Br       9.13290256       6.08512498       9.25828849       38      -0.00834427      -0.03065102      -0.01417413
Cl       6.12183928       8.97629522       9.44220743       39      -0.04719969      -0.00049466       0.03769184
40
Lattice="12.279841787966836 0.0 0.0 0.0026913160964398154 12.152137397436427 0.0 -0.0004984587444943877 -0.005671545868822636 12.409414507830723" Properties=species:S:1:pos:R:3:spacegroup_kinds:I:1:forces:R:3 spacegroup="P 1" unit_cell=conventional candidate_id=4976639170f9c4b2 formula=FAPbBr0.25Cl0.25I0.53 config_index=1 rattle_stdev=0.08 method=PBE fidelity=phase2_force energy=-122.72119576075835 stress="-0.0006891110481749838 -0.00015769368089430628 -7.213400806226654e-05 -0.00015769368089430628 4.633970870352533e-05 -0.00014069367555056363 -7.213400806226654e-05 -0.00014069367555056363 -0.003750897276961575" pbc="T T T"
Cs      -0.00255557      12.07096227      12.36074880        0      -0.02763135       0.03220312       0.01820580
Pb       3.17560031       3.14947195       3.14563519        1       0.23893047       0.31282085       0.22748351
I        3.33339697       3.28208321      12.46701001        2      -0.14789974      -0.14656073      -0.04681599
I        3.24313507      -0.01248636       2.99691573        3      -0.02254217       0.00736587       0.00726304
I       -0.08029800       3.25275051       3.34124662        4       0.42549924       0.00130647      -0.00166715
Cs      -0.05066532       0.12048726       6.29790901        5       0.03744480       0.02684435      -0.05989416
Pb       3.23597664       3.21166395       9.25645457        6       0.05817530      -0.24912207      -0.09293285
Br       3.09216187       3.13898880       6.30091390        7       0.06132352       0.02645474      -0.14991978
Br       3.13634895      12.18454777       9.46236405        8       0.03547775      -0.25365998      -0.02693511
I       -0.00247471       3.10105937       9.06532403        9       0.13669686      -0.02365704       0.06284677
Cs       0.01977274       6.08036253      12.33559057       10      -0.02438931      -0.04304901       0.02772822
Pb       3.02877784       8.93340882       2.75803165       11       0.96542197      -0.26566883      -0.10053731
Cl       3.33163227       8.91803339      -0.04269809       12      -0.07106528      -0.00135119      -0.01033948
Cl       3.15106595       6.04795351       2.91976951       13      -0.01087763       0.04040106       0.02808193
I        0.13584456       8.94388919       3.06370103       14      -0.86962400       0.00318573       0.05059210
Cs       0.12122086       6.07194694       6.37128864       15       0.00226270      -0.01495686      -0.03435495
Pb       3.31781835       9.01766295       9.28017963       16       0.20754110       0.14848361       0.30586783
I        3.26656269       8.93990943       6.19042097       17      -0.04115127       0.02289090      -0.04545240
Cl       3.30105760       5.97591043       9.42425119       18      -0.02098269       0.34933732      -0.05969444
I        0.01702639       9.03046317       9.43262862       19       0.16382862       0.02322563      -0.01739444
Cs       6.04948271      12.06587859      12.37947595       20       0.01961257      -0.01883317      -0.00720015
Pb       9.05274586       3.27880509       3.29041225       21      -0.34924418      -0.25566760      -0.53203370
I        9.07750953       3.16494368      12.52438298       22       0.05756309      -0.00078658      -0.41831203
I        9.11890020      12.18755283       3.12031444       23       0.01077774      -0.11662362       0.09926886
Cl       6.18357617       3.35596332       3.21653707       24      -0.32201676      -0.00001561       0.09282184
Cs       6.10587225       0.03686744       6.34556754       25      -0.03951017       0.02662841      -0.04854225
Pb       9.18312494       3.18012578       9.08571547       26      -0.25148745       0.35603606       0.36580555
Br       8.99215781       3.28165012       6.15548563       27      -0.03136268      -0.01577303       0.46326303
I        9.01921057       0.09129192       9.22833416       28       0.01537697      -0.18210059      -0.00761598
Br       6.14475300       3.11696682       9.22155732       29       0.00318233      -0.00512549      -0.05749698
Cs       5.92240659       6.05640167      12.38915587       30       0.11064750       0.11152280       0.04660862
Pb       9.03198999       8.81187309       3.00182140       31      -0.13920431       0.28899262       0.53847203
I        9.08097470       9.01963488       0.11708590       32       0.03068112       0.01462816      -0.70794841
Cl       8.99761569       6.06731180       3.03372585       33       0.01737439       0.06878149       0.02313636
Br       6.12964268       8.93396998       3.09650181       34       0.11601308      -0.03033614       0.00492353
Cs       5.98466161       5.97234349       6.19600843       35       0.02754253      -0.07168395      -0.05647929
Pb       9.16160056       9.14632441       9.10338192       36      -0.22337218      -0.30373904       1.54682630
I        8.93131819       8.89226913       6.35534539       37      -0.06584863      -0.03212049      -1.48520052
Br       9.18159821       6.08764703       9.14097552       38       0.02120870       0.14256886       0.05788222
Cl       6.14659454       9.06767264       9.40133990       39      -0.10620672       0.02673276      -0.00027946
40
Lattice="12.279841787966836 0.0 0.0 0.0026913160964398154 12.152137397436427 0.0 -0.0004984587444943877 -0.005671545868822636 12.409414507830723" Properties=species:S:1:pos:R:3:spacegroup_kinds:I:1:forces:R:3 spacegroup="P 1" unit_cell=conventional candidate_id=4976639170f9c4b2 formula=FAPbBr0.25Cl0.25I0.53 config_index=2 rattle_stdev=0.08 method=PBE fidelity=phase2_force energy=-122.84563767067529 stress="-0.0006795478544600697 -3.3651176208805383e-06 1.3004057843403288e-05 -3.3651176208805383e-06 -0.0012044456671417498 6.26663234250749e-05 1.3004057843403288e-05 6.26663234250749e-05 -0.0016946303396448538" pbc="T T T"
Cs       0.07534309      12.05652237      12.52805490        0       0.00855814      -0.00814232      -0.06473187
Pb       3.16623634       3.21989314       3.09618162        1       0.56367105       0.31808677       0.23039263
I        3.25883064       3.06419458      12.37268276        2      -0.07421535       0.01341429      -0.05552492
I        3.26873179       0.10027171       2.94472569        3      -0.04946456      -0.61346410       0.03056855
I        0.15400371       3.29915894       3.23672262        4      -0.70962585      -0.01112606      -0.04101274
Cs       0.04789236      -0.05566124       6.17440076        5      -0.01767205      -0.01022655       0.03466278
Pb       3.14696109       3.34039148       9.14720642        6       0.46941290      -0.23865651      -0.00438912
Br       3.15974372       3.16026526       6.20704151        7       0.02332731      -0.05032459      -0.09157410
Br       3.10015227      11.94636957       9.45977224        8       0.02788486       0.48012502       0.03055262
I        0.05165918       3.05845492       8.95935086        9      -0.18665773      -0.02067337       0.04929091
Cs      -0.01579479       5.99416887      12.38302578       10       0.01738934       0.00875849      -0.03449339
Pb       3.16339467       8.97104146       2.86913858       11       0.32147867      -0.23834832       0.11561136
Cl       3.23482721       8.84384452      -0.03090312       12       0.02305747       0.00420629       0.31104391
Cl       3.34970169       6.00343162       3.22380207       13      -0.05275888       0.49658492      -0.10985979
I       -0.09461481       8.88680618       3.00797918       14       0.62279462       0.01236060       0.01276283
Cs       0.01619242       6.07205358       6.24244232       15      -0.02796927       0.03554403       0.00659269
Pb       3.23390444       9.18580848       9.49080389       16      -0.06048880      -0.54212821      -0.10092146
I        3.30243515       8.92829927       6.28208534       17      -0.08444321       0.09161413      -0.26731712
Cl       3.38203911       5.96079643       9.30949741       18      -0.04445056       0.21723654       0.01789740
I        0.09106472       8.81668238       9.45073491       19      -0.01686298       0.04110298       0.01339125
Cs       6.13821058      11.96648460      12.41528680       20      -0.01273378       0.01550021      -0.03196189
Pb       8.95480013       3.04994563       3.19969638       21      -0.26829594       0.47544916       0.16667476
I        8.91567431       3.27363305      12.36008349       22       0.07868476      -0.00082444       0.17619146
I        9.11018303      12.07865424       3.17288813       23       0.02697840       0.09201238      -0.01340426
Cl       6.12057929       3.48314934       3.25629693       24       0.32169667      -0.18829745      -0.01714491
Cs       6.01182825      -0.06770506       6.23792833       25       0.04350363       0.02197025       0.01756357
Pb       9.19045887       3.18523323       9.25117113       26      -0.42013189      -0.01675929      -0.24332238
Br       8.97339116       3.22279759       6.17933202       27       0.04620545      -0.06529197      -0.05713320
I        9.10227563      -0.07252310       9.37433603       28       0.04321505       0.54417176       0.00888126
Br       6.15494690       3.15265186       9.13795427       29       0.06344049      -0.06050036      -0.02718544
Cs       5.94039425       6.08106017      12.38012814       30      -0.01579192       0.00365340       0.02128116
Pb       9.13730980       8.79436378       2.92998273       31      -0.49481024      -0.19099248       0.89321690
I        9.09642659       8.91370603      -0.00981801       32       0.02954035      -0.02962313      -0.07304794
Cl       8.82975658       6.05593945       3.26002429       33       0.10729877      -0.10415079      -0.07379378
Br       6.17536389       9.10912340       3.02932391       34      -0.42077980       0.03633199      -0.09838745
Cs       6.09003878       5.94402324       6.21464304       35       0.02936155      -0.05107822      -0.06305077
Pb       8.88624680       8.99773750       9.34989080       36       0.25755831       0.08316196      -0.45878982
I        8.93223946       8.91463345       6.27948804       37       0.05757108       0.11027840      -0.35139327
Br       9.12035439       6.18023053       9.14050742       38       0.07077362      -0.71125632       0.03126705
Cl       6.19112254       8.90482405       9.39828979       39      -0.29501742       0.04826358       0.11461159
40
Lattice="12.279841787966836 0.0 0.0 0.0026913160964398154 12.152137397436427 0.0 -0.0004984587444943877 -0.005671545868822636 12.409414507830723" Properties=species:S:1:pos:R:3:spacegroup_kinds:I:1:forces:R:3 spacegroup="P 1" unit_cell=conventional candidate_id=4976639170f9c4b2 formula=FAPbBr0.25Cl0.25I0.53 config_index=3 rattle_stdev=0.08 method=PBE fidelity=phase2_force energy=-122.69193771727141 stress="-0.0012100444048496392 0.00014293851644356403 4.261125158872443e-05 0.00014293851644356403 -0.00024240521936697194 0.00014063925792971442 4.261125158872443e-05 0.00014063925792971442 -0.0015720103485856052" pbc="T T T"
Cs      -0.02132335      12.30398772      12.38905791        0       0.00256607       0.06054559       0.03739036
Pb       3.26378131       3.25272861       3.27373672        1      -0.25216544      -0.28733793      -0.64036005
I        3.17423344       3.17677201      12.33868736        2      -0.00955131      -0.03528068      -0.07640113
I        3.35739547      -0.01377568       2.96577446        3      -0.00877324      -0.20711432       0.00485789
I       -0.04860141       3.12996733       3.14478165        4       0.13694102       0.04188118       0.02501637
Cs       0.06219828      -0.04581314       6.15133890        5      -0.03957917       0.03821487      -0.02424062
Pb       3.22544847       3.03826457       9.07575975        6      -0.01895194       0.42808874       0.51208350
Br       3.14988696       2.96913272       6.09854034        7      -0.00676611      -0.03515909       0.36206931
Br       3.24789816      11.96796224       9.32355897        8       0.01327811       0.59808729      -0.00489375
I       -0.10154415       3.01895324       9.32378782        9       0.49631783       0.00137332      -0.01777547
Cs       0.00904230       6.14818333      12.23116607       10       0.00777351      -0.12592672      -0.00005269
Pb       3.16643303       8.81266214       2.82078613       11       0.14331904       0.32814731       0.02943014
Cl       3.38574139       8.90824023      -0.04778009       12      -0.03824128      -0.06414071       0.43188094
Cl       3.27350347       6.02312104       3.16812866       13       0.00108693       0.27608438       0.00294154
I       -0.12240174       8.95861634       2.96306263       14       1.11150831      -0.03026354      -0.02949103
Cs      -0.01631261       6.07894564       6.18132689       15      -0.05741940      -0.03515820       0.01039854
Pb       3.29388257       9.10866244       9.43348674       16      -0.13800829      -0.61424350       0.05508332
I        3.38407512       8.99326588       6.32038609       17      -0.06352033       0.02308967      -0.46733467
Cl       3.33405734       6.07311875       9.30193338       18      -0.03141513      -0.35781009      -0.06802261
I       -0.00303558       8.89752178       9.43140334       19      -0.10908118       0.07273324      -0.03529272
Cs       6.15099852      12.08993670      12.30245156       20      -0.03483762       0.00195048      -0.01297761
Pb       8.84308622       3.11426516       3.17690394       21       0.37154582       0.30520824       0.02062273
I        9.00273885       3.29141618      12.45573980       22      -0.02328439      -0.05640901      -0.14630861
I        9.21736933      12.13461709       3.09782472       23      -0.04384037      -0.26604902       0.00597910
Cl       6.09366719       3.38292175       3.32308869       24      -0.16484703      -0.01516735       0.07741758
Cs       6.07635172       0.07763156       6.24620974       25       0.02139669      -0.02049836      -0.01544855
Pb       9.11852822       3.12188313       9.13248289       26      -0.17642196       0.01951200       0.03002562
Br       9.20517025       3.10785330       6.16823678       27      -0.03479493       0.01837075       0.08978252
I        9.05736466       0.14219221       9.12800997       28      -0.03344727      -1.13266279       0.07339258
Br       6.10569987       3.07878309       9.23282850       29      -0.19075801      -0.04785017      -0.09317985
Cs       5.97444542       6.14926478      12.43316233       30      -0.01320515      -0.02734001      -0.06119636
Pb       9.12761516       8.86226479       3.16785857       31      -0.08110364      -0.19173749       0.27182014
I        9.06268256       8.90431265       0.05631347       32       0.04575209       0.00752947       0.12786355
Cl       8.94114046       5.95094706       3.32299792       33       0.04590565       0.21107595       0.02939441
Br       6.37253088       8.89027118       2.96264513       34      -1.19286793      -0.00061047      -0.04188025
Cs       6.17425077       6.07196459       6.19441428       35       0.02279253      -0.05473348      -0.01073894
Pb       8.95229555       8.94990038       9.46433768       36       0.10675257       0.01502152      -0.39806269
I        8.99819708       8.88150816       6.32432844       37       0.03814401       0.04560239      -0.11874110
Br       9.08061528       5.90379966       9.30671665       38      -0.03436525       1.08636919       0.01459629
Cl       6.07989384       8.99289440       9.52991960       39       0.23400786       0.02481363       0.05717648
