Cs Sn I  Cs Sn I  Cs Sn Cl I  Cs Sn I  Cs Sn I  Cl Cs Sn I  Cs Sn I  Cl I  Cs Sn I 
 1.0000000000000000
    13.3250030273917748    0.0000000000000000    0.0000000000000000
     0.0000000000000000   13.3250030273917748    0.0000000000000000
     0.0000000000000000    0.0000000000000000   13.3250030273917748
 Cs  Sn  I   Cs  Sn  I   Cs  Sn  Cl  I   Cs  Sn  I   Cs  Sn  I   Cl  Cs  Sn  I   Cs  Sn  I   Cl  I   Cs  Sn  I  
   1   1   3   1   1   3   1   1   1   2   1   1   3   1   1   2   1   1   1   3   1   1   1   1   1   1   1   3
Cartesian
  0.0000000000000000  0.0000000000000000  0.0000000000000000
  3.3312507568479437  3.3312507568479437  3.3312507568479437
  3.3312507568479437  3.3312507568479437  0.0000000000000000
  3.3312507568479437  0.0000000000000000  3.3312507568479437
  0.0000000000000000  3.3312507568479437  3.3312507568479437
  0.0000000000000000  0.0000000000000000  6.6625015136958865
  3.3312507568479437  3.3312507568479437  9.9937522705438315
  3.3312507568479437  3.3312507568479437  6.6625015136958865
  3.3312507568479437  0.0000000000000000  9.9937522705438315
  0.0000000000000000  3.3312507568479437  9.9937522705438315
  0.0000000000000000  6.6625015136958865  0.0000000000000000
  3.3312507568479437  9.9937522705438315  3.3312507568479437
  3.3312507568479437  9.9937522705438315  0.0000000000000000
  3.3312507568479437  6.6625015136958865  3.3312507568479437
  0.0000000000000000  9.9937522705438315  3.3312507568479437
  0.0000000000000000  6.6625015136958865  6.6625015136958865
  3.3312507568479437  9.9937522705438315  9.9937522705438315
  3.3312507568479437  9.9937522705438315  6.6625015136958865
  3.3312507568479437  6.6625015136958865  9.9937522705438315
  0.0000000000000000  9.9937522705438315  9.9937522705438315
  6.6625015136958865  0.0000000000000000  0.0000000000000000
  9.9937522705438315  3.3312507568479437  3.3312507568479437
  9.9937522705438315  3.3312507568479437  0.0000000000000000
  9.9937522705438315  0.0000000000000000  3.3312507568479437
  6.6625015136958865  3.3312507568479437  3.3312507568479437
  6.6625015136958865  0.0000000000000000  6.6625015136958865
  9.9937522705438315  3.3312507568479437  9.9937522705438315
  9.9937522705438315  3.3312507568479437  6.6625015136958865
  9.9937522705438315  0.0000000000000000  9.9937522705438315
  6.6625015136958865  3.3312507568479437  9.9937522705438315
  6.6625015136958865  6.6625015136958865  0.0000000000000000
  9.9937522705438315  9.9937522705438315  3.3312507568479437
  9.9937522705438315  9.9937522705438315  0.0000000000000000
  9.9937522705438315  6.6625015136958865  3.3312507568479437
  6.6625015136958865  9.9937522705438315  3.3312507568479437
  6.6625015136958865  6.6625015136958865  6.6625015136958865
  9.9937522705438315  9.9937522705438315  9.9937522705438315
  9.9937522705438315  9.9937522705438315  6.6625015136958865
  9.9937522705438315  6.6625015136958865  9.9937522705438315
  6.6625015136958865  9.9937522705438315  9.9937522705438315
