40
Lattice="12.774681418848091 0.0 0.0 0.0 12.774681418847944 0.0 0.0 5.751320540931044e-14 12.774681418847916" Properties=species:S:1:pos:R:3:spacegroup_kinds:I:1:forces:R:3 spacegroup="P 1" unit_cell=conventional candidate_id=1197142edbbdd22f formula=Cs0.71MA0.29PbI3 config_index=0 rattle_stdev=0.0 method=PBE fidelity=phase2_force energy=-113.27414142665016 stress="-8.555906647783657e-05 4.715486301092561e-32 0.0 4.715486301092561e-32 -8.555906647783891e-05 3.851975641216112e-19 0.0 3.851975641216112e-19 -8.555906647783941e-05" pbc="T T T"
Cs      12.77468142      12.77468142      12.77468142        0       0.00000000      -0.00000000       0.00000000
Pb       3.19367035       3.19367035       3.19367035        1       0.00068279       0.00068279       0.00068279
I        3.19367035       3.19367035      12.77468142        2       0.00011054       0.00011054      -0.00000000
I        3.19367035      12.77468142       3.19367035        3       0.00011054       0.00000000       0.00011054
I       12.77468142       3.19367035       3.19367035        4       0.00000000       0.00011054       0.00011054
Cs      12.77468142      12.77468142       6.38734071        5       0.00000000       0.00000000      -0.00000000
Pb       3.19367035       3.19367035       9.58101106        6       0.00068279       0.00068279      -0.00068279
I        3.19367035       3.19367035       6.38734071        7       0.00012959       0.00012959       0.00000000
I        3.19367035      12.77468142       9.58101106        8       0.00011054      -0.00000000      -0.00011054
I       12.77468142       3.19367035       9.58101106        9       0.00000000       0.00011054      -0.00011054
Cs      12.77468142       6.38734071      12.77468142       10       0.00000000       0.00000000      -0.00000000
Pb       3.19367035       9.58101106       3.19367035       11       0.00068279      -0.00068279       0.00068279
I        3.19367035       9.58101106      12.77468142       12       0.00011054      -0.00011054      -0.00000000
I        3.19367035       6.38734071       3.19367035       13       0.00012959       0.00000000       0.00012959
I       12.77468142       9.58101106       3.19367035       14      -0.00000000      -0.00011054       0.00011054
Cs      12.77468142       6.38734071       6.38734071       15       0.00000000      -0.00000000       0.00000000
Pb       3.19367035       9.58101106       9.58101106       16       0.00068279      -0.00068279      -0.00068279
I        3.19367035       9.58101106       6.38734071       17       0.00012959      -0.00012959      -0.00000000
I        3.19367035       6.38734071       9.58101106       18       0.00012959      -0.00000000      -0.00012959
I       12.77468142       9.58101106       9.58101106       19      -0.00000000      -0.00011054      -0.00011054
Cs       6.38734071      12.77468142      12.77468142       20       0.00000000      -0.00000000      -0.00000000
Pb       9.58101106       3.19367035       3.19367035       21      -0.00068279       0.00068279       0.00068279
I        9.58101106       3.19367035      12.77468142       22      -0.00011054       0.00011054       0.00000000
I        9.58101106      12.77468142       3.19367035       23      -0.00011054       0.00000000       0.00011054
I        6.38734071       3.19367035       3.19367035       24      -0.00000000       0.00012959       0.00012959
Cs       6.38734071      12.77468142       6.38734071       25       0.00000000      -0.00000000       0.00000000
Pb       9.58101106       3.19367035       9.58101106       26      -0.00068279       0.00068279      -0.00068279
I        9.58101106       3.19367035       6.38734071       27      -0.00012959       0.00012959       0.00000000
I        9.58101106      12.77468142       9.58101106       28      -0.00011054      -0.00000000      -0.00011054
I        6.38734071       3.19367035       9.58101106       29      -0.00000000       0.00012959      -0.00012959
Cs       6.38734071       6.38734071      12.77468142       30       0.00000000       0.00000000       0.00000000
Pb       9.58101106       9.58101106       3.19367035       31      -0.00068279      -0.00068279       0.00068279
I        9.58101106       9.58101106      12.77468142       32      -0.00011054      -0.00011054       0.00000000
I        9.58101106       6.38734071       3.19367035       33      -0.00012959       0.00000000       0.00012959
I        6.38734071       9.58101106       3.19367035       34       0.00000000      -0.00012959       0.00012959
Cs       6.38734071       6.38734071       6.38734071       35       0.00000000      -0.00000000      -0.00000000
Pb       9.58101106       9.58101106       9.58101106       36      -0.00068279      -0.00068279      -0.00068279
I        9.58101106       9.58101106       6.38734071       37      -0.00012959      -0.00012959       0.00000000
I        9.58101106       6.38734071       9.58101106       38      -0.00012959      -0.00000000      -0.00012959
I        6.38734071       9.58101106       9.58101106       39      -0.00000000      -0.00012959      -0.00012959
40
Lattice="12.774681418848091 0.0 0.0 0.0 12.774681418847944 0.0 0.0 5.751320540931044e-14 12.774681418847916" Properties=species:S:1:pos:R:3:spacegroup_kinds:I:1:forces:R:3 spacegroup="P 1" unit_cell=conventional candidate_id=1197142edbbdd22f formula=Cs0.71MA0.29PbI3 config_index=1 rattle_stdev=0.08 method=PBE fidelity=phase2_force energy=-112.72000816771262 stress="-0.0017261324767657686 2.68586868018482e-05 -2.1400512727711052e-05 2.68586868018482e-05 -0.0009208805564286274 -6.938517298956336e-05 -2.1400512727711052e-05 -6.938517298956336e-05 -0.0022821430852806657" pbc="T T T"
Cs      12.68776571      12.70299621      12.75017747        0      -0.02636646       0.03046894       0.03239906
Pb       3.08647566       3.09714351       3.14233221        1       0.25664502       0.25439260       0.21320747
I        3.29830601       3.34130719      12.84101061        2      -0.05171126      -0.03286349      -0.05751954
I        3.19180645      12.75799630       3.12034077        3       0.01758712       0.02602940      -0.00791967
I       12.68870201       3.18677888       3.28773744        4       0.48642684      -0.00334191       0.01676081
Cs      12.64387408      12.87293694       6.47345161        5       0.02765089       0.03903098      -0.03640309
Pb       3.22525218       3.16265429       9.62808320        6       0.09056297       0.03838196      -0.10875094
I        3.07900645       3.16778438       6.48757948        7       0.03968463       0.02312373      -0.20032720
I        3.13521095      12.88896022       9.65658338        8      -0.01261513      -0.48880780       0.01616702
I       12.75356120       3.18061329       9.50388248        9       0.09415881       0.00851575       0.02480524
Cs      12.74726963       6.39125303      12.73471086       10      -0.00880051      -0.03039566       0.02411830
Pb       3.01671799       9.60579801       3.06649825       11       0.74100139      -0.24978893      -0.08899362
I        3.25202672       9.57237896      12.72266770       12      -0.02973659       0.01787556      -0.04091922
I        3.05822583       6.35786279       3.06644062       13       0.00548031       0.01918171       0.05852486
I       12.89312189       9.61896628       3.26677946       14      -0.84709087       0.01340408       0.05237143
Cs      12.85151904       6.39410412       6.52471918       15       0.01969340      -0.03953309      -0.01773979
Pb       3.26182177       9.52062024       9.39800072       16       0.21834677       0.06880788       0.27958740
I        3.20240945       9.54499842       6.35430291       17       0.00609490      -0.01722418      -0.10134705
I        3.21918906       6.34405207       9.65690438       18      -0.01748933       0.35481499      -0.04244233
I       12.78679622       9.58716326       9.57625903       19       0.32872923       0.00885994       0.00918354
Cs       6.38172961      12.72938949      12.79956185       20       0.01529960       0.01999523       0.02865809
Pb       9.63894777       3.23498636       3.27575281       21      -0.40409880      -0.19692755      -0.42292936
I        9.62262327       3.12408327      12.89472663       22       0.03825804       0.02141761      -0.40458681
I        9.67432884      12.81403458       3.13508938       23      -0.00300818      -0.15476741       0.09403155
I        6.44176520       3.23439010       3.12666746       24      -0.32308936      -0.00775730       0.05328762
Cs       6.43915230      12.77568458       6.51210784       25      -0.01924517       0.01284904      -0.02146557
Pb       9.66377869       3.22068577       9.47680223       26      -0.17619967       0.24212027       0.31950915
I        9.49152752       3.29843156       6.34588335       27      -0.02911850      -0.02641339       0.39961557
I        9.54956112      12.85811890       9.58698828       28       0.01839782      -0.16284008      -0.03212135
I        6.39449567       3.19798294       9.61448682       29      -0.00410259      -0.00186627      -0.01213765
Cs       6.28912231       6.30017739      12.80005137       30       0.00995379      -0.01621770       0.03322420
Pb       9.51857862       9.51252058       3.08808064       31      -0.14274401       0.21216748       0.20239105
I        9.61731360       9.66115305      12.88778019       32       0.01412019      -0.00234246      -0.31493758
I        9.56579643       6.38974955       3.04379702       33       0.02758727       0.11345126       0.00624686
I        6.37799855       9.57081184       3.26584510       34       0.20131544      -0.00434083       0.01111697
Cs       6.28219093       6.37937665       6.39858470       35      -0.00430863      -0.01910734      -0.01507263
Pb       9.79131554       9.72147337       9.37015924       36      -0.47197639      -0.23210015       0.86902744
I        9.47807950       9.56727329       6.53137701       37      -0.00350314       0.01653756      -0.92642922
I        9.62970671       6.38986275       9.46369809       38       0.01401720       0.13555123       0.04864198
I        6.41209597       9.67238849       9.54014353       39      -0.08923735       0.00036324       0.01479437
40
Lattice="12.774681418848091 0.0 0.0 0.0 12.774681418847944 0.0 0.0 5.751320540931044e-14 12.774681418847916" Properties=species:S:1:pos:R:3:spacegroup_kinds:I:1:forces:R:3 spacegroup="P 1" unit_cell=conventional candidate_id=1197142edbbdd22f formula=Cs0.71MA0.29PbI3 config_index=2 rattle_stdev=0.08 method=PBE fidelity=phase2_force energy=-112.78593628296598 stress="-0.0011580973614828867 1.3750767986448851e-05 1.0369555526108069e-05 1.3750767986448851e-05 -0.0013531653431208329 -3.976801334599224e-05 1.0369555526108069e-05 -3.976801334599224e-05 -0.0008623763220212368" pbc="T T T"
Cs      12.76566438      12.68855630      12.91748357        0       0.02389648      -0.01008045      -0.05597511
Pb       3.07711169       3.16756469       3.09287864        1       0.67332637       0.25458422       0.12346331
I        3.22373967       3.12341857      12.74668336        2      -0.03322550       0.03432127      -0.04276755
I        3.21740317      12.87075437       3.06815074        3      -0.00906443      -0.57056811       0.03007586
I       12.92300372       3.23318730       3.18321344        4      -0.92387279       0.01956509      -0.01854129
Cs      12.74243176      12.69678844       6.34994337        5      -0.01100588      -0.01034392       0.05446739
Pb       3.13623664       3.29138182       9.51883506        6       0.35093258      -0.10671514      -0.00660238
I        3.14658830       3.18906085       6.39370710        7       0.01855106      -0.07939344      -0.08724114
I        3.09901427      12.65078202       9.65399156        8       0.00204811       0.50168432      -0.00051391
I       12.80769508       3.13800883       9.39790931        9      -0.16414403       0.01086951       0.02618831
Cs      12.71170210       6.30505938      12.78214607       10       0.02168787       0.02247251      -0.02611471
Pb       3.15133482       9.64343065       3.17760518       11       0.19380915      -0.18915564       0.05885001
I        3.15522167       9.49819009      12.73446267       12       0.01136288      -0.04526367       0.37766018
I        3.25686157       6.31334090       3.37047318       13      -0.01860325       0.45865574      -0.04707982
I       12.66266252       9.56188327       3.21105761       14       0.53774505       0.00463199       0.03249274
Cs      12.74649060       6.39421075       6.39587287       15      -0.00096006       0.01094063       0.02166447
Pb       3.17790786       9.68876577       9.60862498       16      -0.01124920      -0.37758379      -0.10743808
I        3.23828191       9.53338825       6.44596728       17      -0.01506228       0.05161630      -0.33614087
I        3.30017057       6.32893807       9.54215060       18      -0.01400149       0.06108213       0.03017085
I       12.86083456       9.37338247       9.59436532       19      -0.14123430      -0.01408888      -0.00816790
Cs       6.47045748      12.62999551      12.83537269       20      -0.02458864       0.03184647      -0.02678631
Pb       9.54100204       3.00612690       3.18503694       21      -0.18216644       0.35609746       0.13012792
I        9.46078805       3.23277265      12.73042714       22       0.05928452       0.03084026       0.17197277
I        9.66561167      12.70513599       3.18766307       23       0.01991283       0.08673315      -0.00530075
I        6.37876831       3.36157612       3.16642732       24       0.29781301      -0.10919576      -0.01076699
Cs       6.34510830      12.67111207       6.40446863       25       0.01652751       0.00188914       0.02446807
Pb       9.67111263       3.22579322       9.64225789       26      -0.31754518      -0.05788601      -0.23462317
I        9.47276087       3.23957903       6.36972974       27       0.04337482      -0.06172172      -0.06736337
I        9.63262618      12.69430387       9.73299015       28       0.02980794       0.43010626       0.01169755
I        6.40468957       3.23366799       9.53088378       29       0.06054943      -0.05174553       0.00327736
Cs       6.30710997       6.32483589      12.79102364       30      -0.01833626      -0.04410066       0.00172552
Pb       9.62389842       9.49501127       3.01624197       31      -0.37543109      -0.20528611       0.49054303
I        9.63276548       9.55522420      12.76087628       32       0.01511374      -0.02113087       0.02787421
I        9.39793732       6.37837720       3.27009546       33       0.07669436      -0.07956781      -0.04424937
I        6.42371976       9.74596526       3.19866719       34      -0.33031892       0.03730486      -0.03241032
Cs       6.38756810       6.35105640       6.41721931       35       0.00768023      -0.01922741      -0.00365075
Pb       9.51596178       9.57288646       9.61666812       36       0.23456627       0.08615249      -0.38926911
I        9.47900077       9.58963761       6.45551966       37       0.05333802       0.06397492      -0.17477509
I        9.56846290       6.48244625       9.46322999       38       0.04876103      -0.52967640       0.04203724
I        6.45662398       9.50953990       9.53709342       39      -0.20949737       0.02938531       0.06435069
40
Lattice="12.774681418848091 0.0 0.0 0.0 12.774681418847944 0.0 0.0 5.751320540931044e-14 12.774681418847916" Properties=species:S:1:pos:R:3:spacegroup_kinds:I:1:forces:R:3 spacegroup="P 1" unit_cell=conventional candidate_id=1197142edbbdd22f formula=Cs0.71MA0.29PbI3 config_index=3 rattle_stdev=0.08 method=PBE fidelity=phase2_force energy=-112.62139157592269 stress="-0.0013252860327613118 8.226502488029396e-05 1.2294072158888698e-05 8.226502488029396e-05 -0.0013835882213998694 3.944046816515706e-05 1.2294072158888698e-05 3.944046816515706e-05 -0.0008208816832455321" pbc="T T T"
Cs      12.66899794      12.93602165      12.77848658        0       0.01632674       0.05574716       0.02420046
Pb       3.17465666       3.20040017       3.27043374        1      -0.26056612      -0.25590606      -0.60745796
I        3.13914248       3.23599599      12.71268796        2       0.02470305      -0.00488357      -0.07633861
I        3.30606685      12.75670698       3.08919950        3       0.02026997      -0.17959563       0.00145851
I       12.72039860       3.06399569       3.09127247        4       0.13057116       0.04565560       0.02938127
Cs      12.75673768      12.70663654       6.32688150        5      -0.03083491       0.02149914      -0.01746310
Pb       3.21472402       2.98925491       9.44738839        6      -0.01746011       0.43098966       0.41884557
I        3.13673154       2.99792831       6.28520592        7      -0.03464388      -0.02430772       0.35884469
I        3.24676016      12.67237470       9.51777829        8      -0.02374622       0.43225159       0.01334337
I       12.65449175       3.09850716       9.76234628        9       0.43345544       0.02225456      -0.01684809
Cs      12.73653919       6.45907383      12.63028636       10       0.01365046      -0.06459387      -0.01904469
Pb       3.15437319       9.48505134       3.12925273       11       0.01212354       0.26315655       0.01264910
I        3.30613584       9.56258581      12.71758570       12      -0.03149036      -0.04398543       0.46218161
I        3.18066335       6.33303032       3.31479977       13      -0.01976858       0.22140960       0.01761920
I       12.63487559       9.63369343       3.16614105       14       1.03766428      -0.05423539       0.00694908
Cs      12.71398557       6.40110281       6.33475743       15      -0.03202673      -0.00888197       0.00793287
Pb       3.23788599       9.61161972       9.55130784       16      -0.16353879      -0.53636630       0.05902285
I        3.31992187       9.59835486       6.48426804       17      -0.00555896       0.01218153      -0.55794205
I        3.25218880       6.44126040       9.53458658       18      -0.01985699      -0.29439227      -0.03498149
I       12.76673425       9.45422187       9.57503375       19      -0.11596736       0.00602576       0.01271340
Cs       6.48324542      12.75344760      12.72253745       20      -0.02286043       0.02130136       0.00551087
Pb       9.42928814       3.07044644       3.16224450       21       0.32305531       0.26121690       0.01819535
I        9.54785260       3.25055578      12.82608345       22      -0.05098755      -0.02420630      -0.15345600
I        9.77279797      12.76109883       3.11259966       23      -0.06568895      -0.24278434       0.00341912
I        6.35185622       3.26134853       3.23321908       24      -0.13262358      -0.02319576       0.02194277
Cs       6.40963177      12.81644869       6.41275005       25       0.01420852      -0.01783640       0.00358713
Pb       9.59918197       3.16244311       9.52356966       26      -0.12866782      -0.02189419       0.02953159
I        9.70453996       3.12463475       6.35863450       27       0.00130349      -0.00109501       0.08688008
I        9.58771521      12.90901918       9.48666409       28      -0.02989612      -0.87388141       0.06011829
I        6.35544254       3.15979921       9.62575801       29      -0.19318232      -0.03564077      -0.04619767
Cs       6.34116113       6.39304050      12.84405783       30      -0.00452756      -0.03180936      -0.03083764
Pb       9.61420378       9.56291228       3.25411781       31      -0.12025096      -0.20072908       0.18769807
I        9.59902145       9.54583082      12.82700776       32       0.02215996      -0.00605771       0.02288932
I        9.50932120       6.27338482       3.33306909       33       0.06146041       0.22468654       0.00804512
I        6.62088676       9.52711304       3.13198841       34      -0.97180258       0.01622043      -0.00768644
Cs       6.47178009       6.47899775       6.39699055       35       0.01873417       0.01505266       0.01806881
Pb       9.58201054       9.52504935       9.73111499       36       0.04698651      -0.00053813      -0.25061132
I        9.54495839       9.55651232       6.50036006       37       0.00446062       0.00452369      -0.09602467
I        9.52872378       6.20601538       9.62943922       38      -0.00929891       0.86327545       0.00529647
I        6.34539527       9.59761025       9.66872323       39       0.28300582       0.01268851       0.01506130
