Cs Sn Br Cs Sn Br Cs Sn Br Cs Ge Br Cs Sn Br Cs Sn Br Cs Ge Br Cs Sn Br
 1.0000000000000000
    12.0738482887602974    0.0000000000000000    0.0000000000000000
     0.0000000000000000   12.0738482887602974    0.0000000000000000
     0.0000000000000000    0.0000000000000000   12.0738482887602974
 Cs  Sn  Br  Cs  Sn  Br  Cs  Sn  Br  Cs  Ge  Br  Cs  Sn  Br  Cs  Sn  Br  Cs  Ge  Br  Cs  Sn  Br 
   1   1   3   1   1   3   1   1   3   1   1   3   1   1   3   1   1   3   1   1   3   1   1   3
Cartesian
  0.0000000000000000  0.0000000000000000  0.0000000000000000
  3.0184620721900743  3.0184620721900743  3.0184620721900743
  3.0184620721900743  3.0184620721900743  0.0000000000000000
  3.0184620721900743  0.0000000000000000  3.0184620721900743
  0.0000000000000000  3.0184620721900743  3.0184620721900743
  0.0000000000000000  0.0000000000000000  6.0369241443801478
  3.0184620721900743  3.0184620721900743  9.0553862165702235
  3.0184620721900743  3.0184620721900743  6.0369241443801478
  3.0184620721900743  0.0000000000000000  9.0553862165702235
  0.0000000000000000  3.0184620721900743  9.0553862165702235
  0.0000000000000000  6.0369241443801478  0.0000000000000000
  3.0184620721900743  9.0553862165702235  3.0184620721900743
  3.0184620721900743  9.0553862165702235  0.0000000000000000
  3.0184620721900743  6.0369241443801478  3.0184620721900743
  0.0000000000000000  9.0553862165702235  3.0184620721900743
  0.0000000000000000  6.0369241443801478  6.0369241443801478
  3.0184620721900743  9.0553862165702235  9.0553862165702235
  3.0184620721900743  9.0553862165702235  6.0369241443801478
  3.0184620721900743  6.0369241443801478  9.0553862165702235
  0.0000000000000000  9.0553862165702235  9.0553862165702235
  6.0369241443801478  0.0000000000000000  0.0000000000000000
  9.0553862165702235  3.0184620721900743  3.0184620721900743
  9.0553862165702235  3.0184620721900743  0.0000000000000000
  9.0553862165702235  0.0000000000000000  3.0184620721900743
  6.0369241443801478  3.0184620721900743  3.0184620721900743
  6.0369241443801478  0.0000000000000000  6.0369241443801478
  9.0553862165702235  3.0184620721900743  9.0553862165702235
  9.0553862165702235  3.0184620721900743  6.0369241443801478
  9.0553862165702235  0.0000000000000000  9.0553862165702235
  6.0369241443801478  3.0184620721900743  9.0553862165702235
  6.0369241443801478  6.0369241443801478  0.0000000000000000
  9.0553862165702235  9.0553862165702235  3.0184620721900743
  9.0553862165702235  9.0553862165702235  0.0000000000000000
  9.0553862165702235  6.0369241443801478  3.0184620721900743
  6.0369241443801478  9.0553862165702235  3.0184620721900743
  6.0369241443801478  6.0369241443801478  6.0369241443801478
  9.0553862165702235  9.0553862165702235  9.0553862165702235
  9.0553862165702235  9.0553862165702235  6.0369241443801478
  9.0553862165702235  6.0369241443801478  9.0553862165702235
  6.0369241443801478  9.0553862165702235  9.0553862165702235
