Cs Sn I  Cs Sn I  Cs Sn I  Cs Ge I  Cs Ge I  Cs Sn I  Cs Ge I  Cs Sn I 
 1.0000000000000000
    12.8686363108139794    0.0000000000000000    0.0000000000000000
     0.0000000000000000   12.8686363108139794    0.0000000000000000
     0.0000000000000000    0.0000000000000000   12.8686363108139794
 Cs  Sn  I   Cs  Sn  I   Cs  Sn  I   Cs  Ge  I   Cs  Ge  I   Cs  Sn  I   Cs  Ge  I   Cs  Sn  I  
   1   1   3   1   1   3   1   1   3   1   1   3   1   1   3   1   1   3   1   1   3   1   1   3
Cartesian
  0.0000000000000000  0.0000000000000000  0.0000000000000000
  3.2171590777034949  3.2171590777034949  3.2171590777034949
  3.2171590777034949  3.2171590777034949  0.0000000000000000
  3.2171590777034949  0.0000000000000000  3.2171590777034949
  0.0000000000000000  3.2171590777034949  3.2171590777034949
  0.0000000000000000  0.0000000000000000  6.4343181554069888
  3.2171590777034949  3.2171590777034949  9.6514772331104837
  3.2171590777034949  3.2171590777034949  6.4343181554069888
  3.2171590777034949  0.0000000000000000  9.6514772331104837
  0.0000000000000000  3.2171590777034949  9.6514772331104837
  0.0000000000000000  6.4343181554069888  0.0000000000000000
  3.2171590777034949  9.6514772331104837  3.2171590777034949
  3.2171590777034949  9.6514772331104837  0.0000000000000000
  3.2171590777034949  6.4343181554069888  3.2171590777034949
  0.0000000000000000  9.6514772331104837  3.2171590777034949
  0.0000000000000000  6.4343181554069888  6.4343181554069888
  3.2171590777034949  9.6514772331104837  9.6514772331104837
  3.2171590777034949  9.6514772331104837  6.4343181554069888
  3.2171590777034949  6.4343181554069888  9.6514772331104837
  0.0000000000000000  9.6514772331104837  9.6514772331104837
  6.4343181554069888  0.0000000000000000  0.0000000000000000
  9.6514772331104837  3.2171590777034949  3.2171590777034949
  9.6514772331104837  3.2171590777034949  0.0000000000000000
  9.6514772331104837  0.0000000000000000  3.2171590777034949
  6.4343181554069888  3.2171590777034949  3.2171590777034949
  6.4343181554069888  0.0000000000000000  6.4343181554069888
  9.6514772331104837  3.2171590777034949  9.6514772331104837
  9.6514772331104837  3.2171590777034949  6.4343181554069888
  9.6514772331104837  0.0000000000000000  9.6514772331104837
  6.4343181554069888  3.2171590777034949  9.6514772331104837
  6.4343181554069888  6.4343181554069888  0.0000000000000000
  9.6514772331104837  9.6514772331104837  3.2171590777034949
  9.6514772331104837  9.6514772331104837  0.0000000000000000
  9.6514772331104837  6.4343181554069888  3.2171590777034949
  6.4343181554069888  9.6514772331104837  3.2171590777034949
  6.4343181554069888  6.4343181554069888  6.4343181554069888
  9.6514772331104837  9.6514772331104837  9.6514772331104837
  9.6514772331104837  9.6514772331104837  6.4343181554069888
  9.6514772331104837  6.4343181554069888  9.6514772331104837
  6.4343181554069888  9.6514772331104837  9.6514772331104837
