40
Lattice="10.60481556963027 0.0 0.0 0.0 10.607048447796803 0.0 0.0 -4.060981367523615e-15 10.607048447796704" Properties=species:S:1:pos:R:3:spacegroup_kinds:I:1:forces:R:3 spacegroup="P 1" unit_cell=conventional occupancy="_JSON {\"0\": {\"Cs\": 1.0}, \"1\": {\"Ge\": 1.0}, \"2\": {\"Cl\": 1.0}, \"3\": {\"Cl\": 1.0}, \"4\": {\"Cl\": 1.0}, \"5\": {\"Cs\": 1.0}, \"6\": {\"Ge\": 1.0}, \"7\": {\"Cl\": 1.0}, \"8\": {\"Cl\": 1.0}, \"9\": {\"Cl\": 1.0}, \"10\": {\"Rb\": 1.0}, \"11\": {\"Ge\": 1.0}, \"12\": {\"Cl\": 1.0}, \"13\": {\"Cl\": 1.0}, \"14\": {\"Cl\": 1.0}, \"15\": {\"Rb\": 1.0}, \"16\": {\"Ge\": 1.0}, \"17\": {\"Cl\": 1.0}, \"18\": {\"Cl\": 1.0}, \"19\": {\"Cl\": 1.0}, \"20\": {\"Rb\": 1.0}, \"21\": {\"Ge\": 1.0}, \"22\": {\"Cl\": 1.0}, \"23\": {\"Cl\": 1.0}, \"24\": {\"Cl\": 1.0}, \"25\": {\"Cs\": 1.0}, \"26\": {\"Ge\": 1.0}, \"27\": {\"Cl\": 1.0}, \"28\": {\"Cl\": 1.0}, \"29\": {\"Cl\": 1.0}, \"30\": {\"Rb\": 1.0}, \"31\": {\"Ge\": 1.0}, \"32\": {\"Cl\": 1.0}, \"33\": {\"Cl\": 1.0}, \"34\": {\"Cl\": 1.0}, \"35\": {\"Cs\": 1.0}, \"36\": {\"Ge\": 1.0}, \"37\": {\"Cl\": 1.0}, \"38\": {\"Cl\": 1.0}, \"39\": {\"Cl\": 1.0}}" candidate_id=3c09328dfb61f753 formula=Cs0.5Rb0.5GeCl3 config_index=0 rattle_stdev=0.0 method=PBE fidelity=phase2_force energy=-138.64643336382494 stress="-0.0007737889114715687 0.0 0.0 0.0 -0.0007563307875769978 -2.8956643793519993e-19 0.0 -2.8956643793519993e-19 -0.0007563307876026019" pbc="T T T"
Cs      10.60481557      -0.00000000      10.60704845        0      -0.00000000       0.00000000       0.00000000
Ge       2.65120389       2.67508371       2.62844051        1      -0.00000000       0.00198178      -0.00198178
Cl       2.65327182       2.71430357      10.60704845        2       0.01209057      -0.01953273       0.00000000
Cl       2.67313960      10.60704845       2.58658606        3       0.00947661      -0.00000000       0.02164834
Cl      10.60481557       2.72657509       2.59915861        4       0.00000000      -0.00922453       0.03155351
Cs       0.00000000      -0.00000000       5.30352422        5       0.00000000      -0.00000000       0.00000000
Ge       2.65120389       2.67508371       7.97860794        6      -0.00000000       0.00198178       0.00198178
Cl       2.62926818       2.71693816       5.30352422        7      -0.00947661      -0.02164834       0.00000000
Cl       2.67313960      10.60704845       8.02046238        8       0.00947661       0.00000000      -0.02164834
Cl      10.60481557       2.72657509       8.00788984        9      -0.00000000      -0.00922453      -0.03155351
Rb      10.60481557       5.30352422      10.60704845       10       0.00000000      -0.00000000       0.00000000
Ge       2.65120389       7.93196473       2.62844051       11      -0.00000000      -0.00198178      -0.00198178
Cl       2.65327182       7.89274488       0.00000000       12       0.01209057       0.01953273       0.00000000
Cl       2.64913597       5.30352422       2.58922065       13      -0.01209057      -0.00000000       0.01953273
Cl      10.60481557       7.88047336       2.59915861       14       0.00000000       0.00922453       0.03155351
Rb      10.60481557       5.30352422       5.30352422       15       0.00000000       0.00000000       0.00000000
Ge       2.65120389       7.93196473       7.97860794       16      -0.00000000      -0.00198178       0.00198178
Cl       2.62926818       7.89011029       5.30352422       17      -0.00947661       0.02164834       0.00000000
Cl       2.64913597       5.30352422       8.01782780       18      -0.01209057       0.00000000      -0.01953273
Cl      10.60481557       7.88047336       8.00788984       19       0.00000000       0.00922453      -0.03155351
Rb       5.30240778      10.60704845      10.60704845       20       0.00000000      -0.00000000       0.00000000
Ge       7.95361168       2.67508371       2.62844051       21       0.00000000       0.00198178      -0.00198178
Cl       7.95154375       2.71430357      10.60704845       22      -0.01209057      -0.01953273       0.00000000
Cl       7.93167597      10.60704845       2.58658606       23      -0.00947661      -0.00000000       0.02164834
Cl       5.30240778       2.70436562       2.57694914       24       0.00000000      -0.03155351       0.00922453
Cs       5.30240778      -0.00000000       5.30352422       25      -0.00000000       0.00000000       0.00000000
Ge       7.95361168       2.67508371       7.97860794       26       0.00000000       0.00198178       0.00198178
Cl       7.97554739       2.71693816       5.30352422       27       0.00947661      -0.02164834       0.00000000
Cl       7.93167597      10.60704845       8.02046238       28      -0.00947661       0.00000000      -0.02164834
Cl       5.30240778       2.70436562       8.03009931       29      -0.00000000      -0.03155351      -0.00922453
Rb       5.30240778       5.30352422      10.60704845       30      -0.00000000       0.00000000       0.00000000
Ge       7.95361168       7.93196473       2.62844051       31       0.00000000      -0.00198178      -0.00198178
Cl       7.95154375       7.89274488       0.00000000       32      -0.01209057       0.01953273       0.00000000
Cl       7.95567960       5.30352422       2.58922065       33       0.01209057      -0.00000000       0.01953273
Cl       5.30240778       7.90268283       2.57694914       34       0.00000000       0.03155351       0.00922453
Cs       5.30240778       5.30352422       5.30352422       35       0.00000000       0.00000000       0.00000000
Ge       7.95361168       7.93196473       7.97860794       36       0.00000000      -0.00198178       0.00198178
Cl       7.97554739       7.89011029       5.30352422       37       0.00947661       0.02164834       0.00000000
Cl       7.95567960       5.30352422       8.01782780       38       0.01209057       0.00000000      -0.01953273
Cl       5.30240778       7.90268283       8.03009931       39       0.00000000       0.03155351      -0.00922453
40
Lattice="10.60481556963027 0.0 0.0 0.0 10.607048447796803 0.0 0.0 -4.060981367523615e-15 10.607048447796704" Properties=species:S:1:pos:R:3:spacegroup_kinds:I:1:forces:R:3 spacegroup="P 1" unit_cell=conventional occupancy="_JSON {\"0\": {\"Cs\": 1.0}, \"1\": {\"Ge\": 1.0}, \"2\": {\"Cl\": 1.0}, \"3\": {\"Cl\": 1.0}, \"4\": {\"Cl\": 1.0}, \"5\": {\"Cs\": 1.0}, \"6\": {\"Ge\": 1.0}, \"7\": {\"Cl\": 1.0}, \"8\": {\"Cl\": 1.0}, \"9\": {\"Cl\": 1.0}, \"10\": {\"Rb\": 1.0}, \"11\": {\"Ge\": 1.0}, \"12\": {\"Cl\": 1.0}, \"13\": {\"Cl\": 1.0}, \"14\": {\"Cl\": 1.0}, \"15\": {\"Rb\": 1.0}, \"16\": {\"Ge\": 1.0}, \"17\": {\"Cl\": 1.0}, \"18\": {\"Cl\": 1.0}, \"19\": {\"Cl\": 1.0}, \"20\": {\"Rb\": 1.0}, \"21\": {\"Ge\": 1.0}, \"22\": {\"Cl\": 1.0}, \"23\": {\"Cl\": 1.0}, \"24\": {\"Cl\": 1.0}, \"25\": {\"Cs\": 1.0}, \"26\": {\"Ge\": 1.0}, \"27\": {\"Cl\": 1.0}, \"28\": {\"Cl\": 1.0}, \"29\": {\"Cl\": 1.0}, \"30\": {\"Rb\": 1.0}, \"31\": {\"Ge\": 1.0}, \"32\": {\"Cl\": 1.0}, \"33\": {\"Cl\": 1.0}, \"34\": {\"Cl\": 1.0}, \"35\": {\"Cs\": 1.0}, \"36\": {\"Ge\": 1.0}, \"37\": {\"Cl\": 1.0}, \"38\": {\"Cl\": 1.0}, \"39\": {\"Cl\": 1.0}}" candidate_id=3c09328dfb61f753 formula=Cs0.5Rb0.5GeCl3 config_index=1 rattle_stdev=0.08 method=PBE fidelity=phase2_force energy=-138.12805528501733 stress="-0.004027439894398827 0.00012834203227157055 0.0002066702273630902 0.00012834203227157055 -0.002915104345960674 -0.0001989008142908523 0.0002066702273630902 -0.0001989008142908523 -0.004204620101525162" pbc="T T T"
Cs      10.51789986      -0.07168521      10.58254450        0       0.04325540       0.12274353       0.04654804
Ge       2.54400920       2.57855687       2.57710236        1       0.37946502       0.36872532       0.04020279
Cl       2.75790747       2.86194041      10.67337764        2      -0.22017562      -0.26726625       0.12054163
Cl       2.67127570      10.59036333       2.51325648        3      -0.07640220       0.11868640       0.00856480
Cl      10.51883616       2.71968361       2.69322569        4       0.55099037      -0.03427408       0.00008359
Cs      -0.13080734       0.09825552       5.38963512        5       0.13538872       0.00374343      -0.13496484
Ge       2.68278572       2.64406765       8.02568008        6       0.18837368      -0.16631185      -0.30089320
Cl       2.51460428       2.69105219       5.40376300        7       0.10038148      -0.02413882      -0.01225156
Cl       2.61468020      10.72132725       8.09603470        8       0.02555582      -0.27680547      -0.07827250
Cl      10.58369535       2.71351802       7.93076126        9      -0.07334417       0.00009091       0.03650602
Rb      10.57740378       5.30743655      10.56707789       10      -0.02077251      -0.05708165       0.02358938
Ge       2.47425153       7.95675168       2.50126841       11       0.65090932      -0.33047358      -0.18560533
Cl       2.71162819       7.88411278      -0.05201372       12      -0.13924791       0.07622176       0.14695375
Cl       2.51369145       5.27404630       2.46199091       13      -0.02617422       0.05163065       0.18574256
Cl      10.72325604       7.91842858       2.67226771       14      -0.54392339       0.02808508      -0.00345059
Rb      10.68165319       5.31028763       5.44090270       15       0.01467586      -0.06741826      -0.07543187
Ge       2.71935531       7.87157391       7.79559759       16       0.44010264       0.00550458       0.27074148
Cl       2.63800728       7.85409764       5.27048643       17      -0.04885035       0.02479003       0.23470540
Cl       2.67465467       5.26023559       8.09372111       18      -0.05138369       0.59464081      -0.19050323
Cl      10.61693037       7.88662556       8.00313781       19       0.13741098       0.04384483      -0.16834489
Rb       5.29679669      10.56175652      10.63192888       20       0.04108051       0.03823579       0.03725700
Ge       8.01154838       2.71639972       2.71052296       21      -0.52966888      -0.34339916      -0.74920278
Cl       7.99315596       2.64471649      10.72709366       22       0.08686333       0.05055650      -0.37580953
Cl       8.02499374      10.64640161       2.52800509       23      -0.06888994      -0.08985570       0.23334949
Cl       5.35683227       2.74508536       2.50994624       24      -0.35426114      -0.09387739       0.16945845
Cs       5.35421937       0.00100316       5.42829135       25      -0.10685361       0.05630009      -0.15413606
Ge       8.03637931       2.70209913       7.87439911       26      -0.16278509       0.37692755       0.34669375
Cl       7.88606384       2.82169937       5.26206686       27       0.07476831      -0.10480977       0.57972768
Cl       7.90022602      10.69048593       8.02643960       28       0.12292630      -0.20321950      -0.17782470
Cl       5.30956275       2.70867820       8.06357507       29      -0.14971136      -0.05567734      -0.07730035
Rb       5.20418938       5.21636090      10.63241840       30       0.09214410       0.04735205       0.02590181
Ge       7.89117923       7.86347425       2.52285080       31      -0.45633192       0.20820381      -0.19411051
Cl       7.98784628       7.97288686       0.11309877       32      -0.04970620      -0.06585428       0.13093269
Cl       7.94046497       5.30593307       2.43934732       33       0.06208967       0.25413545       0.09323472
Cl       5.29306563       7.89248361       2.64912388       34       0.60255110       0.02168989      -0.05815481
Cs       5.19725801       5.29556017       5.31476821       35       0.01742033      -0.05644785      -0.06700771
Ge       8.16391615       8.07242704       7.76775611       36      -0.63565575      -0.41788884       0.57133528
Cl       7.87261583       7.87637251       5.44756052       37       0.22673475       0.12630305      -0.32691285
Cl       8.00437525       5.30604627       7.90051482       38       0.06861430       0.06882384       0.05529653
Cl       5.32716305       7.99406026       7.98923178       39      -0.34751915      -0.03074539      -0.05281134
40
Lattice="10.60481556963027 0.0 0.0 0.0 10.607048447796803 0.0 0.0 -4.060981367523615e-15 10.607048447796704" Properties=species:S:1:pos:R:3:spacegroup_kinds:I:1:forces:R:3 spacegroup="P 1" unit_cell=conventional occupancy="_JSON {\"0\": {\"Cs\": 1.0}, \"1\": {\"Ge\": 1.0}, \"2\": {\"Cl\": 1.0}, \"3\": {\"Cl\": 1.0}, \"4\": {\"Cl\": 1.0}, \"5\": {\"Cs\": 1.0}, \"6\": {\"Ge\": 1.0}, \"7\": {\"Cl\": 1.0}, \"8\": {\"Cl\": 1.0}, \"9\": {\"Cl\": 1.0}, \"10\": {\"Rb\": 1.0}, \"11\": {\"Ge\": 1.0}, \"12\": {\"Cl\": 1.0}, \"13\": {\"Cl\": 1.0}, \"14\": {\"Cl\": 1.0}, \"15\": {\"Rb\": 1.0}, \"16\": {\"Ge\": 1.0}, \"17\": {\"Cl\": 1.0}, \"18\": {\"Cl\": 1.0}, \"19\": {\"Cl\": 1.0}, \"20\": {\"Rb\": 1.0}, \"21\": {\"Ge\": 1.0}, \"22\": {\"Cl\": 1.0}, \"23\": {\"Cl\": 1.0}, \"24\": {\"Cl\": 1.0}, \"25\": {\"Cs\": 1.0}, \"26\": {\"Ge\": 1.0}, \"27\": {\"Cl\": 1.0}, \"28\": {\"Cl\": 1.0}, \"29\": {\"Cl\": 1.0}, \"30\": {\"Rb\": 1.0}, \"31\": {\"Ge\": 1.0}, \"32\": {\"Cl\": 1.0}, \"33\": {\"Cl\": 1.0}, \"34\": {\"Cl\": 1.0}, \"35\": {\"Cs\": 1.0}, \"36\": {\"Ge\": 1.0}, \"37\": {\"Cl\": 1.0}, \"38\": {\"Cl\": 1.0}, \"39\": {\"Cl\": 1.0}}" candidate_id=3c09328dfb61f753 formula=Cs0.5Rb0.5GeCl3 config_index=2 rattle_stdev=0.08 method=PBE fidelity=phase2_force energy=-138.0117215988188 stress="-0.003204728582633515 6.105488176114473e-05 -9.641372050268255e-05 6.105488176114473e-05 -0.002948276869940962 0.00011915414532889996 -9.641372050268255e-05 0.00011915414532889996 -0.002949389141571056" pbc="T T T"
Cs      10.59579853      -0.08612512      10.74985060        0       0.05509029       0.04191007      -0.24562377
Ge       2.53464523       2.64897805       2.52764879        1       0.64641241       0.30962285       0.14845567
Cl       2.68334114       2.64405178      10.57905039        2      -0.14043932       0.08398404       0.09689696
Cl       2.69687242      10.70312140       2.46106645        3      -0.05526200      -0.67294742       0.12170075
Cl      10.75313787       2.76609203       2.58870169        4      -0.76177088      -0.03844370      -0.05083148
Cs      -0.03224966      -0.07789298       5.26612688        5      -0.01586851      -0.00546782       0.12452470
Ge       2.59377018       2.77279518       7.91643194        6       0.47236341       0.15554808      -0.21988118
Cl       2.58218613       2.71232865       5.30989061        7      -0.01754204      -0.13142734       0.12474655
Cl       2.57848352      10.48314905       8.09344288        8       0.01058288       0.04813975      -0.05516293
Cl      10.63782923       2.67091357       7.82478809        9      -0.17310944       0.07414794       0.13902890
Rb      10.54183625       5.22124289      10.61451310       10       0.05761890       0.04675032      -0.04382112
Ge       2.60886836       7.99438432       2.61237533       11       0.40130641      -0.31759668       0.05526509
Cl       2.61482313       7.80992391      -0.04021875       12       0.02493004       0.01345880       0.52878813
Cl       2.71232718       5.22952441       2.76602348       13      -0.14240225       0.61866036      -0.18475434
Cl      10.49279667       7.86134557       2.61654586       14       0.54374947      -0.03900408       0.01510870
Rb      10.57662475       5.31039427       5.31205638       15      -0.00606048       0.02368996       0.01446496
Ge       2.63544140       8.03971944       8.00622186       16      -0.28505148      -0.18345522      -0.16460845
Cl       2.67387974       7.84248747       5.36215080       17      -0.10282116       0.19847149      -0.38861919
Cl       2.75563618       5.24512159       7.97896733       18      -0.14198959      -0.35789745       0.04194134
Cl      10.69096871       7.67284477       8.02124409       19       0.12847557       0.16661870      -0.03590168
Rb       5.38552456      10.46236254      10.66773972       20      -0.06996424       0.10473185      -0.08229479
Ge       7.91360265       2.48754026       2.61980709       21      -0.57660745       0.50406531       0.29997132
Cl       7.83132074       2.75340587      10.56279417       22       0.18664997      -0.02106154       0.09291350
Cl       8.01627657      10.53750302       2.58057878       23      -0.07557925       0.36123809       0.01095568
Cl       5.29383539       2.87227138       2.54970610       24       0.69823140      -0.42021382       0.01169059
Cs       5.26017538      -0.10356935       5.32065215       25       0.04028762       0.09442153       0.04852567
Ge       8.04371324       2.70720658       8.03985476       26      -0.58628445      -0.07661766      -0.26752318
Cl       7.86729719       2.76284684       5.28591325       27       0.14739055      -0.24222188      -0.23629663
Cl       7.98329108      10.52667090       8.17244147       28      -0.00642508       0.47057109      -0.06599591
Cl       5.31975665       2.74436325       7.97997202       29       0.14419594      -0.14438456       0.02011192
Rb       5.22217705       5.24101941      10.62339067       30      -0.01802772      -0.03213078      -0.00739354
Ge       7.99649904       7.84596494       2.45101213       31      -0.44239371      -0.36867408       0.61772206
Cl       8.00329817       7.86695801      -0.01380513       32      -0.01625530      -0.07147330       0.25051924
Cl       7.77260586       5.29456072       2.66564576       33       0.26185817       0.09553446      -0.16289837
Cl       5.33878684       8.06763703       2.58194597       34      -0.53114797      -0.00051508      -0.09523031
Cs       5.30263518       5.26723992       5.33340282       35      -0.01218647       0.01084007      -0.03834355
Ge       7.88856240       7.92384013       8.01426499       36       0.06118600       0.04856779      -0.76143525
Cl       7.87353710       7.89873683       5.37170317       37       0.12501392       0.13278013       0.03557423
Cl       7.94313144       5.39862976       7.90004673       38       0.10196425      -0.63252481       0.14661543
Cl       5.37169105       7.83121167       7.98618166       39       0.06049799       0.15833410       0.15346378
40
Lattice="10.60481556963027 0.0 0.0 0.0 10.607048447796803 0.0 0.0 -4.060981367523615e-15 10.607048447796704" Properties=species:S:1:pos:R:3:spacegroup_kinds:I:1:forces:R:3 spacegroup="P 1" unit_cell=conventional occupancy="_JSON {\"0\": {\"Cs\": 1.0}, \"1\": {\"Ge\": 1.0}, \"2\": {\"Cl\": 1.0}, \"3\": {\"Cl\": 1.0}, \"4\": {\"Cl\": 1.0}, \"5\": {\"Cs\": 1.0}, \"6\": {\"Ge\": 1.0}, \"7\": {\"Cl\": 1.0}, \"8\": {\"Cl\": 1.0}, \"9\": {\"Cl\": 1.0}, \"10\": {\"Rb\": 1.0}, \"11\": {\"Ge\": 1.0}, \"12\": {\"Cl\": 1.0}, \"13\": {\"Cl\": 1.0}, \"14\": {\"Cl\": 1.0}, \"15\": {\"Rb\": 1.0}, \"16\": {\"Ge\": 1.0}, \"17\": {\"Cl\": 1.0}, \"18\": {\"Cl\": 1.0}, \"19\": {\"Cl\": 1.0}, \"20\": {\"Rb\": 1.0}, \"21\": {\"Ge\": 1.0}, \"22\": {\"Cl\": 1.0}, \"23\": {\"Cl\": 1.0}, \"24\": {\"Cl\": 1.0}, \"25\": {\"Cs\": 1.0}, \"26\": {\"Ge\": 1.0}, \"27\": {\"Cl\": 1.0}, \"28\": {\"Cl\": 1.0}, \"29\": {\"Cl\": 1.0}, \"30\": {\"Rb\": 1.0}, \"31\": {\"Ge\": 1.0}, \"32\": {\"Cl\": 1.0}, \"33\": {\"Cl\": 1.0}, \"34\": {\"Cl\": 1.0}, \"35\": {\"Cs\": 1.0}, \"36\": {\"Ge\": 1.0}, \"37\": {\"Cl\": 1.0}, \"38\": {\"Cl\": 1.0}, \"39\": {\"Cl\": 1.0}}" candidate_id=3c09328dfb61f753 formula=Cs0.5Rb0.5GeCl3 config_index=3 rattle_stdev=0.08 method=PBE fidelity=phase2_force energy=-137.7468549721282 stress="-0.0032393220555987905 0.0002659168440236191 0.00030276723000736467 0.0002659168440236191 -0.003377650608709874 0.00015021620824207856 0.00030276723000736467 0.00015021620824207856 -0.002440699445767032" pbc="T T T"
Cs      10.49913209       0.16134023      10.61085361        0       0.17539743      -0.10498038      -0.02775577
Ge       2.63219020       2.68181353       2.70520389        1      -0.33175076      -0.43529767      -0.66316029
Cl       2.59874394       2.75662920      10.54505499        2       0.09385794      -0.07957748      -0.20654681
Cl       2.78553610      10.58907401       2.48211521        3      -0.00712517      -0.22053420       0.08061943
Cl      10.55053275       2.59690042       2.49676073        4       0.23515970       0.13886097       0.18997251
Cs      -0.01794374      -0.06804488       5.24306502        5      -0.02964456       0.00613665       0.00714499
Ge       2.67225756       2.47066827       7.84498527        6       0.21229197       0.49666293       0.77654315
Cl       2.57232937       2.52119611       5.20138944        7       0.00992979       0.03330688       0.24856443
Cl       2.72622941      10.50474173       7.95722961        8      -0.03056522       0.67708820       0.00131029
Cl      10.48462590       2.63141189       8.18922505        9       0.26354764       0.05910344      -0.26693320
Rb      10.56667334       5.37525734      10.46265339       10       0.05323124      -0.16507459       0.04791624
Ge       2.61190672       7.83600501       2.56402288       11       0.04187257       0.39345846      -0.14627560
Cl       2.76573731       7.87431962      -0.05709572       12      -0.12084153      -0.03683740       0.79832363
Cl       2.63612896       5.24921383       2.71035007       13      -0.06455633       0.36321787       0.01060436
Cl      10.46500974       7.93315573       2.57162931       14       1.26130724      -0.12835203       0.03056232
Rb      10.54411972       5.31728633       5.25094094       15      -0.03365519      -0.03165994       0.03169708
Ge       2.69541953       7.96257339       7.94890471       16      -0.03567241      -0.77864175      -0.10222390
Cl       2.75551970       7.90745409       5.40045156       17      -0.06402147       0.05973634      -0.45518425
Cl       2.70765441       5.35744391       7.97140331       18      -0.04279209      -0.21312031      -0.11068556
Cl      10.59686840       7.75368417       8.00191253       19      -0.31567525       0.10876371      -0.01362538
Rb       5.39831249      10.58581463      10.55490448       20      -0.06851201       0.03989098       0.03096737
Ge       7.80188875       2.55185980       2.59701465       21       0.51844370       0.43527816      -0.07361508
Cl       7.91838528       2.77118900      10.65845048       22      -0.14709268      -0.11889160       0.00377622
Cl       8.12346287      10.59346586       2.50551537       23      -0.31149755      -0.28783294       0.11070143
Cl       5.26692329       2.77204379       2.61649786       24      -0.15501161      -0.13754278       0.05613862
Cs       5.32469884       0.04176727       5.32893356       25       0.05707437      -0.07988405      -0.05606089
Ge       7.97178259       2.64385647       7.92116653       26       0.07207991      -0.14333628      -0.01507172
Cl       8.09907628       2.64790255       5.27481802       27      -0.06025943      -0.02206293       0.23072142
Cl       7.93838011      10.74138621       7.92611541       28      -0.02089521      -0.85277955       0.10240190
Cl       5.27050961       2.67049447       8.07484626       29      -0.51937865      -0.14735456      -0.17292121
Rb       5.25622821       5.30922401      10.67642486       30      -0.00253088      -0.08792855      -0.08429496
Ge       7.98680440       7.91386595       2.68888796       31      -0.28474858      -0.22199546       0.16314912
Cl       7.96955414       7.85756463       0.05232634       32       0.03950245       0.01088809      -0.09095617
Cl       7.88398974       5.18956833       2.72861938       33       0.15517463       0.27304029      -0.03622215
Cl       5.53595383       7.84878481       2.51526720       34      -0.97923968       0.10569830       0.05365195
Cs       5.38684717       5.39518126       5.31317407       35      -0.03837682      -0.08158234       0.07350362
Ge       7.95461115       7.87600302       8.12871187       36       0.15952664      -0.05422685      -0.36631520
Cl       7.93949472       7.86561154       5.41654357       37       0.05420470       0.06925172      -0.07266697
Cl       7.90339232       5.12219890       8.06625595       38       0.02348396       1.09116993      -0.04114049
Cl       5.26046234       7.91928201       8.11781148       39       0.24221516       0.05822115      -0.04795335
