40
Lattice="12.468405323280273 0.0 0.0 0.006976881174993977 12.406980107588435 0.0 -0.002196586940023318 0.007012657951790409 12.46840315771155" Properties=species:S:1:pos:R:3:spacegroup_kinds:I:1:forces:R:3 spacegroup="P 1" unit_cell=conventional occupancy="_JSON {\"0\": {\"Cs\": 1.0}, \"1\": {\"Sn\": 1.0}, \"2\": {\"I\": 1.0}, \"3\": {\"I\": 1.0}, \"4\": {\"I\": 1.0}, \"5\": {\"Cs\": 1.0}, \"6\": {\"Sn\": 1.0}, \"7\": {\"I\": 1.0}, \"8\": {\"I\": 1.0}, \"9\": {\"I\": 1.0}, \"10\": {\"Cs\": 1.0}, \"11\": {\"Sn\": 1.0}, \"12\": {\"Cl\": 1.0}, \"13\": {\"I\": 1.0}, \"14\": {\"I\": 1.0}, \"15\": {\"Cs\": 1.0}, \"16\": {\"Sn\": 1.0}, \"17\": {\"I\": 1.0}, \"18\": {\"Cl\": 1.0}, \"19\": {\"I\": 1.0}, \"20\": {\"Cs\": 1.0}, \"21\": {\"Sn\": 1.0}, \"22\": {\"I\": 1.0}, \"23\": {\"I\": 1.0}, \"24\": {\"Cl\": 1.0}, \"25\": {\"Cs\": 1.0}, \"26\": {\"Sn\": 1.0}, \"27\": {\"I\": 1.0}, \"28\": {\"I\": 1.0}, \"29\": {\"I\": 1.0}, \"30\": {\"Cs\": 1.0}, \"31\": {\"Sn\": 1.0}, \"32\": {\"I\": 1.0}, \"33\": {\"Cl\": 1.0}, \"34\": {\"I\": 1.0}, \"35\": {\"Cs\": 1.0}, \"36\": {\"Sn\": 1.0}, \"37\": {\"I\": 1.0}, \"38\": {\"I\": 1.0}, \"39\": {\"I\": 1.0}}" candidate_id=a3113c46d2d3e044 formula=CsSnCl0.18I0.823 config_index=0 rattle_stdev=0.0 method=PBE fidelity=phase2_force energy=-116.56102219921786 stress="-0.00047207188854833464 -8.743846775355071e-05 1.6111209999132503e-05 -8.743846775355071e-05 0.0003599162627042761 -8.796076050640409e-05 1.6111209999132503e-05 -8.796076050640409e-05 -0.0004718768119577427" pbc="T T T"
Cs       0.00965158       0.03268539       0.01922090        0      -0.00110889      -0.00008803      -0.00768651
Sn       3.45381595       3.11743033       3.10087471        1      -0.14726740       0.02006349      -0.02034215
I        3.19705813       3.17762184      12.45409053        2      -0.00401372      -0.00087061       0.00126829
I        3.19877756      12.40869096       3.04186556        3      -0.00398419       0.00000650       0.00398068
I       12.24621269       3.21291459       3.11893852        4       0.04588338       0.04912065      -0.00069541
Cs       0.04006412      12.41046721       6.20002208        5      -0.00737450       0.00000472       0.00738013
Sn       3.12949938       3.43875942       9.34861895        6       0.01665413      -0.15274003       0.00043009
I        3.19154275       3.18366446       6.21466481        7      -0.00097738      -0.00744441       0.00973222
I        3.11640633      12.19896535       9.46562138        8       0.00218560       0.04493060       0.05376344
I        0.03842609       3.18118881       9.35091374        9      -0.12440184      -0.00802321      -0.00268302
Cs       0.02640239       6.17521798       0.01340559       10      -0.00773687      -0.00093321      -0.00034042
Sn       3.13806220       9.29285828       2.78159200       11       0.02066278      -0.01998159       0.14732391
Cl       3.12805021       9.26758776       0.22400968       12      -0.00064480      -0.01786968      -0.09237545
I        3.19448624       6.20520135       3.04266830       13      -0.00116636      -0.00000265       0.00114359
I        0.02418918       9.22852268       3.04335285       14      -0.00973166       0.00744576       0.00096506
Cs       0.04414005       6.20697291       6.19245903       15      -0.00301875       0.00000123       0.00301706
Sn       3.11798681       9.20417761       9.45660790       16      -0.00416180       0.13035693      -0.12048706
I        3.11929708       9.19945171       6.45765045       17       0.00066799      -0.04914554      -0.04583173
Cl       3.12420984       6.00006205       9.38184276       18      -0.00602848       0.08200930       0.02157013
I        0.01507300       9.24807947       9.41684870       19      -0.08526088      -0.03400325       0.03729361
Cs       6.24954351      12.41398683      12.45784447       20       0.00089051       0.00000021      -0.00088899
Sn       9.24725288       3.20987586       3.11972216       21       0.12028438      -0.13041752       0.00469731
I        9.28717903       3.17245516       0.01276079       22      -0.03616370       0.02955841      -0.08558343
I        9.23655475       0.21509502       3.12298512       23      -0.05378584      -0.04489769      -0.00217636
Cl       6.01141027       3.14126825       3.11132387       24       0.09224502       0.01780694       0.00061519
Cs       6.22084367      12.37780643       6.22456499       25       0.00769369       0.00008910       0.00111197
Sn       9.34288813       3.12481678       9.34746279       26       0.01033797       0.01147702      -0.00776477
I        9.28644073       3.16769684       6.22266713       27      -0.03728909       0.03407547       0.08522862
I        9.35684026      12.41223948       9.35109558       28       0.00120293      -0.00000101      -0.00119610
I        6.22232443       3.19666830       9.34487257       29       0.10718839      -0.01587530      -0.00412311
Cs       6.24572641       6.21049696      12.45817307       30       0.00450517      -0.00000248      -0.00450030
Sn       9.35848650       8.97522503       3.10498655       31      -0.00073116       0.15272343      -0.01633792
I        9.36291391       9.21557445       0.01202656       32       0.00418464       0.01580998      -0.10719931
Cl       9.32382120       6.41394486       3.11171054       33      -0.02162089      -0.08199955       0.00603455
I        6.25317423       9.23807084       3.03673288       34      -0.00127735       0.00088051       0.00400984
Cs       6.22320716       6.23526309       6.21126937       35       0.00034717       0.00093317       0.00774078
Sn       9.35871727       9.29268495       9.35982570       36       0.00734683      -0.01148631      -0.01071817
I        9.35579201       9.23453537       6.19591406       37       0.00267238       0.00809321       0.12438744
I        9.35320309       6.20874951       9.35124429       38       0.00839376      -0.00000443      -0.00835828
I        6.22497572       9.23982869       9.41720905       39       0.08556993      -0.02958744       0.03620086
40
Lattice="12.468405323280273 0.0 0.0 0.006976881174993977 12.406980107588435 0.0 -0.002196586940023318 0.007012657951790409 12.46840315771155" Properties=species:S:1:pos:R:3:spacegroup_kinds:I:1:forces:R:3 spacegroup="P 1" unit_cell=conventional occupancy="_JSON {\"0\": {\"Cs\": 1.0}, \"1\": {\"Sn\": 1.0}, \"2\": {\"I\": 1.0}, \"3\": {\"I\": 1.0}, \"4\": {\"I\": 1.0}, \"5\": {\"Cs\": 1.0}, \"6\": {\"Sn\": 1.0}, \"7\": {\"I\": 1.0}, \"8\": {\"I\": 1.0}, \"9\": {\"I\": 1.0}, \"10\": {\"Cs\": 1.0}, \"11\": {\"Sn\": 1.0}, \"12\": {\"Cl\": 1.0}, \"13\": {\"I\": 1.0}, \"14\": {\"I\": 1.0}, \"15\": {\"Cs\": 1.0}, \"16\": {\"Sn\": 1.0}, \"17\": {\"I\": 1.0}, \"18\": {\"Cl\": 1.0}, \"19\": {\"I\": 1.0}, \"20\": {\"Cs\": 1.0}, \"21\": {\"Sn\": 1.0}, \"22\": {\"I\": 1.0}, \"23\": {\"I\": 1.0}, \"24\": {\"Cl\": 1.0}, \"25\": {\"Cs\": 1.0}, \"26\": {\"Sn\": 1.0}, \"27\": {\"I\": 1.0}, \"28\": {\"I\": 1.0}, \"29\": {\"I\": 1.0}, \"30\": {\"Cs\": 1.0}, \"31\": {\"Sn\": 1.0}, \"32\": {\"I\": 1.0}, \"33\": {\"Cl\": 1.0}, \"34\": {\"I\": 1.0}, \"35\": {\"Cs\": 1.0}, \"36\": {\"Sn\": 1.0}, \"37\": {\"I\": 1.0}, \"38\": {\"I\": 1.0}, \"39\": {\"I\": 1.0}}" candidate_id=a3113c46d2d3e044 formula=CsSnCl0.18I0.823 config_index=1 rattle_stdev=0.08 method=PBE fidelity=phase2_force energy=-115.95150094956664 stress="-0.0018607168336082095 -0.00019452026006775715 4.86933624109368e-05 -0.00019452026006775715 -0.0006781511167232073 -2.268245667716662e-05 4.86933624109368e-05 -2.268245667716662e-05 -0.003481556543379059" pbc="T T T"
Cs      -0.07726413      -0.03899982      -0.00528305        0      -0.02550507       0.04355419       0.00832394
Sn       3.34662126       3.02090349       3.04953656        1       0.47054073       0.35249065       0.17505752
I        3.30169378       3.32525868      12.52041973        2      -0.08463898      -0.11685234      -0.03391120
I        3.19691366      12.39200584       2.96853598        3      -0.00845731       0.02656752       0.00199997
I       12.16023328       3.20602312       3.21300560        4       0.78996582       0.09699369       0.03407617
Cs      -0.09074322      12.50872273       6.28613298        5       0.03342940       0.04204909      -0.02603700
Sn       3.16108121       3.40774335       9.39569109        6       0.08442747      -0.42821857      -0.14242433
I        3.07687885       3.15777848       6.31490359        7       0.04081799       0.02858555      -0.13636582
I        3.05794692      12.31324416       9.54119369        8       0.00926253      -0.32216234      -0.03515135
I        0.01730587       3.16813174       9.27378516        9      -0.05604937      -0.00968159       0.02769160
Cs      -0.00100940       6.17913031      -0.02656497       10      -0.03352860      -0.04401793       0.01430356
Sn       2.96110984       9.31764523       2.65441989       11       0.82513868      -0.29407505       0.39773771
Cl       3.18640657       9.25895566       0.17199596       12      -0.11096250      -0.00475349      -0.39659458
I        3.05904172       6.17572343       2.91543856       13      -0.01160530       0.06575012       0.09831008
I        0.14262964       9.26647789       3.11646196       14      -0.76749030       0.02796214       0.03090204
Cs       0.12097767       6.21373631       6.32983751       15       0.00753557      -0.04856404      -0.02131422
Sn       3.18613823       9.14378679       9.27359755       16       0.22213652       0.40268994       0.48310587
I        3.12803617       9.16343907       6.42461266       17      -0.00650814      -0.02132367      -0.45328119
Cl       3.14972854       5.95677341       9.45773608       18      -0.02189307       0.42012820      -0.04173367
I        0.02718780       9.25423166       9.41209667       19       0.19427934      -0.01764229       0.02022361
Cs       6.24393241      12.36869490      12.48272490       20       0.01658813       0.02409650       0.01401657
Sn       9.30518958       3.25119186       3.20180461       21      -0.53928184      -0.20781258      -0.54882465
I        9.32879124       3.10286807       0.13280600       22      -0.00892982       0.09627967      -0.48874085
I        9.32987252       0.25444818       3.06440415       23      -0.08129694      -0.16259415       0.14453219
Cl       6.06583476       3.18198800       3.04432097       24      -0.51157326      -0.02844840       0.04919365
Cs       6.27265525      12.37880959       6.34933212       25      -0.02518229       0.01378070      -0.02118981
Sn       9.42565576       3.15183219       9.24325396       26      -0.11205804       0.27552146       0.29736567
I        9.19695718       3.27245805       6.18120977       27      -0.05995805      -0.01637671       0.54413190
I        9.32539031      12.49567696       9.35707280       28       0.03518116      -0.18707837      -0.04437039
I        6.22947940       3.20098089       9.37834833       29       0.05936813       0.00088947      -0.02411015
Cs       6.14750800       6.12333363      12.48354302       30       0.05772750       0.00894695       0.02987640
Sn       9.29605406       8.90673454       2.99939684       31      -0.12901217       0.58660060       0.20909965
I        9.39921644       9.29571644       0.12512534       32       0.01116286      -0.00991374      -0.36625650
Cl       9.30860657       6.41635371       2.96183721       33      -0.01404542      -0.40769032      -0.02958223
I        6.24383208       9.22787161       3.10890763       34       0.18781273      -0.05693777       0.02234237
Cs       6.11805738       6.22729904       6.22251336       35      -0.00099255      -0.02996586      -0.01095610
Sn       9.56902175       9.43314726       9.14897388       36      -0.49021646      -0.29466948       0.66585046
I        9.25286045       9.22079760       6.33995036       37       0.06213266       0.07161871      -0.57476876
I        9.40189874       6.21127156       9.23393131       38       0.01084877       0.17012297       0.07673088
I        6.24973098       9.33120612       9.37634152       39      -0.02589645      -0.04304533       0.05417227
40
Lattice="12.468405323280273 0.0 0.0 0.006976881174993977 12.406980107588435 0.0 -0.002196586940023318 0.007012657951790409 12.46840315771155" Properties=species:S:1:pos:R:3:spacegroup_kinds:I:1:forces:R:3 spacegroup="P 1" unit_cell=conventional occupancy="_JSON {\"0\": {\"Cs\": 1.0}, \"1\": {\"Sn\": 1.0}, \"2\": {\"I\": 1.0}, \"3\": {\"I\": 1.0}, \"4\": {\"I\": 1.0}, \"5\": {\"Cs\": 1.0}, \"6\": {\"Sn\": 1.0}, \"7\": {\"I\": 1.0}, \"8\": {\"I\": 1.0}, \"9\": {\"I\": 1.0}, \"10\": {\"Cs\": 1.0}, \"11\": {\"Sn\": 1.0}, \"12\": {\"Cl\": 1.0}, \"13\": {\"I\": 1.0}, \"14\": {\"I\": 1.0}, \"15\": {\"Cs\": 1.0}, \"16\": {\"Sn\": 1.0}, \"17\": {\"I\": 1.0}, \"18\": {\"Cl\": 1.0}, \"19\": {\"I\": 1.0}, \"20\": {\"Cs\": 1.0}, \"21\": {\"Sn\": 1.0}, \"22\": {\"I\": 1.0}, \"23\": {\"I\": 1.0}, \"24\": {\"Cl\": 1.0}, \"25\": {\"Cs\": 1.0}, \"26\": {\"Sn\": 1.0}, \"27\": {\"I\": 1.0}, \"28\": {\"I\": 1.0}, \"29\": {\"I\": 1.0}, \"30\": {\"Cs\": 1.0}, \"31\": {\"Sn\": 1.0}, \"32\": {\"I\": 1.0}, \"33\": {\"Cl\": 1.0}, \"34\": {\"I\": 1.0}, \"35\": {\"Cs\": 1.0}, \"36\": {\"Sn\": 1.0}, \"37\": {\"I\": 1.0}, \"38\": {\"I\": 1.0}, \"39\": {\"I\": 1.0}}" candidate_id=a3113c46d2d3e044 formula=CsSnCl0.18I0.823 config_index=2 rattle_stdev=0.08 method=PBE fidelity=phase2_force energy=-116.01049966618842 stress="-0.0003400337262134102 5.140269777194936e-05 7.586172743495236e-05 5.140269777194936e-05 -0.003492403989958986 8.756193931181408e-06 7.586172743495236e-05 8.756193931181408e-06 -0.0012795422831152576" pbc="T T T"
Cs       0.00063454      -0.05343972       0.16202306        0       0.00427309       0.01860488      -0.04632967
Sn       3.33725729       3.09132467       3.00008299        1       0.15648403       0.42392135       0.15492550
I        3.22712745       3.10737005      12.42609247        2      -0.03818799       0.04072089       0.00114033
I        3.22251038      12.50476391       2.91634594        3      -0.03780651      -0.60371857       0.01963759
I       12.39453499       3.25243154       3.10848160        4      -0.31257141      -0.02491998      -0.04269786
Cs       0.00781446      12.33257423       6.16262474        5      -0.02151730       0.00808093       0.03256689
Sn       3.07206567       3.53647088       9.28644295        6       0.42188231      -0.99922919      -0.06190585
I        3.14446070       3.17905495       6.22103120        7       0.00628099      -0.07411444      -0.04282654
I        3.02175024      12.07506596       9.53860187        8       0.00730904       1.03967832       0.05091168
I        0.07143975       3.12552729       9.16781199        9      -0.31161756       0.01309744       0.05669344
Cs      -0.03657693       6.09293665       0.02087024       10       0.02876878      -0.00145263       0.00008989
Sn       3.09572666       9.35527787       2.76552682       11       0.24124550      -0.27611746       0.05275676
Cl       3.08960152       9.18476679       0.18379093       12      -0.00484674       0.00708892       0.17800371
I        3.25767746       6.13120155       3.21947112       13      -0.04840641       0.50992011      -0.08259439
I       -0.08782972       9.20939489       3.06074011       14       0.49505911       0.01352943       0.01433528
Cs       0.01594923       6.21384295       6.20099119       15      -0.00676716      -0.00412919      -0.00937759
Sn       3.10222432       9.31193232       9.48422182       16      -0.00879503      -0.86200160       0.01975561
I        3.16390863       9.15182890       6.51627703       17      -0.01812351       0.03667460      -0.31218370
Cl       3.23071005       5.94165941       9.34298230       18      -0.04146200       0.87248051       0.03901940
I        0.10122614       9.04045087       9.43020295       19      -0.19653416      -0.04382972       0.04522068
Cs       6.33266028      12.26930092      12.51853574       20      -0.01734688       0.04115351      -0.03880601
Sn       9.20724385       3.02233240       3.11108874       21       0.19444893       0.39023029       0.16464275
I        9.16695602       3.21155745      -0.03149350       22       0.03810081       0.04656083       0.07257740
I        9.32115535       0.14554959       3.11697784       23      -0.02011427      -0.29916285      -0.01457894
Cl       6.00283788       3.30917401       3.08408084       24       0.05726568      -0.11774544      -0.04947633
Cs       6.17861126      12.27423709       6.24169291       25       0.02723949       0.00552474       0.02035498
Sn       9.43298970       3.15693965       9.40870962       26      -0.30929663      -0.04944462      -0.21975646
I        9.17819053       3.21360552       6.20505616       27       0.00718243      -0.03924141      -0.03864219
I        9.40845538      12.33186194       9.50307466       28       0.02680314       0.44558201       0.00503107
I        6.23967330       3.23666593       9.29474528       29       0.13365582      -0.06847403       0.01145122
Cs       6.16549567       6.14799214      12.47451529       30      -0.02376770      -0.03630520       0.02709406
Sn       9.40137386       8.88922523       2.92755817       31      -0.42461331       0.28004846       0.64368947
I        9.41466833       9.18978758      -0.00177857       32       0.00585016      -0.03708880      -0.09564931
Cl       9.14074745       6.40498135       3.18813565       33       0.04951865      -0.29680079      -0.10274407
I        6.28955329       9.40302503       3.04172972       34      -0.34215490       0.02371067      -0.05751783
Cs       6.22343455       6.19897879       6.24114797       35       0.00981849      -0.02136323      -0.03542924
Sn       9.29366799       9.28456035       9.39548276       36       0.17721760       0.09709628      -0.45186396
I        9.25378172       9.24316192       6.26409301       37       0.06104759       0.09393874      -0.04864347
I        9.34065492       6.30385506       9.23346322       38       0.06072356      -0.58873410       0.04732047
I        6.29425899       9.16835753       9.37329140       39      -0.03112468       0.03265164       0.10498525
40
Lattice="12.468405323280273 0.0 0.0 0.006976881174993977 12.406980107588435 0.0 -0.002196586940023318 0.007012657951790409 12.46840315771155" Properties=species:S:1:pos:R:3:spacegroup_kinds:I:1:forces:R:3 spacegroup="P 1" unit_cell=conventional occupancy="_JSON {\"0\": {\"Cs\": 1.0}, \"1\": {\"Sn\": 1.0}, \"2\": {\"I\": 1.0}, \"3\": {\"I\": 1.0}, \"4\": {\"I\": 1.0}, \"5\": {\"Cs\": 1.0}, \"6\": {\"Sn\": 1.0}, \"7\": {\"I\": 1.0}, \"8\": {\"I\": 1.0}, \"9\": {\"I\": 1.0}, \"10\": {\"Cs\": 1.0}, \"11\": {\"Sn\": 1.0}, \"12\": {\"Cl\": 1.0}, \"13\": {\"I\": 1.0}, \"14\": {\"I\": 1.0}, \"15\": {\"Cs\": 1.0}, \"16\": {\"Sn\": 1.0}, \"17\": {\"I\": 1.0}, \"18\": {\"Cl\": 1.0}, \"19\": {\"I\": 1.0}, \"20\": {\"Cs\": 1.0}, \"21\": {\"Sn\": 1.0}, \"22\": {\"I\": 1.0}, \"23\": {\"I\": 1.0}, \"24\": {\"Cl\": 1.0}, \"25\": {\"Cs\": 1.0}, \"26\": {\"Sn\": 1.0}, \"27\": {\"I\": 1.0}, \"28\": {\"I\": 1.0}, \"29\": {\"I\": 1.0}, \"30\": {\"Cs\": 1.0}, \"31\": {\"Sn\": 1.0}, \"32\": {\"I\": 1.0}, \"33\": {\"Cl\": 1.0}, \"34\": {\"I\": 1.0}, \"35\": {\"Cs\": 1.0}, \"36\": {\"Sn\": 1.0}, \"37\": {\"I\": 1.0}, \"38\": {\"I\": 1.0}, \"39\": {\"I\": 1.0}}" candidate_id=a3113c46d2d3e044 formula=CsSnCl0.18I0.823 config_index=3 rattle_stdev=0.08 method=PBE fidelity=phase2_force energy=-115.80368354003946 stress="-0.0014930693886568399 -2.0343365843092923e-05 -0.00011018312894085831 -2.0343365843092923e-05 -0.0005211545842315719 -1.639842476904617e-05 -0.00011018312894085831 -1.639842476904617e-05 -0.0016723577546548134" pbc="T T T"
Cs      -0.09603190       0.19402562       0.02302606        0       0.03035480       0.04958543       0.02260926
Sn       3.43480226       3.12416015       3.17763809        1      -0.35409353      -0.24916555      -0.64145598
I        3.14253025       3.21994748      12.39209707        2       0.00922884      -0.00338350      -0.11090722
I        3.31117406      12.39071652       2.93739470        3       0.01376663      -0.17775319       0.01406468
I       12.19192987       3.08323993       3.01654064        4       0.02592935       0.16670310       0.04887989
Cs       0.02212038      12.34242233       6.13956287        5      -0.03000656       0.01895524      -0.01295760
Sn       3.15055305       3.23434397       9.21499628        6       0.02627375       0.61977684       0.53892865
I        3.13460394       2.98792241       6.11253003        7      -0.03424457      -0.03158241       0.34491364
I        3.16949613      12.09665864       9.40238860        8      -0.05317623       0.85719282       0.08217833
I       -0.08176357       3.08602561       9.53224896        9       0.21555041       0.01354399      -0.05179525
Cs      -0.01173984       6.24695111      -0.13098947       10       0.03495117      -0.09633012      -0.00119865
Sn       3.09876503       9.19689855       2.71717437       11       0.08862747       0.30730344       0.09793763
Cl       3.24051570       9.24916251       0.16691396       12      -0.05100146      -0.10249050       0.16110234
I        3.18147924       6.15089096       3.16379771       13      -0.02571384       0.21449083       0.01413282
I       -0.11561665       9.28120504       3.01582355       14       0.97069584       0.01947795      -0.02957100
Cs      -0.01655580       6.22073501       6.13987575       15      -0.02601987      -0.01773741       0.00558716
Sn       3.16220245       9.23478627       9.42690467       16      -0.13010391      -0.65782420       0.30111009
I        3.24554859       9.21679551       6.55457779       17      -0.03152066      -0.06801464      -0.67636219
Cl       3.18272828       6.05398174       9.33541827       18      -0.03350605      -0.59262265      -0.07805861
I        0.00712583       9.12129028       9.41087139       19      -0.21519468      -0.00210471       0.01267723
Cs       6.34544822      12.39275301      12.40570050       20      -0.04167521       0.01580670       0.00517866
Sn       9.09552995       3.08665194       3.08829630       21       0.42905226       0.31979139      -0.00853121
I        9.25402057       3.22934058       0.06416282       22      -0.10735544       0.00654432      -0.24400312
I        9.42834165       0.20151243       3.04191443       23      -0.19684745      -0.52686389       0.01263072
Cl       5.97592578       3.20894643       3.15087259       24       0.26247684      -0.00213989       0.04649443
Cs       6.24313473      12.41957371       6.24997433       25       0.01844664      -0.03603361       0.00370054
Sn       9.36105904       3.09358954       9.29002139       26      -0.03105475      -0.08275418       0.02210896
I        9.40996962       3.09866123       6.19396093       27      -0.03844969       0.04619686       0.21781417
I        9.36354440      12.54657725       9.25674860       28      -0.01963414      -0.87402600       0.06270471
I        6.19042626       3.16279716       9.38961952       29      -0.11553680      -0.04758129      -0.06882767
Cs       6.19954683       6.21619675      12.52754948       30      -0.02439019      -0.03907464      -0.04847598
Sn       9.39167922       8.95712624       3.16543400       31      -0.14499214      -0.32405724       0.23101830
I        9.38092430       9.18039421       0.06435291       32       0.03175619       0.01661367      -0.05369055
Cl       9.25213134       6.29998897       3.25110927       33       0.04618073       0.26341353       0.00146521
I        6.48672028       9.18417281       2.97505094       34      -0.96611035       0.06579154       0.01300222
Cs       6.30764654       6.32692013       6.22091922       35       0.01371441      -0.00327521       0.01803155
Sn       9.35971674       9.23672323       9.50992963       36       0.07195775      -0.02296014      -0.28594647
I        9.31973934       9.21003663       6.30893341       37       0.01392510       0.01856766      -0.01388349
I        9.30091580       6.02742419       9.39967244       38      -0.00576583       0.97656449      -0.00849602
I        6.18303028       9.25642787       9.50492122       39       0.37001851      -0.04032742       0.06745202
