40
Lattice="12.63104270611979 0.0 0.0 0.0 12.62760418860079 0.0 0.0 8.491307492514424e-14 12.631042706119802" Properties=species:S:1:pos:R:3:spacegroup_kinds:I:1:forces:R:3 spacegroup="P 1" unit_cell=conventional occupancy="_JSON {\"0\": {\"Cs\": 1.0}, \"1\": {\"Pb\": 1.0}, \"2\": {\"I\": 1.0}, \"3\": {\"I\": 1.0}, \"4\": {\"I\": 1.0}, \"5\": {\"Cs\": 1.0}, \"6\": {\"Pb\": 1.0}, \"7\": {\"I\": 1.0}, \"8\": {\"I\": 1.0}, \"9\": {\"I\": 1.0}, \"10\": {\"Cs\": 1.0}, \"11\": {\"Sn\": 1.0}, \"12\": {\"I\": 1.0}, \"13\": {\"I\": 1.0}, \"14\": {\"I\": 1.0}, \"15\": {\"Cs\": 1.0}, \"16\": {\"Sn\": 1.0}, \"17\": {\"I\": 1.0}, \"18\": {\"I\": 1.0}, \"19\": {\"I\": 1.0}, \"20\": {\"Cs\": 1.0}, \"21\": {\"Sn\": 1.0}, \"22\": {\"I\": 1.0}, \"23\": {\"I\": 1.0}, \"24\": {\"I\": 1.0}, \"25\": {\"Cs\": 1.0}, \"26\": {\"Pb\": 1.0}, \"27\": {\"I\": 1.0}, \"28\": {\"I\": 1.0}, \"29\": {\"I\": 1.0}, \"30\": {\"Cs\": 1.0}, \"31\": {\"Sn\": 1.0}, \"32\": {\"I\": 1.0}, \"33\": {\"I\": 1.0}, \"34\": {\"I\": 1.0}, \"35\": {\"Cs\": 1.0}, \"36\": {\"Sn\": 1.0}, \"37\": {\"I\": 1.0}, \"38\": {\"I\": 1.0}, \"39\": {\"I\": 1.0}}" candidate_id=0fabbf2b535a3795 formula=CsPb0.43Sn0.57I3 config_index=0 rattle_stdev=0.0 method=PBE fidelity=phase2_force energy=-112.62109135158076 stress="-0.00013375559389400412 -2.0869876689907622e-11 4.355518410821949e-11 -2.0869876689907622e-11 -0.0003141828605869292 2.0869878802024026e-11 4.355518410821949e-11 2.0869878802024026e-11 -0.0001337555938940038" pbc="T T T"
Cs      12.62162029      12.59364313       0.00942242        0      -0.00268291      -0.00572379       0.00268291
Pb       3.15776068       3.15690105       3.15776068        1       0.00015439       0.00013733       0.00031658
I        3.15776068       3.15690105       0.00605329        2      -0.00000102      -0.00000145      -0.01963383
I        3.15776068      12.54834581       3.15776068        3      -0.00000322       0.24125957      -0.00000180
I       12.55898728       3.15690105       3.15776068        4       0.22983030      -0.00000301      -0.00000148
Cs      12.62162029      12.59364313       6.30609894        5      -0.00268115      -0.00572168      -0.00267952
Pb       3.15776068       3.15690105       9.47328203        6       0.00029164       0.00011961      -0.00029164
I        3.15776068       3.15690105       6.30946807        7       0.00000047      -0.00000038       0.01964178
I        3.15776068      12.54119865       9.47328203        8      -0.00000195       0.26924167       0.00000195
I       12.62498942       3.15690105       9.47328203        9       0.01963383      -0.00000145       0.00000102
Cs      12.62162029       6.34776315       0.00942242       10      -0.00268301       0.00571330       0.00268301
Sn       3.15776068       9.47070314       3.15776068       11       0.00019822      -0.00020235       0.00020421
I        3.15776068       9.47070314       0.00166191       12      -0.00000394       0.00000294      -0.00070853
I        3.15776068       6.39306047       3.15776068       13      -0.00000213      -0.24133460      -0.00000078
I       12.62280873       9.47070314       3.15776068       14       0.01992882       0.00000278      -0.00000375
Cs      12.62162029       6.34776315       6.30609894       15      -0.00268111       0.00571060      -0.00267953
Sn       3.15776068       9.47070314       9.47328203       16       0.00020387      -0.00019743      -0.00020387
I        3.15776068       9.47070314       6.31385944       17      -0.00000243       0.00000213       0.00070876
I        3.15776068       6.40020763       9.47328203       18      -0.00000086      -0.26932207       0.00000086
I       12.62938079       9.47070314       9.47328203       19       0.00070853       0.00000294       0.00000394
Cs       6.32494377      12.59364313       0.00942242       20       0.00267952      -0.00572168       0.00268115
Sn       9.47328203       3.15690105       3.15776068       21      -0.00020858       0.00019536       0.00020858
I        9.47328203       3.15690105       0.07205542       22       0.00000148      -0.00000301      -0.22983030
I        9.47328203      12.61155545       3.15776068       23       0.00000268       0.02915363      -0.00000268
I        6.38757677       3.15690105       3.15776068       24      -0.22989942      -0.00000196       0.00000017
Cs       6.32494377      12.59364313       6.30609894       25       0.00267768      -0.00571948      -0.00267768
Pb       9.47328203       3.15690105       9.47328203       26      -0.00031658       0.00013733      -0.00015439
I        9.47328203       3.15690105       6.24346593       27      -0.00000017      -0.00000196       0.22989942
I        9.47328203      12.54834581       9.47328203       28       0.00000180       0.24125957       0.00000322
I        6.32157464       3.15690105       9.47328203       29      -0.01964178      -0.00000038      -0.00000047
Cs       6.32494377       6.34776315       0.00942242       30       0.00267953       0.00571060       0.00268111
Sn       9.47328203       9.47070314       3.15776068       31      -0.00020675      -0.00021000       0.00020675
I        9.47328203       9.47070314       0.00823397       32       0.00000375       0.00000278      -0.01992882
I        9.47328203       6.32985084       3.15776068       33       0.00000205      -0.02915583      -0.00000205
I        6.32375533       9.47070314       3.15776068       34      -0.01992980       0.00000208      -0.00000215
Cs       6.32494377       6.34776315       6.30609894       35       0.00267742       0.00570791      -0.00267742
Sn       9.47328203       9.47070314       9.47328203       36      -0.00020421      -0.00020235      -0.00019822
I        9.47328203       9.47070314       6.30728738       37       0.00000215       0.00000208       0.01992980
I        9.47328203       6.39306047       9.47328203       38       0.00000078      -0.24133460       0.00000213
I        6.31718327       9.47070314       9.47328203       39      -0.00070876       0.00000213       0.00000243
40
Lattice="12.63104270611979 0.0 0.0 0.0 12.62760418860079 0.0 0.0 8.491307492514424e-14 12.631042706119802" Properties=species:S:1:pos:R:3:spacegroup_kinds:I:1:forces:R:3 spacegroup="P 1" unit_cell=conventional occupancy="_JSON {\"0\": {\"Cs\": 1.0}, \"1\": {\"Pb\": 1.0}, \"2\": {\"I\": 1.0}, \"3\": {\"I\": 1.0}, \"4\": {\"I\": 1.0}, \"5\": {\"Cs\": 1.0}, \"6\": {\"Pb\": 1.0}, \"7\": {\"I\": 1.0}, \"8\": {\"I\": 1.0}, \"9\": {\"I\": 1.0}, \"10\": {\"Cs\": 1.0}, \"11\": {\"Sn\": 1.0}, \"12\": {\"I\": 1.0}, \"13\": {\"I\": 1.0}, \"14\": {\"I\": 1.0}, \"15\": {\"Cs\": 1.0}, \"16\": {\"Sn\": 1.0}, \"17\": {\"I\": 1.0}, \"18\": {\"I\": 1.0}, \"19\": {\"I\": 1.0}, \"20\": {\"Cs\": 1.0}, \"21\": {\"Sn\": 1.0}, \"22\": {\"I\": 1.0}, \"23\": {\"I\": 1.0}, \"24\": {\"I\": 1.0}, \"25\": {\"Cs\": 1.0}, \"26\": {\"Pb\": 1.0}, \"27\": {\"I\": 1.0}, \"28\": {\"I\": 1.0}, \"29\": {\"I\": 1.0}, \"30\": {\"Cs\": 1.0}, \"31\": {\"Sn\": 1.0}, \"32\": {\"I\": 1.0}, \"33\": {\"I\": 1.0}, \"34\": {\"I\": 1.0}, \"35\": {\"Cs\": 1.0}, \"36\": {\"Sn\": 1.0}, \"37\": {\"I\": 1.0}, \"38\": {\"I\": 1.0}, \"39\": {\"I\": 1.0}}" candidate_id=0fabbf2b535a3795 formula=CsPb0.43Sn0.57I3 config_index=1 rattle_stdev=0.08 method=PBE fidelity=phase2_force energy=-112.16885831959239 stress="-0.0018980439510489803 1.650597437865296e-05 1.9148214339915147e-05 1.650597437865296e-05 -0.0009488261603482883 -5.2259468945018765e-05 1.9148214339915147e-05 -5.2259468945018765e-05 -0.0023291114349691315" pbc="T T T"
Cs      12.53470458      12.52195792      -0.01508153        0      -0.01986246       0.02001233       0.02878046
Pb       3.05056598       3.06037420       3.10642253        1       0.20698230       0.20214384       0.28933727
I        3.26239633       3.30453788       0.07238248        2      -0.04822683      -0.01746454      -0.11033538
I        3.15589677      12.53166070       3.08443110        3       0.01444960       0.30009208       0.00110289
I       12.47300788       3.15000957       3.25182776        4       0.76279862       0.00071831       0.01658884
Cs      12.49081295      12.69189865       6.39220984        5       0.03641389       0.02359148      -0.04082607
Pb       3.18934251       3.12588498       9.52035417        6       0.05909115      -0.04136179      -0.10194561
I        3.04309677       3.13101507       6.40970684        7       0.03273246       0.02476412      -0.22455448
I        3.09930127      12.65547746       9.54885434        8      -0.01509647      -0.18868029       0.00808147
I       12.60386920       3.14384398       9.39615345        9       0.16908834       0.00782195       0.03104131
Cs      12.59420850       6.35167547      -0.03054814       10      -0.01142711      -0.01502462       0.02005848
Sn       2.98080832       9.49549009       3.03058857       11       0.54855002      -0.29158295      -0.11857801
I        3.21611704       9.46207104      -0.05035181       12      -0.05469793       0.02065926       0.05578416
I        3.02231616       6.36358255       3.03053094       13       0.00501647      -0.18097170       0.06302821
I       12.74124920       9.50865836       3.23086978       14      -0.60225436       0.01255670       0.02211846
Cs      12.69845791       6.35452655       6.44347741       15       0.01377752      -0.02885060      -0.02430632
Sn       3.22591209       9.41031232       9.29027168       16       0.24916293       0.14828777       0.19806988
I        3.16649977       9.43469049       6.28082164       17       0.00292799      -0.01369311      -0.02278312
I        3.18327938       6.35691900       9.54917535       18      -0.02026473       0.07384863      -0.04240683
I       12.64149560       9.47685534       9.46853000       19       0.21808992       0.02321659      -0.01735196
Cs       6.31933267      12.54835121       0.03430285       20       0.01724437       0.00800962       0.02402413
Sn       9.53121873       3.19821705       3.23984313       21      -0.45742015      -0.20780689      -0.51108028
I        9.51489424       3.08731396       0.19210063       22       0.04465025       0.01721535      -0.58404190
I        9.56659980      12.65090860       3.09917970       23      -0.01442990      -0.06884296       0.11021728
I        6.44200126       3.19762080       3.09075778       24      -0.50890038      -0.01435741       0.05185328
Cs       6.37675536      12.59464629       6.43086607       25      -0.02784017       0.00169452      -0.02910552
Pb       9.55604966       3.18391646       9.36907320       26      -0.23324128       0.24070106       0.24915008
I        9.38379849       3.26166226       6.20200857       27      -0.02180443      -0.02533049       0.69665979
I        9.44183209      12.63178329       9.47925925       28       0.02646444       0.11509016      -0.02790307
I        6.32872960       3.16121364       9.50675779       29      -0.00539784      -0.00113287      -0.00566960
Cs       6.22672537       6.26059982       0.03479237       30       0.01889791       0.00270716       0.02817853
Sn       9.41084959       9.40221266       3.05217096       31      -0.19517139       0.20108901       0.06755753
I        9.50958456       9.55084513       0.12133275       32       0.00022302      -0.02217772      -0.16757789
I        9.45806740       6.33225968       3.00788734       33       0.03310465       0.07378255       0.02324187
I        6.31441317       9.46050391       3.22993542       34       0.26466270      -0.00665864      -0.01089348
Cs       6.21979399       6.33979909       6.31734292       35       0.00095818      -0.00688141      -0.01646666
Sn       9.68358651       9.61116545       9.26243021       36      -0.40720670      -0.34462256       0.63893805
I        9.37035047       9.45696537       6.45132368       37       0.05716886       0.04809008      -0.63838625
I        9.52197768       6.39558252       9.35596906       38       0.01282122      -0.07728593       0.05630388
I        6.34193853       9.56208057       9.43241450       39      -0.15247214      -0.01707466       0.01290586
40
Lattice="12.63104270611979 0.0 0.0 0.0 12.62760418860079 0.0 0.0 8.491307492514424e-14 12.631042706119802" Properties=species:S:1:pos:R:3:spacegroup_kinds:I:1:forces:R:3 spacegroup="P 1" unit_cell=conventional occupancy="_JSON {\"0\": {\"Cs\": 1.0}, \"1\": {\"Pb\": 1.0}, \"2\": {\"I\": 1.0}, \"3\": {\"I\": 1.0}, \"4\": {\"I\": 1.0}, \"5\": {\"Cs\": 1.0}, \"6\": {\"Pb\": 1.0}, \"7\": {\"I\": 1.0}, \"8\": {\"I\": 1.0}, \"9\": {\"I\": 1.0}, \"10\": {\"Cs\": 1.0}, \"11\": {\"Sn\": 1.0}, \"12\": {\"I\": 1.0}, \"13\": {\"I\": 1.0}, \"14\": {\"I\": 1.0}, \"15\": {\"Cs\": 1.0}, \"16\": {\"Sn\": 1.0}, \"17\": {\"I\": 1.0}, \"18\": {\"I\": 1.0}, \"19\": {\"I\": 1.0}, \"20\": {\"Cs\": 1.0}, \"21\": {\"Sn\": 1.0}, \"22\": {\"I\": 1.0}, \"23\": {\"I\": 1.0}, \"24\": {\"I\": 1.0}, \"25\": {\"Cs\": 1.0}, \"26\": {\"Pb\": 1.0}, \"27\": {\"I\": 1.0}, \"28\": {\"I\": 1.0}, \"29\": {\"I\": 1.0}, \"30\": {\"Cs\": 1.0}, \"31\": {\"Sn\": 1.0}, \"32\": {\"I\": 1.0}, \"33\": {\"I\": 1.0}, \"34\": {\"I\": 1.0}, \"35\": {\"Cs\": 1.0}, \"36\": {\"Sn\": 1.0}, \"37\": {\"I\": 1.0}, \"38\": {\"I\": 1.0}, \"39\": {\"I\": 1.0}}" candidate_id=0fabbf2b535a3795 formula=CsPb0.43Sn0.57I3 config_index=2 rattle_stdev=0.08 method=PBE fidelity=phase2_force energy=-112.19366375907525 stress="-0.0010921776144314833 4.631805122780096e-05 2.0270714429988944e-05 4.631805122780096e-05 -0.0017911022114525052 -3.203858476340082e-05 2.0270714429988944e-05 -3.203858476340082e-05 -0.0009564582922147228" pbc="T T T"
Cs      12.61260325      12.50751802       0.15222457        0       0.01629550      -0.01062856      -0.04610727
Pb       3.04120201       3.13079538       3.05696896        1       0.50966545       0.22433863       0.18502965
I        3.18783000       3.08664926      -0.02194478        2      -0.02463135       0.02116897      -0.09181086
I        3.18149349      12.64441877       3.03224106        3      -0.01782782      -0.28434463       0.03422526
I       12.70730958       3.19641799       3.14730376        4      -0.59033780       0.01767767      -0.02547971
Cs      12.58937063      12.51575015       6.26870159        5      -0.01799284      -0.01873654       0.03928119
Pb       3.10032696       3.25461251       9.41110603        6       0.39696685       0.06061894       0.01636603
I        3.11067862       3.15229154       6.31583446        7       0.02645959      -0.08699665      -0.10578639
I        3.06310459      12.41729926       9.54626252        8      -0.00580508       0.82613128       0.00120801
I       12.65800308       3.10123953       9.29018028        9      -0.14845886      -0.00549854       0.02017377
Cs      12.55864097       6.26548181       0.01688706       10       0.02346070       0.02599586      -0.01316312
Sn       3.11542514       9.53312273       3.14169550       11       0.20375914      -0.22824041       0.04577573
I        3.11931199       9.38788217      -0.03855684       12       0.01316936      -0.02850844       0.32901828
I        3.22095189       6.31906066       3.33456350       13      -0.01735221       0.23757273      -0.06297872
I       12.51078984       9.45157535       3.17514793       14       0.48040904      -0.00915281       0.01908764
Cs      12.59342947       6.35463319       6.31463109       15       0.00008425       0.01707659       0.00828066
Sn       3.14199818       9.57845785       9.50089595       16      -0.08880580      -0.59122749      -0.10045681
I        3.20237223       9.42308033       6.37248602       17      -0.02558606       0.08080636      -0.28047038
I        3.26426089       6.34180500       9.43442157       18      -0.02063743      -0.26463671       0.03100164
I       12.71553393       9.26307455       9.48663628       19      -0.05017345       0.03225760      -0.00887147
Cs       6.40806054      12.44895723       0.07011369       20      -0.02007303       0.03172621      -0.01933332
Sn       9.43327300       2.96935759       3.14912726       21      -0.15849029       0.25049233       0.13200809
I        9.35305902       3.19600334       0.02780114       22       0.07137404       0.02606863      -0.09931746
I        9.55788263      12.54201002       3.15175339       23      -0.00178860       0.18414540      -0.00680698
I        6.37900438       3.32480681       3.13051764       24       0.10869642      -0.12303288      -0.00805000
Cs       6.28271136      12.49007379       6.32322686       25       0.02419159      -0.00084019       0.01238452
Pb       9.56338360       3.18902391       9.53452885       26      -0.37519844      -0.05612703      -0.15699491
I        9.36503183       3.20280973       6.22585496       27       0.04745157      -0.06472606       0.13359344
I        9.52489715      12.46796827       9.62526111       28       0.03387477       0.67053084       0.00348737
I        6.33892350       3.19689868       9.42315474       29       0.04528395      -0.05928827       0.00080113
Cs       6.24471303       6.28525833       0.02576464       30      -0.01730598      -0.02956351       0.00616054
Sn       9.51616939       9.38470334       2.98033230       31      -0.33651434      -0.21589253       0.42868744
I        9.52503645       9.44491628      -0.00557116       32       0.00626225      -0.03968589       0.04534105
I        9.29020829       6.32088733       3.23418578       33       0.09979818      -0.01633539      -0.06418912
I        6.36013438       9.63565734       3.16275751       34      -0.33817022       0.00969325      -0.04258905
Cs       6.32517116       6.31147884       6.33597754       35       0.00320859      -0.00773607      -0.00951674
Sn       9.40823275       9.46257854       9.50893909       36       0.13305898       0.08974596      -0.41934399
I        9.37127174       9.47932969       6.37546633       37       0.06383518       0.06977783      -0.05646689
I        9.46073386       6.48816601       9.35550096       38       0.04981324      -0.79174718       0.04646204
I        6.38646653       9.39923198       9.42936438       39      -0.10506013       0.05657935       0.07965000
40
Lattice="12.63104270611979 0.0 0.0 0.0 12.62760418860079 0.0 0.0 8.491307492514424e-14 12.631042706119802" Properties=species:S:1:pos:R:3:spacegroup_kinds:I:1:forces:R:3 spacegroup="P 1" unit_cell=conventional occupancy="_JSON {\"0\": {\"Cs\": 1.0}, \"1\": {\"Pb\": 1.0}, \"2\": {\"I\": 1.0}, \"3\": {\"I\": 1.0}, \"4\": {\"I\": 1.0}, \"5\": {\"Cs\": 1.0}, \"6\": {\"Pb\": 1.0}, \"7\": {\"I\": 1.0}, \"8\": {\"I\": 1.0}, \"9\": {\"I\": 1.0}, \"10\": {\"Cs\": 1.0}, \"11\": {\"Sn\": 1.0}, \"12\": {\"I\": 1.0}, \"13\": {\"I\": 1.0}, \"14\": {\"I\": 1.0}, \"15\": {\"Cs\": 1.0}, \"16\": {\"Sn\": 1.0}, \"17\": {\"I\": 1.0}, \"18\": {\"I\": 1.0}, \"19\": {\"I\": 1.0}, \"20\": {\"Cs\": 1.0}, \"21\": {\"Sn\": 1.0}, \"22\": {\"I\": 1.0}, \"23\": {\"I\": 1.0}, \"24\": {\"I\": 1.0}, \"25\": {\"Cs\": 1.0}, \"26\": {\"Pb\": 1.0}, \"27\": {\"I\": 1.0}, \"28\": {\"I\": 1.0}, \"29\": {\"I\": 1.0}, \"30\": {\"Cs\": 1.0}, \"31\": {\"Sn\": 1.0}, \"32\": {\"I\": 1.0}, \"33\": {\"I\": 1.0}, \"34\": {\"I\": 1.0}, \"35\": {\"Cs\": 1.0}, \"36\": {\"Sn\": 1.0}, \"37\": {\"I\": 1.0}, \"38\": {\"I\": 1.0}, \"39\": {\"I\": 1.0}}" candidate_id=0fabbf2b535a3795 formula=CsPb0.43Sn0.57I3 config_index=3 rattle_stdev=0.08 method=PBE fidelity=phase2_force energy=-111.98993305696004 stress="-0.0014903165378565598 7.647306762737035e-05 -2.8977898750819833e-06 7.647306762737035e-05 -0.0014409346998436087 5.9360002190406637e-05 -2.8977898750819833e-06 5.9360002190406637e-05 -0.0009837491502604511" pbc="T T T"
Cs      12.51593681      12.75498337       0.01322757        0       0.02623794       0.03485438       0.02644619
Pb       3.13874698       3.16363086       3.23452406        1      -0.24314843      -0.23016899      -0.72979122
I        3.10323280       3.19922668      -0.05594017        2       0.02409562      -0.00064821      -0.08344623
I        3.27015717      12.53037137       3.05328982        3       0.01820509       0.04326329       0.00935649
I       12.50470447       3.02722638       3.05536279        4       0.32973021       0.05418375       0.03163527
Cs      12.60367655      12.52559825       6.24563973        5      -0.03218208       0.00546418      -0.01961264
Pb       3.17881434       2.95248560       9.33965936        6      -0.04108036       0.32436419       0.45504117
I        3.10082186       2.96115900       6.20733328        7      -0.03520131      -0.03336816       0.43809096
I        3.21085048      12.43889193       9.41004925        8      -0.03341325       0.82462574       0.01443505
I       12.50479975       3.06173785       9.65461724        9       0.52166289       0.02305839      -0.00490589
Cs      12.58347806       6.41949627      -0.13497264       10       0.01882727      -0.05963219      -0.00710317
Sn       3.11846351       9.37474341       3.09334305       11       0.00566042       0.34353412      -0.02662361
I        3.27022617       9.45227789      -0.05543381       12      -0.04501386      -0.04543876       0.44045130
I        3.14475367       6.33875008       3.27889009       13      -0.01026768      -0.07782893       0.01584879
I       12.48300291       9.52338551       3.13023138       14       0.97516597      -0.06694258       0.01388459
Cs      12.56092444       6.36152525       6.25351566       15      -0.03458559       0.00572742       0.00760978
Sn       3.20197631       9.50131180       9.44357880       16      -0.09737043      -0.63033729       0.01061513
I        3.28401219       9.48804694       6.41078677       17      -0.01302610       0.01252977      -0.43519715
I        3.21627912       6.45412732       9.42685754       18      -0.01589431      -0.50986835      -0.03248368
I       12.62143362       9.34391395       9.46730472       19      -0.13327563       0.02785101       0.01075146
Cs       6.42084848      12.57240932      -0.04272155       20      -0.02908578       0.00638058       0.01043801
Sn       9.32155910       3.03367713       3.12633482       21       0.43167864       0.22854652       0.04724042
I        9.44012356       3.21378647       0.12345745       22      -0.05740297      -0.01601809      -0.38498243
I        9.66506893      12.59797286       3.07668998       23      -0.11725549      -0.18335248       0.01814181
I        6.35209228       3.22457922       3.19730940       24      -0.40488510      -0.03120113       0.02736178
Cs       6.34723483      12.63541041       6.33150827       25       0.01871366      -0.04108769      -0.00218423
Pb       9.49145294       3.12567381       9.41584062       26      -0.19081581      -0.04543275      -0.02881114
I        9.59681092       3.08786544       6.21475972       27      -0.00649062      -0.00982183       0.34493798
I        9.47998618      12.68268358       9.37893505       28      -0.02452030      -0.60259724       0.06053724
I        6.28967647       3.12302990       9.51802898       29      -0.19770051      -0.02647892      -0.03933014
Cs       6.27876419       6.35346294       0.07879882       30      -0.00422561      -0.02071574      -0.03050180
Sn       9.50647475       9.45260436       3.21820813       31      -0.15032038      -0.18478093       0.16344169
I        9.49129242       9.43552290       0.06056032       32       0.02308848      -0.00379218      -0.01963995
I        9.40159217       6.21589494       3.29715941       33       0.06801601       0.18271683      -0.00894604
I        6.55730137       9.41680512       3.09607874       34      -0.85082253       0.02912851       0.01036435
Cs       6.40938315       6.43942019       6.31574878       35       0.01740252       0.02808439       0.01603147
Sn       9.47428150       9.41474142       9.62338596       36       0.06995149       0.02466441      -0.23915921
I        9.43722936       9.44620440       6.42030673       37       0.00950515       0.01018655      -0.08600890
I        9.42099475       6.21173515       9.52171019       38      -0.01031481       0.59871487       0.00459865
I        6.27523783       9.48730232       9.56099420       39       0.21944446       0.00884077       0.00180932
