Cs Pb Br Cs Pb Br Cs Pb Br Cs Ge Br Cs Pb Br Cs Pb Br Cs Ge Br Cs Pb Br
 1.0000000000000000
    12.1400334834793604    0.0000000000000000    0.0000000000000000
     0.0000000000000000   12.1400334834793604    0.0000000000000000
     0.0000000000000000    0.0000000000000000   12.1400334834793604
 Cs  Pb  Br  Cs  Pb  Br  Cs  Pb  Br  Cs  Ge  Br  Cs  Pb  Br  Cs  Pb  Br  Cs  Ge  Br  Cs  Pb  Br 
   1   1   3   1   1   3   1   1   3   1   1   3   1   1   3   1   1   3   1   1   3   1   1   3
Cartesian
  0.0000000000000000  0.0000000000000000  0.0000000000000000
  3.0350083708698401  3.0350083708698401  3.0350083708698401
  3.0350083708698401  3.0350083708698401  0.0000000000000000
  3.0350083708698401  0.0000000000000000  3.0350083708698401
  0.0000000000000000  3.0350083708698401  3.0350083708698401
  0.0000000000000000  0.0000000000000000  6.0700167417396793
  3.0350083708698401  3.0350083708698401  9.1050251126095212
  3.0350083708698401  3.0350083708698401  6.0700167417396793
  3.0350083708698401  0.0000000000000000  9.1050251126095212
  0.0000000000000000  3.0350083708698401  9.1050251126095212
  0.0000000000000000  6.0700167417396793  0.0000000000000000
  3.0350083708698401  9.1050251126095212  3.0350083708698401
  3.0350083708698401  9.1050251126095212  0.0000000000000000
  3.0350083708698401  6.0700167417396793  3.0350083708698401
  0.0000000000000000  9.1050251126095212  3.0350083708698401
  0.0000000000000000  6.0700167417396793  6.0700167417396793
  3.0350083708698401  9.1050251126095212  9.1050251126095212
  3.0350083708698401  9.1050251126095212  6.0700167417396793
  3.0350083708698401  6.0700167417396793  9.1050251126095212
  0.0000000000000000  9.1050251126095212  9.1050251126095212
  6.0700167417396793  0.0000000000000000  0.0000000000000000
  9.1050251126095212  3.0350083708698401  3.0350083708698401
  9.1050251126095212  3.0350083708698401  0.0000000000000000
  9.1050251126095212  0.0000000000000000  3.0350083708698401
  6.0700167417396793  3.0350083708698401  3.0350083708698401
  6.0700167417396793  0.0000000000000000  6.0700167417396793
  9.1050251126095212  3.0350083708698401  9.1050251126095212
  9.1050251126095212  3.0350083708698401  6.0700167417396793
  9.1050251126095212  0.0000000000000000  9.1050251126095212
  6.0700167417396793  3.0350083708698401  9.1050251126095212
  6.0700167417396793  6.0700167417396793  0.0000000000000000
  9.1050251126095212  9.1050251126095212  3.0350083708698401
  9.1050251126095212  9.1050251126095212  0.0000000000000000
  9.1050251126095212  6.0700167417396793  3.0350083708698401
  6.0700167417396793  9.1050251126095212  3.0350083708698401
  6.0700167417396793  6.0700167417396793  6.0700167417396793
  9.1050251126095212  9.1050251126095212  9.1050251126095212
  9.1050251126095212  9.1050251126095212  6.0700167417396793
  9.1050251126095212  6.0700167417396793  9.1050251126095212
  6.0700167417396793  9.1050251126095212  9.1050251126095212
