Cs Sn I  Cs Sn I  Cs Sn I  Cs Sn I  Cs Sn I  Cs Sn I  Cs Ge I  Cs Sn I 
 1.0000000000000000
    13.2415644272117632    0.0000000000000000    0.0000000000000000
     0.0000000000000000   13.2415644272117632    0.0000000000000000
     0.0000000000000000    0.0000000000000000   13.2415644272117632
 Cs  Sn  I   Cs  Sn  I   Cs  Sn  I   Cs  Sn  I   Cs  Sn  I   Cs  Sn  I   Cs  Ge  I   Cs  Sn  I  
   1   1   3   1   1   3   1   1   3   1   1   3   1   1   3   1   1   3   1   1   3   1   1   3
Cartesian
  0.0000000000000000  0.0000000000000000  0.0000000000000000
  3.3103911068029399  3.3103911068029399  3.3103911068029399
  3.3103911068029399  3.3103911068029399  0.0000000000000000
  3.3103911068029399  0.0000000000000000  3.3103911068029399
  0.0000000000000000  3.3103911068029399  3.3103911068029399
  0.0000000000000000  0.0000000000000000  6.6207822136058807
  3.3103911068029399  3.3103911068029399  9.9311733204088224
  3.3103911068029399  3.3103911068029399  6.6207822136058807
  3.3103911068029399  0.0000000000000000  9.9311733204088224
  0.0000000000000000  3.3103911068029399  9.9311733204088224
  0.0000000000000000  6.6207822136058807  0.0000000000000000
  3.3103911068029399  9.9311733204088224  3.3103911068029399
  3.3103911068029399  9.9311733204088224  0.0000000000000000
  3.3103911068029399  6.6207822136058807  3.3103911068029399
  0.0000000000000000  9.9311733204088224  3.3103911068029399
  0.0000000000000000  6.6207822136058807  6.6207822136058807
  3.3103911068029399  9.9311733204088224  9.9311733204088224
  3.3103911068029399  9.9311733204088224  6.6207822136058807
  3.3103911068029399  6.6207822136058807  9.9311733204088224
  0.0000000000000000  9.9311733204088224  9.9311733204088224
  6.6207822136058807  0.0000000000000000  0.0000000000000000
  9.9311733204088224  3.3103911068029399  3.3103911068029399
  9.9311733204088224  3.3103911068029399  0.0000000000000000
  9.9311733204088224  0.0000000000000000  3.3103911068029399
  6.6207822136058807  3.3103911068029399  3.3103911068029399
  6.6207822136058807  0.0000000000000000  6.6207822136058807
  9.9311733204088224  3.3103911068029399  9.9311733204088224
  9.9311733204088224  3.3103911068029399  6.6207822136058807
  9.9311733204088224  0.0000000000000000  9.9311733204088224
  6.6207822136058807  3.3103911068029399  9.9311733204088224
  6.6207822136058807  6.6207822136058807  0.0000000000000000
  9.9311733204088224  9.9311733204088224  3.3103911068029399
  9.9311733204088224  9.9311733204088224  0.0000000000000000
  9.9311733204088224  6.6207822136058807  3.3103911068029399
  6.6207822136058807  9.9311733204088224  3.3103911068029399
  6.6207822136058807  6.6207822136058807  6.6207822136058807
  9.9311733204088224  9.9311733204088224  9.9311733204088224
  9.9311733204088224  9.9311733204088224  6.6207822136058807
  9.9311733204088224  6.6207822136058807  9.9311733204088224
  6.6207822136058807  9.9311733204088224  9.9311733204088224
