40
Lattice="11.767984160796347 0.0 0.0 0.016997935569379615 11.921021144296013 0.0 -0.0023774574997928255 0.021918195514758387 11.959315036984247" Properties=species:S:1:pos:R:3:spacegroup_kinds:I:1:forces:R:3 spacegroup="P 1" unit_cell=conventional occupancy="_JSON {\"0\": {\"Cs\": 1.0}, \"1\": {\"Sn\": 1.0}, \"2\": {\"I\": 1.0}, \"3\": {\"I\": 1.0}, \"4\": {\"Cl\": 1.0}, \"5\": {\"Cs\": 1.0}, \"6\": {\"Sn\": 1.0}, \"7\": {\"Cl\": 1.0}, \"8\": {\"Cl\": 1.0}, \"9\": {\"Cl\": 1.0}, \"10\": {\"Cs\": 1.0}, \"11\": {\"Sn\": 1.0}, \"12\": {\"Cl\": 1.0}, \"13\": {\"Cl\": 1.0}, \"14\": {\"I\": 1.0}, \"15\": {\"Cs\": 1.0}, \"16\": {\"Sn\": 1.0}, \"17\": {\"I\": 1.0}, \"18\": {\"Cl\": 1.0}, \"19\": {\"I\": 1.0}, \"20\": {\"Cs\": 1.0}, \"21\": {\"Sn\": 1.0}, \"22\": {\"Cl\": 1.0}, \"23\": {\"I\": 1.0}, \"24\": {\"Cl\": 1.0}, \"25\": {\"Cs\": 1.0}, \"26\": {\"Sn\": 1.0}, \"27\": {\"Cl\": 1.0}, \"28\": {\"I\": 1.0}, \"29\": {\"Cl\": 1.0}, \"30\": {\"Cs\": 1.0}, \"31\": {\"Sn\": 1.0}, \"32\": {\"I\": 1.0}, \"33\": {\"Cl\": 1.0}, \"34\": {\"Cl\": 1.0}, \"35\": {\"Cs\": 1.0}, \"36\": {\"Sn\": 1.0}, \"37\": {\"I\": 1.0}, \"38\": {\"Cl\": 1.0}, \"39\": {\"Cl\": 1.0}}" candidate_id=6eda888bf816c1b6 formula=CsSnCl0.62I0.383 config_index=0 rattle_stdev=0.0 method=PBE fidelity=phase2_force energy=-128.84820210513328 stress="0.0004465053806191058 0.00014330492273219254 4.73161481539362e-05 0.00014330492273219254 8.88191965304995e-05 3.8059833329415946e-05 4.73161481539362e-05 3.8059833329415946e-05 -0.0027850111553738535" pbc="T T T"
Cs      11.74935462       0.10629213      11.90709407        0      -0.01059131      -0.06614920       0.01059274
Sn       3.07692400       3.13255361       3.15746324        1      -0.10922088       0.01309731       0.08604761
I        2.94969548       3.02546900      11.89521935        2      -0.03380971      -0.01115424       0.09323675
I        3.03667622       0.05765406       2.99469498        3       0.00502431      -0.00172838       0.00706359
Cl      11.51648853       3.26668801       3.17562296        4       0.02295156       0.00015600      -0.03048551
Cs       0.08416324       0.18137539       6.04719352        5       0.02130064      -0.02830963       0.00125202
Sn       2.91021211       2.95163702       8.83401421        6       0.03391520       0.05309991      -0.10841598
Cl       2.97706050       3.13067911       5.92712572        7      -0.00397673      -0.00371478      -0.04374441
Cl       2.98925740       0.36640861       8.82799796        8       0.02268708      -0.03336645      -0.02693148
Cl       0.30021880       3.00694654       8.81415142        9      -0.05203545       0.00703028      -0.02170572
Cs      11.70933730       5.75497615       0.03556656       10      -0.00390207       0.08003282       0.03022815
Sn       3.10047863       8.68049427       2.75284664       11       0.06826028      -0.00613428       0.10567657
Cl       3.21531525       8.64241128       0.08283519       12       0.03011028       0.01309227       0.00262084
Cl       3.11898828       6.00078062       2.88406104       13      -0.00802152      -0.02477866      -0.00122447
I        0.07838247       8.78663585       2.88756335       14      -0.15055725      -0.04505439      -0.03152553
Cs       0.03696574       5.72933669       6.02891611       15      -0.00139084       0.03589649      -0.02731615
Sn       3.11159664       8.76796690       9.11470079       16       0.01454049       0.13748045      -0.04227318
I        3.10257075       8.87357433       6.06466894       17       0.03321732      -0.00131053      -0.04976268
Cl       3.09390206       6.22437695       9.07021443       18       0.00126620      -0.16807408       0.00230197
I        0.06893340       8.88682295       9.09080753       19      -0.04415698      -0.02131270       0.03178908
Cs       5.80842091       0.11775219      11.83856518       20       0.02026682      -0.06412635       0.00364355
Sn       8.89945479       3.13097730       3.12223938       21      -0.00869784       0.15821666      -0.06090848
Cl       8.73591483       3.21546435      11.65163773       22       0.05577329      -0.00018695       0.07023491
I        8.78122885       0.13465462       3.00226149       23       0.00146578      -0.16965504      -0.00246269
Cl       5.64928780       3.16476753       3.22718157       24       0.05605774       0.00036380       0.01873853
Cs       5.78165498       0.24218720       6.08368811       25      -0.01432231      -0.01907044      -0.01650124
Sn       8.74549955       3.12727058       9.07369043       26      -0.03781087       0.09685094      -0.10200488
Cl       8.82948454       3.21564986       5.69189595       27      -0.01426219       0.00235846       0.13169882
I        8.77324672       0.11001017       8.97755769       28      -0.00276500      -0.09166876      -0.00152465
Cl       6.13772236       3.09110812       8.97442356       29       0.01004947      -0.00910508      -0.03756665
Cs       5.89069931       5.80912331       0.00100217       30      -0.00270677       0.09098106       0.00754150
Sn       8.57203340       8.67998592       2.99114330       31       0.08367750       0.02972068      -0.00693180
I        8.69888272       8.83705107       0.00116091       32      -0.00824271       0.02442727       0.00380098
Cl       8.65551022       6.04722315       3.00859935       33      -0.01833435       0.00456106      -0.02722457
Cl       5.92880316       8.64868617       2.90156865       34       0.02807471      -0.03199715      -0.01248614
Cs       5.86868938       5.73828754       6.05873473       35      -0.00040478       0.04987128      -0.01262379
Sn       8.59886934       8.68821178       8.96955382       36       0.05687516       0.05351390       0.03761123
I        8.68109437       8.83154496       5.98308394       37      -0.00681662       0.00849144      -0.00662954
Cl       8.59384829       6.05075232       8.99637754       38       0.01649975      -0.07932406      -0.00846339
Cl       5.95924994       8.72091460       9.03917725       39      -0.05610162       0.01706908       0.02097437
40
Lattice="11.767984160796347 0.0 0.0 0.016997935569379615 11.921021144296013 0.0 -0.0023774574997928255 0.021918195514758387 11.959315036984247" Properties=species:S:1:pos:R:3:spacegroup_kinds:I:1:forces:R:3 spacegroup="P 1" unit_cell=conventional occupancy="_JSON {\"0\": {\"Cs\": 1.0}, \"1\": {\"Sn\": 1.0}, \"2\": {\"I\": 1.0}, \"3\": {\"I\": 1.0}, \"4\": {\"Cl\": 1.0}, \"5\": {\"Cs\": 1.0}, \"6\": {\"Sn\": 1.0}, \"7\": {\"Cl\": 1.0}, \"8\": {\"Cl\": 1.0}, \"9\": {\"Cl\": 1.0}, \"10\": {\"Cs\": 1.0}, \"11\": {\"Sn\": 1.0}, \"12\": {\"Cl\": 1.0}, \"13\": {\"Cl\": 1.0}, \"14\": {\"I\": 1.0}, \"15\": {\"Cs\": 1.0}, \"16\": {\"Sn\": 1.0}, \"17\": {\"I\": 1.0}, \"18\": {\"Cl\": 1.0}, \"19\": {\"I\": 1.0}, \"20\": {\"Cs\": 1.0}, \"21\": {\"Sn\": 1.0}, \"22\": {\"Cl\": 1.0}, \"23\": {\"I\": 1.0}, \"24\": {\"Cl\": 1.0}, \"25\": {\"Cs\": 1.0}, \"26\": {\"Sn\": 1.0}, \"27\": {\"Cl\": 1.0}, \"28\": {\"I\": 1.0}, \"29\": {\"Cl\": 1.0}, \"30\": {\"Cs\": 1.0}, \"31\": {\"Sn\": 1.0}, \"32\": {\"I\": 1.0}, \"33\": {\"Cl\": 1.0}, \"34\": {\"Cl\": 1.0}, \"35\": {\"Cs\": 1.0}, \"36\": {\"Sn\": 1.0}, \"37\": {\"I\": 1.0}, \"38\": {\"Cl\": 1.0}, \"39\": {\"Cl\": 1.0}}" candidate_id=6eda888bf816c1b6 formula=CsSnCl0.62I0.383 config_index=1 rattle_stdev=0.08 method=PBE fidelity=phase2_force energy=-127.75798189477962 stress="-0.0013796896039769565 0.0002810522640664881 -0.00015083841563198413 0.0002810522640664881 -0.0020657463002260188 -0.0003114114398831116 -0.00015083841563198413 -0.0003114114398831116 -0.006275168090496038" pbc="T T T"
Cs      11.66243891       0.03460692      11.88259012        0      -0.03207350       0.01306210       0.04111813
Sn       2.96972930       3.03602676       3.10612509        1       0.53126975       0.36917712       0.19663557
I        3.05433113       3.17310584      11.96154854        2      -0.19897662      -0.17558880       0.10663415
I        3.03481232       0.04096895       2.92136540        3       0.00498286      -0.03832241       0.03260637
Cl      11.43050913       3.25979653       3.26969004        4       0.98925083       0.05839295       0.06595384
Cs      -0.04664410       0.27963091       6.13330442        5       0.07244618       0.00765674      -0.05577072
Sn       2.94179394       2.92062095       8.88108635        6      -0.01660656       0.87587500      -0.33706066
Cl       2.86239660       3.10479314       6.02736449        7       0.05226822      -0.03621493      -0.08272661
Cl       2.93079799       0.48068741       8.90357027        8       0.04377109      -0.95108192      -0.02198322
Cl       0.27909858       2.99388948       8.73702284        9      -0.07603221       0.02904715       0.06672193
Cs      11.68192551       5.75888848      -0.00440400       10      -0.03982441       0.02542294       0.03477595
Sn       2.92352627       8.70528122       2.62567454       11       1.37957031      -0.32787210       0.04467716
Cl       3.27367162       8.63377918       0.03082147       12      -0.09830919       0.07218521      -0.03780050
Cl       2.98354376       5.97130270       2.75683130       13      -0.07081536       0.05280084       0.03244974
I        0.19682294       8.82459107       2.96067245       14      -1.39374748      -0.00671341       0.03088842
Cs       0.11380336       5.73610010       6.16629458       15       0.02049378      -0.00794385      -0.02765186
Sn       3.17974805       8.70757608       8.93169044       16       0.31237306       0.24009191       0.51652038
I        3.11130984       8.83756168       6.03163114       17       0.01508693      -0.02266051      -0.35855291
Cl       3.11942076       6.18108831       9.14610775       18      -0.00721472      -0.12534658      -0.13791914
I        0.08104820       8.89297514       9.08605550       19       0.09899448      -0.00933126      -0.00013845
Cs       5.80280981       0.07246026      11.86344561       20       0.05920463      -0.02714646       0.03323199
Sn       8.95739150       3.17229331       3.20432183       21      -0.93945028      -0.03873003      -1.14509170
Cl       8.77752704       3.14587726      11.77168294       22       0.15087686       0.05745177      -0.64664419
I        8.87454662       0.17400778       2.94368051       23       0.00356589      -0.26360803       0.12090330
Cl       5.70371229       3.20548728       3.16017867       24      -0.59428441      -0.05940693       0.06557480
Cs       5.83346657       0.24319036       6.20845524       25      -0.05419995       0.00746346      -0.09607746
Sn       8.82826718       3.15428599       8.96948160       26      -0.33247884       0.45320817       0.66738501
Cl       8.74000099       3.32041107       5.65043859       27      -0.01817234      -0.00155720       1.12668768
I        8.74179678       0.19344765       8.98353491       28       0.04748813      -0.36695072      -0.04963406
Cl       6.14487732       3.09542071       9.00789932       29       0.17112441      -0.00850552      -0.12469595
Cs       5.79248090       5.72195999       0.02637212       30       0.15899170       0.15466053       0.03062914
Sn       8.50960096       8.61149544       2.88555359       31      -0.03875272       0.31329622       0.60881251
I        8.73518525       8.91719306       0.11425968       32      -0.00990993       0.03262107      -0.72578401
Cl       8.64029558       6.04963199       2.85872602       33       0.00989636      -0.10480684      -0.06012094
Cl       5.91946101       8.63848695       2.97374339       34       0.18934190      -0.04634890      -0.03964458
Cs       5.76353960       5.73032348       6.06997872       35       0.01134365      -0.01113241      -0.03173277
Sn       8.80917382       8.82867408       8.75870200       36      -0.38499445      -0.33494880       2.04278035
I        8.57816281       8.81780719       6.12712024       37      -0.06048408       0.03931337      -1.88169306
Cl       8.64254395       6.05327436       8.87906457       38       0.10836884       0.10411464      -0.01565488
Cl       5.98400520       8.81229202       8.99830972       39      -0.07235575       0.04526866       0.00990835
40
Lattice="11.767984160796347 0.0 0.0 0.016997935569379615 11.921021144296013 0.0 -0.0023774574997928255 0.021918195514758387 11.959315036984247" Properties=species:S:1:pos:R:3:spacegroup_kinds:I:1:forces:R:3 spacegroup="P 1" unit_cell=conventional occupancy="_JSON {\"0\": {\"Cs\": 1.0}, \"1\": {\"Sn\": 1.0}, \"2\": {\"I\": 1.0}, \"3\": {\"I\": 1.0}, \"4\": {\"Cl\": 1.0}, \"5\": {\"Cs\": 1.0}, \"6\": {\"Sn\": 1.0}, \"7\": {\"Cl\": 1.0}, \"8\": {\"Cl\": 1.0}, \"9\": {\"Cl\": 1.0}, \"10\": {\"Cs\": 1.0}, \"11\": {\"Sn\": 1.0}, \"12\": {\"Cl\": 1.0}, \"13\": {\"Cl\": 1.0}, \"14\": {\"I\": 1.0}, \"15\": {\"Cs\": 1.0}, \"16\": {\"Sn\": 1.0}, \"17\": {\"I\": 1.0}, \"18\": {\"Cl\": 1.0}, \"19\": {\"I\": 1.0}, \"20\": {\"Cs\": 1.0}, \"21\": {\"Sn\": 1.0}, \"22\": {\"Cl\": 1.0}, \"23\": {\"I\": 1.0}, \"24\": {\"Cl\": 1.0}, \"25\": {\"Cs\": 1.0}, \"26\": {\"Sn\": 1.0}, \"27\": {\"Cl\": 1.0}, \"28\": {\"I\": 1.0}, \"29\": {\"Cl\": 1.0}, \"30\": {\"Cs\": 1.0}, \"31\": {\"Sn\": 1.0}, \"32\": {\"I\": 1.0}, \"33\": {\"Cl\": 1.0}, \"34\": {\"Cl\": 1.0}, \"35\": {\"Cs\": 1.0}, \"36\": {\"Sn\": 1.0}, \"37\": {\"I\": 1.0}, \"38\": {\"Cl\": 1.0}, \"39\": {\"Cl\": 1.0}}" candidate_id=6eda888bf816c1b6 formula=CsSnCl0.62I0.383 config_index=2 rattle_stdev=0.08 method=PBE fidelity=phase2_force energy=-128.12311111937905 stress="0.000750333268253515 0.0004764348637364679 0.0001007702533596646 0.0004764348637364679 0.0007781536699363816 0.00018514797231335156 0.0001007702533596646 0.00018514797231335156 -0.0036638126829380184" pbc="T T T"
Cs      11.74033758       0.02016701      12.04989622        0       0.07044894      -0.06311858      -0.08775322
Sn       2.96036533       3.10644794       3.05667152        1       0.20285143       0.62856493       0.30593469
I        2.97976480       2.95521721      11.86722129        2      -0.10335604       0.06028476       0.07017084
I        3.06040904       0.15372702       2.86917536        3      -0.00160447      -0.70366584       0.06695542
Cl      11.66481083       3.30620496       3.16516605        4      -0.37563321      -0.09467393      -0.05745839
Cs       0.05191358       0.10348241       6.00979618        5       0.06585810      -0.02747122       0.08225154
Sn       2.85277839       3.04934848       8.77183821        6       0.50354575      -0.35121514      -0.18136088
Cl       2.92997845       3.12606960       5.93349211        7      -0.01265188      -0.06613193      -0.03917390
Cl       2.89460132       0.24250921       8.90097846        8       0.06444210       0.28833670      -0.07918448
Cl       0.33323246       2.95128502       8.63104967        9      -0.43788099       0.09626328       0.05167471
Cs      11.64635797       5.67269482       0.04303121       10       0.07054762       0.07414417       0.05540586
Sn       3.05814310       8.74291386       2.73678146       11       0.21112864      -0.37251583       0.15263225
Cl       3.17686656       8.55959031       0.04261644       12       0.02447819       0.01838602       0.30751731
Cl       3.18217950       5.92678081       3.06086386       13      -0.10775116       0.46812580      -0.10876687
I       -0.03363642       8.76750806       2.90495060       14       0.38416839      -0.04176176      -0.01544554
Cs       0.00877492       5.73620673       6.03744827       15       0.01758938       0.02700370      -0.05809768
Sn       3.09583414       8.87572161       9.14231471       16       0.03741313      -0.26439389      -0.10530152
I        3.14718230       8.82595152       6.12329552       17      -0.01639926       0.09190511      -0.33594729
Cl       3.20040227       6.16597431       9.03135397       18      -0.02889048       0.08173861       0.04953723
I        0.15508653       8.67919435       9.10416179       19      -0.21341067       0.00934659       0.05308503
Cs       5.89153768      -0.02693372      11.89925645       20      -0.06721747       0.00383904      -0.04142831
Sn       8.85944577       2.94343385       3.11360597       21       0.07882271       0.88297610       0.13478138
Cl       8.61569182       3.25456664      11.60738345       22       0.11260877       0.05741387       0.58743497
I        8.86582945       0.06510919       2.99625420       23       0.00017067      -0.34614886       0.04705512
Cl       5.64071540       3.33267329       3.19993853       24       0.05075513      -0.21588669      -0.06463142
Cs       5.73942257       0.13861786       6.10081603       25      -0.02597597       0.01093486       0.03958035
Sn       8.83560112       3.15939345       9.13493725       26      -0.57337152      -0.18870233      -0.65627893
Cl       8.72123434       3.26155854       5.67428498       27       0.08450794      -0.17493845      -0.06987465
I        8.82486184       0.02963262       9.12953678       28       0.02724807       0.41580458      -0.02089539
Cl       6.15507122       3.13110575       8.92429627       29       0.35982972      -0.03383317      -0.02830957
Cs       5.81046857       5.74661850       0.01734439       30      -0.05390533       0.04732607       0.01961789
Sn       8.61492076       8.59398613       2.81371492       31      -0.24961940      -0.02236418       1.11273775
I        8.75063714       8.81126421      -0.01264422       32       0.00769900      -0.02852271      -0.06227253
Cl       8.47243647       6.03825964       3.08502446       33       0.04858208      -0.12947721      -0.17277658
Cl       5.96518222       8.81364037       2.90656549       34      -0.29722394       0.05230317      -0.13831484
Cs       5.86891677       5.70200323       6.08861333       35      -0.03490575       0.02295974      -0.04498759
Sn       8.53382006       8.68008718       9.00521088       36       0.51071854       0.34463581      -0.60925138
I        8.57908408       8.84017151       6.05126289       37       0.05228402       0.09773012      -0.36371854
Cl       8.58130013       6.14585786       8.87859647       38       0.07337834      -0.72176504       0.07439879
Cl       6.02853321       8.64944343       8.99525961       39      -0.46493518       0.06697433       0.12851517
40
Lattice="11.767984160796347 0.0 0.0 0.016997935569379615 11.921021144296013 0.0 -0.0023774574997928255 0.021918195514758387 11.959315036984247" Properties=species:S:1:pos:R:3:spacegroup_kinds:I:1:forces:R:3 spacegroup="P 1" unit_cell=conventional occupancy="_JSON {\"0\": {\"Cs\": 1.0}, \"1\": {\"Sn\": 1.0}, \"2\": {\"I\": 1.0}, \"3\": {\"I\": 1.0}, \"4\": {\"Cl\": 1.0}, \"5\": {\"Cs\": 1.0}, \"6\": {\"Sn\": 1.0}, \"7\": {\"Cl\": 1.0}, \"8\": {\"Cl\": 1.0}, \"9\": {\"Cl\": 1.0}, \"10\": {\"Cs\": 1.0}, \"11\": {\"Sn\": 1.0}, \"12\": {\"Cl\": 1.0}, \"13\": {\"Cl\": 1.0}, \"14\": {\"I\": 1.0}, \"15\": {\"Cs\": 1.0}, \"16\": {\"Sn\": 1.0}, \"17\": {\"I\": 1.0}, \"18\": {\"Cl\": 1.0}, \"19\": {\"I\": 1.0}, \"20\": {\"Cs\": 1.0}, \"21\": {\"Sn\": 1.0}, \"22\": {\"Cl\": 1.0}, \"23\": {\"I\": 1.0}, \"24\": {\"Cl\": 1.0}, \"25\": {\"Cs\": 1.0}, \"26\": {\"Sn\": 1.0}, \"27\": {\"Cl\": 1.0}, \"28\": {\"I\": 1.0}, \"29\": {\"Cl\": 1.0}, \"30\": {\"Cs\": 1.0}, \"31\": {\"Sn\": 1.0}, \"32\": {\"I\": 1.0}, \"33\": {\"Cl\": 1.0}, \"34\": {\"Cl\": 1.0}, \"35\": {\"Cs\": 1.0}, \"36\": {\"Sn\": 1.0}, \"37\": {\"I\": 1.0}, \"38\": {\"Cl\": 1.0}, \"39\": {\"Cl\": 1.0}}" candidate_id=6eda888bf816c1b6 formula=CsSnCl0.62I0.383 config_index=3 rattle_stdev=0.08 method=PBE fidelity=phase2_force energy=-128.11740901738608 stress="-0.00010691399475155422 0.00011268334765452525 -0.000130524852542058 0.00011268334765452525 -0.0018718203157570004 0.0002806177079814289 -0.000130524852542058 0.0002806177079814289 -0.0032941068787670355" pbc="T T T"
Cs      11.64367114       0.26763236      11.91089922        0       0.04537302       0.04403915       0.00950069
Sn       3.05791030       3.13928342       3.23422662        1      -0.31886941      -0.24576942      -0.63749821
I        2.89516760       3.06779463      11.83322589        2       0.06138085      -0.04609950      -0.09904711
I        3.14907272       0.03967963       2.89022412        3       0.01496598      -0.11853403       0.03401582
Cl      11.46220571       3.13701335       3.07322508        4      -0.15976261       0.05803733      -0.05304432
Cs       0.06621950       0.11333051       5.98673431        5      -0.00970868      -0.00546347      -0.03870627
Sn       2.93126577       2.74722158       8.70039154        6      -0.26488445       0.74258963       0.58894307
Cl       2.92012169       2.93493706       5.82499093        7      -0.03630016      -0.01145713       0.33749206
Cl       3.04234721       0.26410189       8.76476519        8       0.01493421      -0.34781656      -0.03408772
Cl       0.18002914       2.91178334       8.99548663        9       0.30581076      -0.05154044      -0.18705692
Cs      11.67119507       5.82670927      -0.10882850       10      -0.01040784      -0.08913287       0.02969540
Sn       3.06118146       8.58453455       2.68842901       11      -0.08115950       0.32303348       0.10266324
Cl       3.32778074       8.62398602       0.02573947       12      -0.03048684      -0.06776513       0.42306791
Cl       3.10598128       5.94647023       3.00519045       13      -0.02506574       0.12833317      -0.00089732
I       -0.06142335       8.83931822       2.86003404       14       0.88763142      -0.11627043      -0.03809652
Cs      -0.02373011       5.74309879       5.97633283       15      -0.05881892      -0.00642937      -0.04687211
Sn       3.15581227       8.79857556       9.08499756       16      -0.08532624       0.05947931       0.22736767
I        3.22882226       8.89091813       6.16159627       17       0.00087835       0.04929269      -0.65668300
Cl       3.15242050       6.27829664       9.02378994       18       0.01726167      -0.31646722      -0.00239223
I        0.06098623       8.76003375       9.08483022       19      -0.17136218       0.02259640      -0.00724635
Cs       5.90432562       0.09651837      11.78642121       20      -0.04175370       0.01362359       0.01616063
Sn       8.74773187       3.00775339       3.09081352       21       0.46128210       0.71388550      -0.10125651
Cl       8.70275636       3.27234977      11.70303976       22       0.07743726      -0.12381769      -0.19800323
I        8.97301576       0.12107203       2.92119080       23      -0.11597141      -0.62923267       0.02965863
Cl       5.61380330       3.23244571       3.26673029       24       0.17960754      -0.02094656       0.09194033
Cs       5.80394604       0.28395448       6.10909744       25       0.00654130      -0.04210099      -0.05798777
Sn       8.76367046       3.09604334       9.01624902       26      -0.03886751       0.64828557       0.28145846
Cl       8.95301343       3.14661425       5.66318974       27      -0.12379163      -0.06367893       0.24181100
I        8.77995087       0.24434793       8.88321072       28       0.00287892      -1.12306062       0.03003616
Cl       6.10582419       3.05723698       9.01917050       29      -0.11548553      -0.06764335      -0.13442277
Cs       5.84451973       5.81482310       0.07037858       30       0.03026508      -0.01371521      -0.04634336
Sn       8.60522612       8.66188714       3.05159075       31       0.51504196      -0.29172911       0.30107496
I        8.71689311       8.80187083       0.05348725       32       0.02902129       0.06292548       0.18994217
Cl       8.58382035       5.93326726       3.14799808       33       0.04976248       0.31439988      -0.02939564
Cl       6.16234921       8.59478815       2.83988671       34      -1.26450736      -0.00720768      -0.02595380
Cs       5.95312876       5.82994458       6.06838458       35       0.02442062       0.00147313       0.00843003
Sn       8.59986881       8.63225006       9.11965775       36       0.07549978      -0.18513440      -0.42800360
I        8.64504169       8.80704622       6.09610329       37      -0.00657418       0.06530359      -0.15356899
Cl       8.54156101       5.86942699       9.04480570       38       0.01062037       0.71358457      -0.01505484
Cl       5.91730450       8.73751378       9.12688942       39       0.15033935       0.03762380       0.05145693
