Cs Sn I  Br Cs Sn Cl I  Cs Sn Cl I  Cs Sn I  Cl I  Cs Sn Br I  Cl Cs Sn Br I  Cl Cs Sn I  Cl Cs Sn I  Cl
 1.0000000000000000
    12.6989306833292055    0.0000000000000000    0.0000000000000000
     0.0000000000000000   12.6989306833292055    0.0000000000000000
     0.0000000000000000    0.0000000000000000   12.6989306833292055
 Cs  Sn  I   Br  Cs  Sn  Cl  I   Cs  Sn  Cl  I   Cs  Sn  I   Cl  I   Cs  Sn  Br  I   Cl  Cs  Sn  Br  I   Cl  Cs  Sn  I   Cl  Cs  Sn  I   Cl 
   1   1   2   1   1   1   2   1   1   1   2   1   1   1   1   1   1   1   1   1   1   1   1   1   1   1   1   1   1   1   2   1   1   1   2
Cartesian
  0.0000000000000000  0.0000000000000000  0.0000000000000000
  3.1747326708323005  3.1747326708323005  3.1747326708323005
  3.1747326708323005  3.1747326708323005  0.0000000000000000
  3.1747326708323005  0.0000000000000000  3.1747326708323005
  0.0000000000000000  3.1747326708323005  3.1747326708323005
  0.0000000000000000  0.0000000000000000  6.3494653416646019
  3.1747326708323005  3.1747326708323005  9.5241980124969032
  3.1747326708323005  3.1747326708323005  6.3494653416646019
  3.1747326708323005  0.0000000000000000  9.5241980124969032
  0.0000000000000000  3.1747326708323005  9.5241980124969032
  0.0000000000000000  6.3494653416646019  0.0000000000000000
  3.1747326708323005  9.5241980124969032  3.1747326708323005
  3.1747326708323005  9.5241980124969032  0.0000000000000000
  3.1747326708323005  6.3494653416646019  3.1747326708323005
  0.0000000000000000  9.5241980124969032  3.1747326708323005
  0.0000000000000000  6.3494653416646019  6.3494653416646019
  3.1747326708323005  9.5241980124969032  9.5241980124969032
  3.1747326708323005  9.5241980124969032  6.3494653416646019
  3.1747326708323005  6.3494653416646019  9.5241980124969032
  0.0000000000000000  9.5241980124969032  9.5241980124969032
  6.3494653416646019  0.0000000000000000  0.0000000000000000
  9.5241980124969032  3.1747326708323005  3.1747326708323005
  9.5241980124969032  3.1747326708323005  0.0000000000000000
  9.5241980124969032  0.0000000000000000  3.1747326708323005
  6.3494653416646019  3.1747326708323005  3.1747326708323005
  6.3494653416646019  0.0000000000000000  6.3494653416646019
  9.5241980124969032  3.1747326708323005  9.5241980124969032
  9.5241980124969032  3.1747326708323005  6.3494653416646019
  9.5241980124969032  0.0000000000000000  9.5241980124969032
  6.3494653416646019  3.1747326708323005  9.5241980124969032
  6.3494653416646019  6.3494653416646019  0.0000000000000000
  9.5241980124969032  9.5241980124969032  3.1747326708323005
  9.5241980124969032  9.5241980124969032  0.0000000000000000
  9.5241980124969032  6.3494653416646019  3.1747326708323005
  6.3494653416646019  9.5241980124969032  3.1747326708323005
  6.3494653416646019  6.3494653416646019  6.3494653416646019
  9.5241980124969032  9.5241980124969032  9.5241980124969032
  9.5241980124969032  9.5241980124969032  6.3494653416646019
  9.5241980124969032  6.3494653416646019  9.5241980124969032
  6.3494653416646019  9.5241980124969032  9.5241980124969032
