Cs Pb I  Cs Pb I  Cs Pb I  Cs Sn I  Cs Sn I  Cs Pb I  Cs Sn I  Cs Pb I 
 1.0000000000000000
    13.5450546576970279    0.0000000000000000    0.0000000000000000
     0.0000000000000000   13.5450546576970279    0.0000000000000000
     0.0000000000000000    0.0000000000000000   13.5450546576970279
 Cs  Pb  I   Cs  Pb  I   Cs  Pb  I   Cs  Sn  I   Cs  Sn  I   Cs  Pb  I   Cs  Sn  I   Cs  Pb  I  
   1   1   3   1   1   3   1   1   3   1   1   3   1   1   3   1   1   3   1   1   3   1   1   3
Cartesian
  0.0000000000000000  0.0000000000000000  0.0000000000000000
  3.3862636644242570  3.3862636644242570  3.3862636644242570
  3.3862636644242570  3.3862636644242570  0.0000000000000000
  3.3862636644242570  0.0000000000000000  3.3862636644242570
  0.0000000000000000  3.3862636644242570  3.3862636644242570
  0.0000000000000000  0.0000000000000000  6.7725273288485131
  3.3862636644242570  3.3862636644242570 10.1587909932727705
  3.3862636644242570  3.3862636644242570  6.7725273288485131
  3.3862636644242570  0.0000000000000000 10.1587909932727705
  0.0000000000000000  3.3862636644242570 10.1587909932727705
  0.0000000000000000  6.7725273288485131  0.0000000000000000
  3.3862636644242570 10.1587909932727705  3.3862636644242570
  3.3862636644242570 10.1587909932727705  0.0000000000000000
  3.3862636644242570  6.7725273288485131  3.3862636644242570
  0.0000000000000000 10.1587909932727705  3.3862636644242570
  0.0000000000000000  6.7725273288485131  6.7725273288485131
  3.3862636644242570 10.1587909932727705 10.1587909932727705
  3.3862636644242570 10.1587909932727705  6.7725273288485131
  3.3862636644242570  6.7725273288485131 10.1587909932727705
  0.0000000000000000 10.1587909932727705 10.1587909932727705
  6.7725273288485131  0.0000000000000000  0.0000000000000000
 10.1587909932727705  3.3862636644242570  3.3862636644242570
 10.1587909932727705  3.3862636644242570  0.0000000000000000
 10.1587909932727705  0.0000000000000000  3.3862636644242570
  6.7725273288485131  3.3862636644242570  3.3862636644242570
  6.7725273288485131  0.0000000000000000  6.7725273288485131
 10.1587909932727705  3.3862636644242570 10.1587909932727705
 10.1587909932727705  3.3862636644242570  6.7725273288485131
 10.1587909932727705  0.0000000000000000 10.1587909932727705
  6.7725273288485131  3.3862636644242570 10.1587909932727705
  6.7725273288485131  6.7725273288485131  0.0000000000000000
 10.1587909932727705 10.1587909932727705  3.3862636644242570
 10.1587909932727705 10.1587909932727705  0.0000000000000000
 10.1587909932727705  6.7725273288485131  3.3862636644242570
  6.7725273288485131 10.1587909932727705  3.3862636644242570
  6.7725273288485131  6.7725273288485131  6.7725273288485131
 10.1587909932727705 10.1587909932727705 10.1587909932727705
 10.1587909932727705 10.1587909932727705  6.7725273288485131
 10.1587909932727705  6.7725273288485131 10.1587909932727705
  6.7725273288485131 10.1587909932727705 10.1587909932727705
