Cs Pb I  Cs Pb I  Cs Ge I  Cs Ge I  Cs Ge I  Cs Pb I  Cs Ge I  Cs Ge I 
 1.0000000000000000
    12.3469329276545441    0.0000000000000000    0.0000000000000000
     0.0000000000000000   12.3469329276545441    0.0000000000000000
     0.0000000000000000    0.0000000000000000   12.3469329276545441
 Cs  Pb  I   Cs  Pb  I   Cs  Ge  I   Cs  Ge  I   Cs  Ge  I   Cs  Pb  I   Cs  Ge  I   Cs  Ge  I  
   1   1   3   1   1   3   1   1   3   1   1   3   1   1   3   1   1   3   1   1   3   1   1   3
Cartesian
  0.0000000000000000  0.0000000000000000  0.0000000000000000
  3.0867332319136360  3.0867332319136360  3.0867332319136360
  3.0867332319136360  3.0867332319136360  0.0000000000000000
  3.0867332319136360  0.0000000000000000  3.0867332319136360
  0.0000000000000000  3.0867332319136360  3.0867332319136360
  0.0000000000000000  0.0000000000000000  6.1734664638272712
  3.0867332319136360  3.0867332319136360  9.2601996957409103
  3.0867332319136360  3.0867332319136360  6.1734664638272712
  3.0867332319136360  0.0000000000000000  9.2601996957409103
  0.0000000000000000  3.0867332319136360  9.2601996957409103
  0.0000000000000000  6.1734664638272712  0.0000000000000000
  3.0867332319136360  9.2601996957409103  3.0867332319136360
  3.0867332319136360  9.2601996957409103  0.0000000000000000
  3.0867332319136360  6.1734664638272712  3.0867332319136360
  0.0000000000000000  9.2601996957409103  3.0867332319136360
  0.0000000000000000  6.1734664638272712  6.1734664638272712
  3.0867332319136360  9.2601996957409103  9.2601996957409103
  3.0867332319136360  9.2601996957409103  6.1734664638272712
  3.0867332319136360  6.1734664638272712  9.2601996957409103
  0.0000000000000000  9.2601996957409103  9.2601996957409103
  6.1734664638272712  0.0000000000000000  0.0000000000000000
  9.2601996957409103  3.0867332319136360  3.0867332319136360
  9.2601996957409103  3.0867332319136360  0.0000000000000000
  9.2601996957409103  0.0000000000000000  3.0867332319136360
  6.1734664638272712  3.0867332319136360  3.0867332319136360
  6.1734664638272712  0.0000000000000000  6.1734664638272712
  9.2601996957409103  3.0867332319136360  9.2601996957409103
  9.2601996957409103  3.0867332319136360  6.1734664638272712
  9.2601996957409103  0.0000000000000000  9.2601996957409103
  6.1734664638272712  3.0867332319136360  9.2601996957409103
  6.1734664638272712  6.1734664638272712  0.0000000000000000
  9.2601996957409103  9.2601996957409103  3.0867332319136360
  9.2601996957409103  9.2601996957409103  0.0000000000000000
  9.2601996957409103  6.1734664638272712  3.0867332319136360
  6.1734664638272712  9.2601996957409103  3.0867332319136360
  6.1734664638272712  6.1734664638272712  6.1734664638272712
  9.2601996957409103  9.2601996957409103  9.2601996957409103
  9.2601996957409103  9.2601996957409103  6.1734664638272712
  9.2601996957409103  6.1734664638272712  9.2601996957409103
  6.1734664638272712  9.2601996957409103  9.2601996957409103
