40
Lattice="12.017567072271282 0.0 0.0 0.0 12.026600014229793 0.0 0.0 0.0 12.017567072271389" Properties=species:S:1:pos:R:3:spacegroup_kinds:I:1:forces:R:3 spacegroup="P 1" unit_cell=conventional occupancy="_JSON {\"0\": {\"K\": 1.0}, \"1\": {\"Sn\": 1.0}, \"2\": {\"I\": 1.0}, \"3\": {\"I\": 1.0}, \"4\": {\"I\": 1.0}, \"5\": {\"K\": 1.0}, \"6\": {\"Sn\": 1.0}, \"7\": {\"I\": 1.0}, \"8\": {\"I\": 1.0}, \"9\": {\"I\": 1.0}, \"10\": {\"K\": 1.0}, \"11\": {\"Ge\": 1.0}, \"12\": {\"I\": 1.0}, \"13\": {\"I\": 1.0}, \"14\": {\"I\": 1.0}, \"15\": {\"K\": 1.0}, \"16\": {\"Ge\": 1.0}, \"17\": {\"I\": 1.0}, \"18\": {\"I\": 1.0}, \"19\": {\"I\": 1.0}, \"20\": {\"K\": 1.0}, \"21\": {\"Ge\": 1.0}, \"22\": {\"I\": 1.0}, \"23\": {\"I\": 1.0}, \"24\": {\"I\": 1.0}, \"25\": {\"K\": 1.0}, \"26\": {\"Sn\": 1.0}, \"27\": {\"I\": 1.0}, \"28\": {\"I\": 1.0}, \"29\": {\"I\": 1.0}, \"30\": {\"K\": 1.0}, \"31\": {\"Ge\": 1.0}, \"32\": {\"I\": 1.0}, \"33\": {\"I\": 1.0}, \"34\": {\"I\": 1.0}, \"35\": {\"K\": 1.0}, \"36\": {\"Ge\": 1.0}, \"37\": {\"I\": 1.0}, \"38\": {\"I\": 1.0}, \"39\": {\"I\": 1.0}}" candidate_id=24ae51259417c9ad formula=KGe0.59Sn0.41I3 config_index=0 rattle_stdev=0.0 method=PBE fidelity=phase2_force energy=-110.7053000925451 stress="-0.0024992857856112314 -8.471428449587639e-16 1.5993349663494105e-09 -8.471428449587639e-16 -0.0023501058508437916 8.471428449587562e-16 1.5993349663494105e-09 8.471428449587562e-16 -0.0024992857856111876" pbc="T T T"
K       11.92877631      11.77703435       0.08879076        0       0.00140209      -0.00109078      -0.00140209
Sn       3.00439177       3.00665000       3.00439177        1      -0.00000000      -0.00000000      -0.00000000
I        3.00439177       3.00665000      12.01422992        2       0.00000023      -0.00000000       0.04084253
I        3.00439177      11.93833060       3.00439177        3       0.00000000       0.05122866       0.00000000
I       11.93077187       3.00665000       3.00439177        4       0.09893299       0.00000000      -0.00000003
K       11.92877631      11.77703435       5.91999278        5       0.00140211      -0.00109091       0.00140211
Sn       3.00439177       3.00665000       9.01317530        6      -0.00000000       0.00000000       0.00000000
I        3.00439177       3.00665000       6.01212069        7      -0.00000023      -0.00000000      -0.04084253
I        3.00439177      11.94233531       9.01317530        8      -0.00000000       0.02442846       0.00000000
I        0.00333715       3.00665000       9.01317530        9      -0.04084253      -0.00000000      -0.00000023
K       11.92877631       6.26286567       0.08879076       10       0.00140209       0.00109078      -0.00140209
Ge       3.00439177       9.01995001       3.00439177       11       0.00000000       0.00000000      -0.00000000
I        3.00439177       9.01995001       0.00333757       12      -0.00000005       0.00000000       0.00679323
I        3.00439177       6.10156943       3.00439177       13      -0.00000000      -0.05122866      -0.00000000
I       12.01508304       9.01995001       3.00439177       14      -0.02554226      -0.00000000       0.00000005
K       11.92877631       6.26286567       5.91999278       15       0.00140211       0.00109091       0.00140211
Ge       3.00439177       9.01995001       9.01317530       16      -0.00000000       0.00000000       0.00000000
I        3.00439177       9.01995001       6.00544597       17       0.00000005       0.00000000      -0.00679323
I        3.00439177       6.09756471       9.01317530       18      -0.00000000      -0.02442846       0.00000000
I       12.01422950       9.01995001       9.01317530       19      -0.00679323       0.00000000       0.00000005
K        6.09757430      11.77703435       0.08879076       20      -0.00140211      -0.00109091      -0.00140211
Ge       9.01317530       3.00665000       3.00439177       21      -0.00000000      -0.00000000       0.00000000
I        9.01317530       3.00665000       0.08679520       22       0.00000003       0.00000000      -0.09893299
I        9.01317530      12.01811696       3.00439177       23      -0.00000000      -0.06028831       0.00000000
I        6.09557874       3.00665000       3.00439177       24      -0.09893299       0.00000000       0.00000003
K        6.09757430      11.77703435       5.91999278       25      -0.00140209      -0.00109078       0.00140209
Sn       9.01317530       3.00665000       9.01317530       26       0.00000000      -0.00000000       0.00000000
I        9.01317530       3.00665000       5.92198834       27      -0.00000003       0.00000000       0.09893299
I        9.01317530      11.93833060       9.01317530       28      -0.00000000       0.05122866      -0.00000000
I        6.00544639       3.00665000       9.01317530       29       0.04084253      -0.00000000       0.00000023
K        6.09757430       6.26286567       0.08879076       30      -0.00140211       0.00109091      -0.00140211
Ge       9.01317530       9.01995001       3.00439177       31       0.00000000      -0.00000000      -0.00000000
I        9.01317530       9.01995001       0.00248403       32      -0.00000005      -0.00000000       0.02554226
I        9.01317530       6.02178307       3.00439177       33      -0.00000000       0.06028831       0.00000000
I        6.01126757       9.01995001       3.00439177       34       0.02554226      -0.00000000      -0.00000005
K        6.09757430       6.26286567       5.91999278       35      -0.00140209       0.00109078       0.00140209
Ge       9.01317530       9.01995001       9.01317530       36       0.00000000       0.00000000      -0.00000000
I        9.01317530       9.01995001       6.00629950       37       0.00000005      -0.00000000      -0.02554226
I        9.01317530       6.10156943       9.01317530       38       0.00000000      -0.05122866       0.00000000
I        6.01212110       9.01995001       9.01317530       39       0.00679323       0.00000000      -0.00000005
40
Lattice="12.017567072271282 0.0 0.0 0.0 12.026600014229793 0.0 0.0 0.0 12.017567072271389" Properties=species:S:1:pos:R:3:spacegroup_kinds:I:1:forces:R:3 spacegroup="P 1" unit_cell=conventional occupancy="_JSON {\"0\": {\"K\": 1.0}, \"1\": {\"Sn\": 1.0}, \"2\": {\"I\": 1.0}, \"3\": {\"I\": 1.0}, \"4\": {\"I\": 1.0}, \"5\": {\"K\": 1.0}, \"6\": {\"Sn\": 1.0}, \"7\": {\"I\": 1.0}, \"8\": {\"I\": 1.0}, \"9\": {\"I\": 1.0}, \"10\": {\"K\": 1.0}, \"11\": {\"Ge\": 1.0}, \"12\": {\"I\": 1.0}, \"13\": {\"I\": 1.0}, \"14\": {\"I\": 1.0}, \"15\": {\"K\": 1.0}, \"16\": {\"Ge\": 1.0}, \"17\": {\"I\": 1.0}, \"18\": {\"I\": 1.0}, \"19\": {\"I\": 1.0}, \"20\": {\"K\": 1.0}, \"21\": {\"Ge\": 1.0}, \"22\": {\"I\": 1.0}, \"23\": {\"I\": 1.0}, \"24\": {\"I\": 1.0}, \"25\": {\"K\": 1.0}, \"26\": {\"Sn\": 1.0}, \"27\": {\"I\": 1.0}, \"28\": {\"I\": 1.0}, \"29\": {\"I\": 1.0}, \"30\": {\"K\": 1.0}, \"31\": {\"Ge\": 1.0}, \"32\": {\"I\": 1.0}, \"33\": {\"I\": 1.0}, \"34\": {\"I\": 1.0}, \"35\": {\"K\": 1.0}, \"36\": {\"Ge\": 1.0}, \"37\": {\"I\": 1.0}, \"38\": {\"I\": 1.0}, \"39\": {\"I\": 1.0}}" candidate_id=24ae51259417c9ad formula=KGe0.59Sn0.41I3 config_index=1 rattle_stdev=0.08 method=PBE fidelity=phase2_force energy=-110.2785388483323 stress="-0.004558481821581294 1.6721717725874018e-05 6.367326485288279e-05 1.6721717725874018e-05 -0.0036253844691369282 1.7058910881174654e-06 6.367326485288279e-05 1.7058910881174654e-06 -0.004893796950597429" pbc="T T T"
K       11.84186060      11.70534914       0.06428681        0      -0.01651657       0.04573269       0.01957091
Sn       2.89719708       2.91012316       2.95305362        1       0.25991300       0.25655140       0.38988816
I        3.10902742       3.15428684      12.08055912        2      -0.03825714       0.00444646      -0.09822796
I        3.00252786      11.92164548       2.93106219        3       0.04267280       0.06461211      -0.00398712
I       11.84479247       2.99975852       3.09845885        4       0.66755285       0.01349542       0.03516609
K       11.79796897      11.87528987       6.00610368        5       0.02353763       0.06204540      -0.02902836
Sn       3.03597360       2.97563394       9.06024744        6       0.07593042      -0.03692748      -0.15097514
I        2.88972786       2.98076403       6.11235946        7       0.06178803       0.04012579      -0.36714921
I        2.94593236      12.05661412       9.08874762        8      -0.02115490      -0.46795741       0.03098938
I       -0.01778307       2.99359294       8.93604672        9       0.15403162       0.01493234       0.05536841
K       11.90136452       6.26677800       0.04882020       10       0.00592318      -0.04158017       0.01481279
Ge       2.82743941       9.04473696       2.87721967       11       0.45848790      -0.28773086      -0.20726414
I        3.06274814       9.01131791      -0.04867615       12      -0.05789424       0.03569154       0.17028632
I        2.86894725       6.07209150       2.87716203       13       0.01775585       0.00513757       0.08149540
I       12.13352351       9.05790523       3.07750087       14      -0.63856473       0.01566770       0.02412713
K       12.00561393       6.26962908       6.05737125       15       0.03701787      -0.05462929       0.00654716
Ge       3.07254319       8.95955919       8.83016496       16       0.31521606       0.01418835       0.08540316
I        3.01313086       8.98393736       5.97240817       17       0.01855718      -0.01733025       0.10193278
I        3.02991047       6.05427607       9.08906862       18      -0.01866698       0.45379884      -0.06349769
I       12.02634431       9.02610221       9.00842327       19       0.12294144       0.04089478      -0.01742950
K        6.09196320      11.73174242       0.11367119       20      -0.00459576       0.02703305       0.01643475
Ge       9.07111201       3.04796601       3.08647422       21      -0.43228260      -0.23090263      -0.55036919
I        9.05478751       2.93706292       0.20684041       22       0.05921591       0.02460186      -0.59954542
I        9.10649308      12.05747011       2.94581079       23      -0.02340340      -0.16723846       0.17195257
I        6.15000322       3.04736975       2.93738887       24      -0.49103837      -0.00529102       0.06823068
K        6.14938589      11.77803751       6.04475990       25      -0.02593663       0.01436625      -0.00279862
Sn       9.09594293       3.03366542       8.90896647       26      -0.26002771       0.29433199       0.31383819
I        8.92369176       3.11141121       5.88053098       27      -0.05557078      -0.02518894       0.58165820
I        8.98172536      12.02176807       9.01915252       28       0.03438146      -0.19432691      -0.03060132
I        6.01260135       3.01096259       9.04665106       29       0.04671626       0.00270268       0.00264025
K        5.99935589       6.17570235       0.11416071       30      -0.03350664      -0.05049948       0.02872948
Ge       8.95074286       8.95145953       2.89880206       31      -0.26417609       0.13964725      -0.06754227
I        9.04947784       9.10009200       0.11558281       32      -0.01216575      -0.04830286      -0.05937892
I        8.99796067       6.02419191       2.85451843       33       0.04844260       0.23595839       0.04279922
I        6.00192541       9.00975078       3.07656651       34       0.40339937      -0.01049438      -0.00893760
K        5.99242452       6.25490161       5.93123676       35      -0.02088670      -0.02933505      -0.00024568
Ge       9.22347978       9.16041232       8.80232348       36      -0.29370805      -0.28658089       0.53536830
I        8.91024374       9.00621223       6.15033580       37       0.10960140       0.07630139      -0.67885645
I        9.06187095       6.10409147       8.89586233       38       0.00618543       0.08836945       0.10017494
I        6.03687636       9.11132744       8.97230777       39      -0.25848321      -0.02167832       0.03877467
40
Lattice="12.017567072271282 0.0 0.0 0.0 12.026600014229793 0.0 0.0 0.0 12.017567072271389" Properties=species:S:1:pos:R:3:spacegroup_kinds:I:1:forces:R:3 spacegroup="P 1" unit_cell=conventional occupancy="_JSON {\"0\": {\"K\": 1.0}, \"1\": {\"Sn\": 1.0}, \"2\": {\"I\": 1.0}, \"3\": {\"I\": 1.0}, \"4\": {\"I\": 1.0}, \"5\": {\"K\": 1.0}, \"6\": {\"Sn\": 1.0}, \"7\": {\"I\": 1.0}, \"8\": {\"I\": 1.0}, \"9\": {\"I\": 1.0}, \"10\": {\"K\": 1.0}, \"11\": {\"Ge\": 1.0}, \"12\": {\"I\": 1.0}, \"13\": {\"I\": 1.0}, \"14\": {\"I\": 1.0}, \"15\": {\"K\": 1.0}, \"16\": {\"Ge\": 1.0}, \"17\": {\"I\": 1.0}, \"18\": {\"I\": 1.0}, \"19\": {\"I\": 1.0}, \"20\": {\"K\": 1.0}, \"21\": {\"Ge\": 1.0}, \"22\": {\"I\": 1.0}, \"23\": {\"I\": 1.0}, \"24\": {\"I\": 1.0}, \"25\": {\"K\": 1.0}, \"26\": {\"Sn\": 1.0}, \"27\": {\"I\": 1.0}, \"28\": {\"I\": 1.0}, \"29\": {\"I\": 1.0}, \"30\": {\"K\": 1.0}, \"31\": {\"Ge\": 1.0}, \"32\": {\"I\": 1.0}, \"33\": {\"I\": 1.0}, \"34\": {\"I\": 1.0}, \"35\": {\"K\": 1.0}, \"36\": {\"Ge\": 1.0}, \"37\": {\"I\": 1.0}, \"38\": {\"I\": 1.0}, \"39\": {\"I\": 1.0}}" candidate_id=24ae51259417c9ad formula=KGe0.59Sn0.41I3 config_index=2 rattle_stdev=0.08 method=PBE fidelity=phase2_force energy=-110.28284854441205 stress="-0.003954097441154841 5.9289697296295365e-05 6.703006319413841e-05 5.9289697296295365e-05 -0.004161508905050019 8.31015311898794e-06 6.703006319413841e-05 8.31015311898794e-06 -0.003571205012451629" pbc="T T T"
K       11.91975927      11.69090923       0.23159292        0       0.02379221      -0.00172368      -0.04158737
Sn       2.88783310       2.98054434       2.90360005        1       0.62972018       0.27350605       0.20921112
I        3.03446109       2.93639821      11.98623186        2      -0.01917486       0.04313711      -0.04964202
I        3.02812458      12.03440355       2.87887215        3      -0.02374418      -0.59443831       0.05596555
I       12.07909417       3.04616695       2.99393485        4      -0.89321967       0.05266200      -0.03213478
K       11.89652665      11.69914137       5.88259543        5      -0.01806867      -0.01596234       0.04929159
Sn       2.94695805       3.10436147       8.95099930        6       0.53169412       0.03972366       0.04038919
I        2.95730972       3.00204050       6.01848708        7       0.06979195      -0.12343707      -0.24716267
I        2.90973568      11.81843592       9.08615580        8       0.02199894       0.50644754      -0.01267432
I        0.03635081       2.95098848       8.83007355        9      -0.24718660      -0.00612471       0.01548567
K       11.86579699       6.18058434       0.09625541       10       0.01524205       0.01395507      -0.01943241
Ge       2.96205623       9.08236960       2.98832659       11       0.20857316      -0.18667270       0.01827681
I        2.96594308       8.93712904      -0.03688118       12       0.03094339      -0.06702341       0.37759733
I        3.06758298       6.02756962       3.18119459       13      -0.00505589       0.45830503      -0.06375405
I       11.90306414       9.00082222       3.02177902       14       0.46119592      -0.03921834       0.02978391
K       11.90058549       6.26973572       5.92852493       15      -0.00419086       0.00372769       0.03040772
Ge       2.98862927       9.12770472       9.04078922       16      -0.20457252      -0.29608132      -0.08827902
I        3.04900332       8.97232720       6.06407254       17      -0.02224791       0.10381686      -0.31282160
I        3.11089198       6.03916207       8.97431484       18       0.00475849      -0.11683630       0.03615259
I       12.10038264       8.81232142       9.02652956       19      -0.00530329       0.01718523      -0.02541273
K        6.18069107      11.63234844       0.14948204       20      -0.02024428       0.03202030      -0.02641517
Ge       8.97316628       2.81910655       2.99575835       21      -0.28484654       0.15077884       0.17852944
I        8.89295229       3.04575230       0.04254092       22       0.10177596       0.05432453       0.07177012
I        9.09777591      11.94857153       2.99838448       23       0.00608629       0.23968626      -0.01224663
I        6.08700634       3.17455576       2.97714873       24       0.27799172      -0.15600391      -0.00247830
K        6.05534189      11.67346500       5.93712070       25       0.01023877      -0.01116936       0.02614918
Sn       9.10327687       3.03877287       9.07442213       26      -0.46572460      -0.06746917      -0.17986370
I        8.90492511       3.05255868       5.90437737       27       0.06115005      -0.08034346      -0.03800473
I        9.06479042      11.85795305       9.16515439       28       0.04421530       0.55274187       0.00879327
I        6.02279525       3.04664763       8.96304802       29       0.08481782      -0.07680198      -0.01882084
K        6.01734356       6.20036086       0.10513298       30      -0.02960056      -0.05563591       0.01260890
Ge       9.05606266       8.93395021       2.82696339       31      -0.30160118      -0.28568529       0.32068545
I        9.06492972       8.99416315      -0.01132110       32       0.00107046      -0.07589268       0.16387411
I        8.83010156       6.01281956       3.08081687       33       0.14027581       0.21046658      -0.08344725
I        6.04764662       9.18490421       3.00938861       34      -0.32638476      -0.01482633      -0.05938108
K        6.09780169       6.22658137       5.94987138       35      -0.00049580      -0.03680682       0.00169427
Ge       8.94812602       9.01182541       9.04883236       36       0.01800122       0.10064019      -0.44322815
I        8.91116501       9.02857656       6.07447845       37       0.09563091       0.10090695      -0.06845468
I        9.00062714       6.19667497       8.89539423       38       0.06342098      -0.70166853       0.05159311
I        6.08140437       8.94847885       8.96925766       39      -0.05256414       0.06957903       0.11550998
40
Lattice="12.017567072271282 0.0 0.0 0.0 12.026600014229793 0.0 0.0 0.0 12.017567072271389" Properties=species:S:1:pos:R:3:spacegroup_kinds:I:1:forces:R:3 spacegroup="P 1" unit_cell=conventional occupancy="_JSON {\"0\": {\"K\": 1.0}, \"1\": {\"Sn\": 1.0}, \"2\": {\"I\": 1.0}, \"3\": {\"I\": 1.0}, \"4\": {\"I\": 1.0}, \"5\": {\"K\": 1.0}, \"6\": {\"Sn\": 1.0}, \"7\": {\"I\": 1.0}, \"8\": {\"I\": 1.0}, \"9\": {\"I\": 1.0}, \"10\": {\"K\": 1.0}, \"11\": {\"Ge\": 1.0}, \"12\": {\"I\": 1.0}, \"13\": {\"I\": 1.0}, \"14\": {\"I\": 1.0}, \"15\": {\"K\": 1.0}, \"16\": {\"Ge\": 1.0}, \"17\": {\"I\": 1.0}, \"18\": {\"I\": 1.0}, \"19\": {\"I\": 1.0}, \"20\": {\"K\": 1.0}, \"21\": {\"Ge\": 1.0}, \"22\": {\"I\": 1.0}, \"23\": {\"I\": 1.0}, \"24\": {\"I\": 1.0}, \"25\": {\"K\": 1.0}, \"26\": {\"Sn\": 1.0}, \"27\": {\"I\": 1.0}, \"28\": {\"I\": 1.0}, \"29\": {\"I\": 1.0}, \"30\": {\"K\": 1.0}, \"31\": {\"Ge\": 1.0}, \"32\": {\"I\": 1.0}, \"33\": {\"I\": 1.0}, \"34\": {\"I\": 1.0}, \"35\": {\"K\": 1.0}, \"36\": {\"Ge\": 1.0}, \"37\": {\"I\": 1.0}, \"38\": {\"I\": 1.0}, \"39\": {\"I\": 1.0}}" candidate_id=24ae51259417c9ad formula=KGe0.59Sn0.41I3 config_index=3 rattle_stdev=0.08 method=PBE fidelity=phase2_force energy=-109.98738988313289 stress="-0.004112466126789602 7.502411488012884e-05 -6.549671265580557e-06 7.502411488012884e-05 -0.004017427891245294 -2.1422045403620922e-05 -6.549671265580557e-06 -2.1422045403620922e-05 -0.0035882545601799948" pbc="T T T"
K       11.82309283      11.93837458       0.09259592        0       0.01736893       0.08907074       0.02309243
Sn       2.98537807       3.01337982       3.08115515        1      -0.31555892      -0.28749765      -0.94651048
I        2.94986389       3.04897564      11.95223647        2       0.02166648       0.01500180      -0.01144070
I        3.11678826      11.92035616       2.89992091        3       0.03872026      -0.12813287      -0.00379729
I       11.87648906       2.87697534       2.90199389        4       0.34161167       0.05813558       0.01293516
K       11.91083258      11.70898946       5.85953357        5      -0.02240369       0.02663946      -0.01256463
Sn       3.02544543       2.80223456       8.87955263        6      -0.07573251       0.43157576       0.59726177
I        2.94745295       2.81090795       5.90998590        7      -0.06971076      -0.05242066       0.48457241
I        3.05748157      11.84002859       8.94994253        8      -0.06174023       0.56397839       0.04411192
I       -0.11685252       2.91148681       9.19451052        9       0.57699141       0.02530234       0.03053191
K       11.89063408       6.33459879      -0.05560430       10       0.02495340      -0.05552124      -0.04289930
Ge       2.96509460       8.92399028       2.93997414       11      -0.03929149       0.30668941      -0.09528011
I        3.11685726       9.00152476      -0.05375815       12      -0.07170191      -0.07036132       0.53765083
I        2.99138476       6.04725903       3.12552118       13      -0.02222205       0.20756852       0.01917490
I       11.87527721       9.07263238       2.97686247       14       1.03092934      -0.10760840       0.03373259
K       11.86808046       6.27662778       5.86740949       15      -0.03199639       0.00494296       0.00385314
Ge       3.04860741       9.05055867       8.98347208       16      -0.03469526      -0.67555058      -0.04935924
I        3.13064329       9.03729381       6.10237330       17      -0.02040804       0.02152073      -0.44655222
I        3.06291021       6.15148439       8.96675082       18      -0.02695135      -0.36693062      -0.03438626
I       12.00628234       8.89316082       9.00719799       19      -0.18083329       0.03299064       0.03073908
K        6.19347901      11.75580053       0.03664679       20      -0.03470486       0.00533014      -0.00156458
Ge       8.86145238       2.88342608       2.97296591       21       0.35425060       0.21704656      -0.01378894
I        8.98001684       3.06353543       0.13819723       22      -0.09434218      -0.02693895      -0.26083227
I        9.20496221      12.00453437       2.92332107       23      -0.17731441      -0.25287398       0.02510500
I        6.06009424       3.07432818       3.04394049       24      -0.19174302      -0.05918949       0.02724974
K        6.11986536      11.81880162       5.94540211       25      -0.00369777      -0.02564500       0.01358080
Sn       9.03134621       2.97542276       8.95573390       26      -0.23740550      -0.05428526      -0.05176112
I        9.13670420       2.93761439       5.89328213       27      -0.00380444      -0.02403196       0.29910595
I        9.01987945      12.07266836       8.91882833       28      -0.03833983      -0.92589375       0.08312866
I        5.97354822       2.97277886       9.05792225       29      -0.11042233      -0.02642553      -0.04532098
K        6.05139472       6.26856546       0.15816717       30      -0.01522685      -0.02925074      -0.03239658
Ge       9.04636802       9.00185123       3.06483922       31      -0.18999468      -0.17494833       0.15053066
I        9.03118569       8.98476977       0.05481038       32       0.03726585      -0.00930132      -0.05356984
I        8.94148544       5.90782717       3.14379050       33       0.10542093       0.30934033      -0.00093438
I        6.24481362       8.96605199       2.94270983       34      -0.84222437       0.05004731       0.03283932
K        6.18201368       6.35452271       5.92964262       35       0.00821757       0.02329193       0.01307874
Ge       9.01417478       8.96398829       9.16327923       36       0.09814092      -0.02119018      -0.20963481
I        8.97712263       8.99545127       6.11931885       37       0.01342417       0.01786451      -0.17839241
I        8.96088802       5.92024410       9.06160346       38      -0.01941568       0.95018161       0.01162369
I        5.97017566       9.03654919       9.10088747       39       0.26835287       0.01261789       0.01608893
