40
Lattice="10.561732083986811 0.0 0.0 0.0 10.561732083986819 0.0 0.0 -2.2805036709623302e-14 10.561732083986731" Properties=species:S:1:pos:R:3:spacegroup_kinds:I:1:forces:R:3 spacegroup="P 1" unit_cell=conventional occupancy="_JSON {\"0\": {\"Rb\": 1.0}, \"1\": {\"Ge\": 1.0}, \"2\": {\"Cl\": 1.0}, \"3\": {\"Cl\": 1.0}, \"4\": {\"Cl\": 1.0}, \"5\": {\"Cs\": 1.0}, \"6\": {\"Ge\": 1.0}, \"7\": {\"Cl\": 1.0}, \"8\": {\"Cl\": 1.0}, \"9\": {\"Cl\": 1.0}, \"10\": {\"Rb\": 1.0}, \"11\": {\"Ge\": 1.0}, \"12\": {\"Cl\": 1.0}, \"13\": {\"Cl\": 1.0}, \"14\": {\"Cl\": 1.0}, \"15\": {\"Rb\": 1.0}, \"16\": {\"Ge\": 1.0}, \"17\": {\"Cl\": 1.0}, \"18\": {\"Cl\": 1.0}, \"19\": {\"Cl\": 1.0}, \"20\": {\"Rb\": 1.0}, \"21\": {\"Ge\": 1.0}, \"22\": {\"Cl\": 1.0}, \"23\": {\"Cl\": 1.0}, \"24\": {\"Cl\": 1.0}, \"25\": {\"Rb\": 1.0}, \"26\": {\"Ge\": 1.0}, \"27\": {\"Cl\": 1.0}, \"28\": {\"Cl\": 1.0}, \"29\": {\"Cl\": 1.0}, \"30\": {\"Rb\": 1.0}, \"31\": {\"Ge\": 1.0}, \"32\": {\"Cl\": 1.0}, \"33\": {\"Cl\": 1.0}, \"34\": {\"Cl\": 1.0}, \"35\": {\"Rb\": 1.0}, \"36\": {\"Ge\": 1.0}, \"37\": {\"Cl\": 1.0}, \"38\": {\"Cl\": 1.0}, \"39\": {\"Cl\": 1.0}}" candidate_id=6206bba147d7566a formula=FA0.12Rb0.88GeCl3 config_index=0 rattle_stdev=0.0 method=PBE fidelity=phase2_force energy=-138.30919867411328 stress="-0.0011522886921284579 0.0 0.0 0.0 -0.0011522886921284563 -2.488037541107023e-18 0.0 -2.488037541107023e-18 -0.0011522886921421557" pbc="T T T"
Rb      10.56173208      -0.00000000      10.56173208        0       0.00000000       0.00000000       0.00000000
Ge       2.65414484       2.65414484       2.62672120        1      -0.00278236      -0.00278236       0.00278236
Cl       2.67323993       2.67323993      10.56173208        2      -0.02414288      -0.02414288       0.00000000
Cl       2.68339900      10.56173208       2.59746704        3      -0.01409818      -0.00000000       0.01409818
Cl      10.56173208       2.68339900       2.59746704        4       0.00000000      -0.01409818       0.01409818
Cs       0.00000000      10.56173208       5.28086604        5       0.00000000       0.00000000       0.00000000
Ge       2.65414484       2.65414484       7.93501088        6      -0.00278236      -0.00278236      -0.00278236
Cl       2.68339900       2.68339900       5.28086604        7      -0.01409818      -0.01409818       0.00000000
Cl       2.68339900      10.56173208       7.96426505        8      -0.01409818       0.00000000      -0.01409818
Cl      10.56173208       2.68339900       7.96426505        9      -0.00000000      -0.01409818      -0.01409818
Rb      10.56173208       5.28086604      10.56173208       10       0.00000000       0.00000000       0.00000000
Ge       2.65414484       7.90758724       2.62672120       11      -0.00278236       0.00278236       0.00278236
Cl       2.67323993       7.88849215      10.56173208       12      -0.02414288       0.02414288       0.00000000
Cl       2.67323993       5.28086604       2.60762611       13      -0.02414288      -0.00000000       0.02414288
Cl      10.56173208       7.87833308       2.59746704       14       0.00000000       0.01409818       0.01409818
Rb       0.00000000       5.28086604       5.28086604       15      -0.00000000       0.00000000       0.00000000
Ge       2.65414484       7.90758724       7.93501088       16      -0.00278236       0.00278236      -0.00278236
Cl       2.68339900       7.87833308       5.28086604       17      -0.01409818       0.01409818       0.00000000
Cl       2.67323993       5.28086604       7.95410597       18      -0.02414288       0.00000000      -0.02414288
Cl      10.56173208       7.87833308       7.96426505       19       0.00000000       0.01409818      -0.01409818
Rb       5.28086604      -0.00000000      10.56173208       20       0.00000000       0.00000000       0.00000000
Ge       7.90758724       2.65414484       2.62672120       21       0.00278236      -0.00278236       0.00278236
Cl       7.88849215       2.67323993      10.56173208       22       0.02414288      -0.02414288       0.00000000
Cl       7.87833308      10.56173208       2.59746704       23       0.01409818      -0.00000000       0.01409818
Cl       5.28086604       2.67323993       2.60762611       24      -0.00000000      -0.02414288       0.02414288
Rb       5.28086604      10.56173208       5.28086604       25      -0.00000000      -0.00000000       0.00000000
Ge       7.90758724       2.65414484       7.93501088       26       0.00278236      -0.00278236      -0.00278236
Cl       7.87833308       2.68339900       5.28086604       27       0.01409818      -0.01409818       0.00000000
Cl       7.87833308      10.56173208       7.96426505       28       0.01409818       0.00000000      -0.01409818
Cl       5.28086604       2.67323993       7.95410597       29       0.00000000      -0.02414288      -0.02414288
Rb       5.28086604       5.28086604      10.56173208       30      -0.00000000       0.00000000       0.00000000
Ge       7.90758724       7.90758724       2.62672120       31       0.00278236       0.00278236       0.00278236
Cl       7.88849215       7.88849215       0.00000000       32       0.02414288       0.02414288       0.00000000
Cl       7.88849215       5.28086604       2.60762611       33       0.02414288      -0.00000000       0.02414288
Cl       5.28086604       7.88849215       2.60762611       34      -0.00000000       0.02414288       0.02414288
Rb       5.28086604       5.28086604       5.28086604       35      -0.00000000      -0.00000000       0.00000000
Ge       7.90758724       7.90758724       7.93501088       36       0.00278236       0.00278236      -0.00278236
Cl       7.87833308       7.87833308       5.28086604       37       0.01409818       0.01409818       0.00000000
Cl       7.88849215       5.28086604       7.95410597       38       0.02414288       0.00000000      -0.02414288
Cl       5.28086604       7.88849215       7.95410597       39       0.00000000       0.02414288      -0.02414288
40
Lattice="10.561732083986811 0.0 0.0 0.0 10.561732083986819 0.0 0.0 -2.2805036709623302e-14 10.561732083986731" Properties=species:S:1:pos:R:3:spacegroup_kinds:I:1:forces:R:3 spacegroup="P 1" unit_cell=conventional occupancy="_JSON {\"0\": {\"Rb\": 1.0}, \"1\": {\"Ge\": 1.0}, \"2\": {\"Cl\": 1.0}, \"3\": {\"Cl\": 1.0}, \"4\": {\"Cl\": 1.0}, \"5\": {\"Cs\": 1.0}, \"6\": {\"Ge\": 1.0}, \"7\": {\"Cl\": 1.0}, \"8\": {\"Cl\": 1.0}, \"9\": {\"Cl\": 1.0}, \"10\": {\"Rb\": 1.0}, \"11\": {\"Ge\": 1.0}, \"12\": {\"Cl\": 1.0}, \"13\": {\"Cl\": 1.0}, \"14\": {\"Cl\": 1.0}, \"15\": {\"Rb\": 1.0}, \"16\": {\"Ge\": 1.0}, \"17\": {\"Cl\": 1.0}, \"18\": {\"Cl\": 1.0}, \"19\": {\"Cl\": 1.0}, \"20\": {\"Rb\": 1.0}, \"21\": {\"Ge\": 1.0}, \"22\": {\"Cl\": 1.0}, \"23\": {\"Cl\": 1.0}, \"24\": {\"Cl\": 1.0}, \"25\": {\"Rb\": 1.0}, \"26\": {\"Ge\": 1.0}, \"27\": {\"Cl\": 1.0}, \"28\": {\"Cl\": 1.0}, \"29\": {\"Cl\": 1.0}, \"30\": {\"Rb\": 1.0}, \"31\": {\"Ge\": 1.0}, \"32\": {\"Cl\": 1.0}, \"33\": {\"Cl\": 1.0}, \"34\": {\"Cl\": 1.0}, \"35\": {\"Rb\": 1.0}, \"36\": {\"Ge\": 1.0}, \"37\": {\"Cl\": 1.0}, \"38\": {\"Cl\": 1.0}, \"39\": {\"Cl\": 1.0}}" candidate_id=6206bba147d7566a formula=FA0.12Rb0.88GeCl3 config_index=1 rattle_stdev=0.08 method=PBE fidelity=phase2_force energy=-137.77258975699476 stress="-0.004293440798720368 3.031552383422108e-05 0.00015376668436916068 3.031552383422108e-05 -0.0034523385419245427 -0.0002485346315484901 0.00015376668436916068 -0.0002485346315484901 -0.004809285616932694" pbc="T T T"
Rb      10.47481637      -0.07168521      10.53722813        0      -0.02688787       0.07568454       0.04397823
Ge       2.54695015       2.55761799       2.57538306        1       0.39215304       0.38298975       0.06241819
Cl       2.77787558       2.82087677      10.62806128        2      -0.23928758      -0.25013362       0.13283311
Cl       2.68153510      10.54504697       2.52413746        3      -0.09787985       0.10588682      -0.01577744
Cl      10.47575268       2.67650753       2.69153412        4       0.56648259      -0.01831086      -0.01722465
Cs      -0.13080734      10.65998760       5.36697694        5       0.13514721      -0.00773938      -0.14252006
Ge       2.68572667       2.62312878       7.98208302        6       0.18471679      -0.14193697      -0.30426225
Cl       2.56873510       2.65751303       5.38110482        7       0.09388489       0.00004940      -0.04002671
Cl       2.62493960      10.67601089       8.03983736        8      -0.00855187      -0.33039432      -0.04364135
Cl      10.54061186       2.67034194       7.88713646        9      -0.06425407       0.01726083       0.04981494
Rb      10.53432030       5.28477836      10.52176153       10      -0.02043819      -0.05759469       0.02579077
Ge       2.47719248       7.93237419       2.49954910       11       0.65623312      -0.34228185      -0.19292369
Cl       2.73159630       7.87986005      10.50971836       12      -0.17008807       0.06790113       0.16214206
Cl       2.53779541       5.25138812       2.48039637       13      -0.05326785       0.05514889       0.16807096
Cl      10.68017255       7.91628830       2.67057614       14      -0.54076536       0.02593647      -0.02833828
Rb       0.07683762       5.28762945       5.41824452       15       0.02276382      -0.06702218      -0.07830692
Ge       2.72229626       7.84719642       7.75200054       16       0.45685132       0.01659338       0.28271163
Cl       2.69213810       7.84232043       5.24782825       17      -0.04734450      -0.01055378       0.19576877
Cl       2.69875863       5.23757741       8.02999929       18      -0.05408552       0.60649204      -0.19610888
Cl      10.57384689       7.88448527       7.95951302       19       0.14595434       0.04969780      -0.15219612
Rb       5.27525495      -0.04529192      10.58661251       20       0.04363612       0.04272769       0.03531257
Ge       7.96552395       2.69546084       2.70880366       21      -0.52785853      -0.34769924      -0.76642976
Cl       7.93010436       2.60365285      10.68177730       22       0.13073801       0.04991334      -0.39299393
Cl       7.97165085      10.60108524       2.53888606       23      -0.02458532      -0.10049496       0.19901753
Cl       5.33529053       2.71395968       2.54062321       24      -0.38525431      -0.07542855       0.17383102
Rb       5.33267763      10.56273524       5.40563317       25      -0.07074444       0.03457772      -0.08859089
Ge       7.99035487       2.68116025       7.83080205       26      -0.18434815       0.38180684       0.36680107
Cl       7.78884954       2.78816021       5.23940868       27       0.05689920      -0.09313481       0.60022789
Cl       7.84688314      10.64516956       7.97024226       28       0.13270239      -0.21540904      -0.17257097
Cl       5.28802101       2.67755252       7.98758173       29      -0.14055631      -0.04651407      -0.08727697
Rb       5.18264764       5.19370272      10.58710203       30       0.10072666       0.04650445       0.02577900
Ge       7.84515480       7.83909676       2.52113149       31      -0.43130404       0.22993476      -0.14646676
Cl       7.92479468       7.96863414       0.11309877       32       0.00269145      -0.05467124       0.09393181
Cl       7.87327752       5.28327489       2.45775277       33       0.07835993       0.25135657       0.06966180
Cl       5.27152389       7.87829293       2.67980085       34       0.59125364       0.00224086      -0.04687831
Rb       5.17571627       5.27290198       5.29211003       35       0.00843306      -0.04378987      -0.04747092
Ge       8.11789172       8.04804955       7.72415906       36      -0.65773607      -0.42479660       0.66963782
Cl       7.77540152       7.86459530       5.42490234       37       0.22006659       0.12206647      -0.43650898
Cl       7.93718780       5.28338809       7.83679300       38       0.08573359       0.08220282       0.05397763
Cl       5.30562130       7.97986958       7.91323844       39      -0.35448933      -0.02333321      -0.05077059
40
Lattice="10.561732083986811 0.0 0.0 0.0 10.561732083986819 0.0 0.0 -2.2805036709623302e-14 10.561732083986731" Properties=species:S:1:pos:R:3:spacegroup_kinds:I:1:forces:R:3 spacegroup="P 1" unit_cell=conventional occupancy="_JSON {\"0\": {\"Rb\": 1.0}, \"1\": {\"Ge\": 1.0}, \"2\": {\"Cl\": 1.0}, \"3\": {\"Cl\": 1.0}, \"4\": {\"Cl\": 1.0}, \"5\": {\"Cs\": 1.0}, \"6\": {\"Ge\": 1.0}, \"7\": {\"Cl\": 1.0}, \"8\": {\"Cl\": 1.0}, \"9\": {\"Cl\": 1.0}, \"10\": {\"Rb\": 1.0}, \"11\": {\"Ge\": 1.0}, \"12\": {\"Cl\": 1.0}, \"13\": {\"Cl\": 1.0}, \"14\": {\"Cl\": 1.0}, \"15\": {\"Rb\": 1.0}, \"16\": {\"Ge\": 1.0}, \"17\": {\"Cl\": 1.0}, \"18\": {\"Cl\": 1.0}, \"19\": {\"Cl\": 1.0}, \"20\": {\"Rb\": 1.0}, \"21\": {\"Ge\": 1.0}, \"22\": {\"Cl\": 1.0}, \"23\": {\"Cl\": 1.0}, \"24\": {\"Cl\": 1.0}, \"25\": {\"Rb\": 1.0}, \"26\": {\"Ge\": 1.0}, \"27\": {\"Cl\": 1.0}, \"28\": {\"Cl\": 1.0}, \"29\": {\"Cl\": 1.0}, \"30\": {\"Rb\": 1.0}, \"31\": {\"Ge\": 1.0}, \"32\": {\"Cl\": 1.0}, \"33\": {\"Cl\": 1.0}, \"34\": {\"Cl\": 1.0}, \"35\": {\"Rb\": 1.0}, \"36\": {\"Ge\": 1.0}, \"37\": {\"Cl\": 1.0}, \"38\": {\"Cl\": 1.0}, \"39\": {\"Cl\": 1.0}}" candidate_id=6206bba147d7566a formula=FA0.12Rb0.88GeCl3 config_index=2 rattle_stdev=0.08 method=PBE fidelity=phase2_force energy=-137.67847637879825 stress="-0.0033253259813240416 0.00012118041677018465 -9.159815511249904e-05 0.00012118041677018465 -0.0035111728934691068 0.00011036956569893352 -9.159815511249904e-05 0.00011036956569893352 -0.003195480347523713" pbc="T T T"
Rb      10.55271504      -0.08612512      10.70453424        0       0.04574150       0.00084050      -0.15511098
Ge       2.53758618       2.62803918       2.52592948        1       0.65659810       0.33256236       0.15069275
Cl       2.70330925       2.60298814      10.53373402        2      -0.16724504       0.08762726       0.09799754
Cl       2.70713182      10.65780504       2.47194742        3      -0.10484063      -0.70559588       0.08482366
Cl      10.71005438       2.72291595       2.58701012        4      -0.76605066      -0.03602765      -0.07450276
Cs      -0.03224966      10.48383910       5.24346870        5      -0.01460141      -0.00674677       0.12556805
Ge       2.59671112       2.75185631       7.87283488        6       0.49473658       0.13826755      -0.21704346
Cl       2.63631695       2.67878950       5.28723243        7      -0.02510328      -0.12590159       0.10277314
Cl       2.58874292      10.43783269       8.03724554        8      -0.00918038       0.13441827      -0.03080432
Cl      10.59474574       2.62773748       7.78116330        9      -0.17246630       0.09308077       0.13784226
Rb      10.49875276       5.19858471      10.56919673       10       0.05336600       0.04886908      -0.04517668
Ge       2.61180931       7.97000683       2.61065602       11       0.42011781      -0.31618210       0.07641813
Cl       2.63479124       7.80567118      10.52151333       12      -0.00597461       0.01067098       0.53619804
Cl       2.73643115       5.20686623       2.78442894       13      -0.14320038       0.63034778      -0.16893964
Cl      10.44971319       7.85920529       2.61485429       14       0.55060582      -0.02637779      -0.02905588
Rb      -0.02819082       5.28773608       5.28939820       15      -0.00601920       0.02240777       0.01513054
Ge       2.63838234       8.01534195       7.96262480       16      -0.27065192      -0.25070289      -0.16201191
Cl       2.72801056       7.83071027       5.33949262       17      -0.08750907       0.18415464      -0.40952565
Cl       2.77974015       5.22246341       7.91524551       18      -0.14507733      -0.32802891       0.03133586
Cl      10.64788522       7.67070449       7.97761930       19       0.11712691       0.13803491      -0.02729234
Rb       5.36398281      -0.14468591      10.62242336       20      -0.07747633       0.10973471      -0.08414234
Ge       7.86757822       2.46660139       2.61808779       21      -0.57612355       0.53695512       0.31638057
Cl       7.76826914       2.71234222      10.51747780       22       0.20124148      -0.00950073       0.09466061
Cl       7.96293368      10.49218666       2.59145975       23      -0.01798176       0.33338560      -0.04366903
Cl       5.27229364       2.84114569       2.58038308       24       0.68606555      -0.39349300       0.00763823
Rb       5.23863363      10.45816274       5.29799396       25       0.03519018       0.04068028       0.03966836
Ge       7.99768881       2.68626771       7.99625771       26      -0.59862699      -0.08371080      -0.29092180
Cl       7.77008288       2.72930768       5.26325507       27       0.14345534      -0.21412311      -0.21468115
Cl       7.92994820      10.48135454       8.11624413       28       0.03513731       0.52514019      -0.03014799
Cl       5.29821491       2.71323756       7.90397869       29       0.14135907      -0.12839944       0.01119264
Rb       5.20063530       5.21836122      10.57807430       30      -0.01662154      -0.03633756      -0.00371470
Ge       7.95047460       7.82158745       2.44929282       31      -0.44550745      -0.37774815       0.64576678
Cl       7.94024657       7.86270529      -0.01380513       32       0.01840090      -0.06960924       0.26205722
Cl       7.70541841       5.27190253       2.68405122       33       0.25796786       0.10138750      -0.15119701
Cl       5.31724510       8.05344635       2.61262295       34      -0.54998031       0.01421756      -0.08220162
Rb       5.28109344       5.24458174       5.31074464       35       0.00237901      -0.01185835      -0.02555470
Ge       7.84253796       7.89946264       7.97066794       36       0.09371568       0.03406952      -0.77873740
Cl       7.77632279       7.88695962       5.34904499       37       0.12453857       0.12662022      -0.00754091
Cl       7.87594399       5.37597158       7.83632490       38       0.10209388      -0.65748699       0.13912391
Cl       5.35014931       7.81702099       7.91018832       39       0.00463116       0.14096802       0.15120682
40
Lattice="10.561732083986811 0.0 0.0 0.0 10.561732083986819 0.0 0.0 -2.2805036709623302e-14 10.561732083986731" Properties=species:S:1:pos:R:3:spacegroup_kinds:I:1:forces:R:3 spacegroup="P 1" unit_cell=conventional occupancy="_JSON {\"0\": {\"Rb\": 1.0}, \"1\": {\"Ge\": 1.0}, \"2\": {\"Cl\": 1.0}, \"3\": {\"Cl\": 1.0}, \"4\": {\"Cl\": 1.0}, \"5\": {\"Cs\": 1.0}, \"6\": {\"Ge\": 1.0}, \"7\": {\"Cl\": 1.0}, \"8\": {\"Cl\": 1.0}, \"9\": {\"Cl\": 1.0}, \"10\": {\"Rb\": 1.0}, \"11\": {\"Ge\": 1.0}, \"12\": {\"Cl\": 1.0}, \"13\": {\"Cl\": 1.0}, \"14\": {\"Cl\": 1.0}, \"15\": {\"Rb\": 1.0}, \"16\": {\"Ge\": 1.0}, \"17\": {\"Cl\": 1.0}, \"18\": {\"Cl\": 1.0}, \"19\": {\"Cl\": 1.0}, \"20\": {\"Rb\": 1.0}, \"21\": {\"Ge\": 1.0}, \"22\": {\"Cl\": 1.0}, \"23\": {\"Cl\": 1.0}, \"24\": {\"Cl\": 1.0}, \"25\": {\"Rb\": 1.0}, \"26\": {\"Ge\": 1.0}, \"27\": {\"Cl\": 1.0}, \"28\": {\"Cl\": 1.0}, \"29\": {\"Cl\": 1.0}, \"30\": {\"Rb\": 1.0}, \"31\": {\"Ge\": 1.0}, \"32\": {\"Cl\": 1.0}, \"33\": {\"Cl\": 1.0}, \"34\": {\"Cl\": 1.0}, \"35\": {\"Rb\": 1.0}, \"36\": {\"Ge\": 1.0}, \"37\": {\"Cl\": 1.0}, \"38\": {\"Cl\": 1.0}, \"39\": {\"Cl\": 1.0}}" candidate_id=6206bba147d7566a formula=FA0.12Rb0.88GeCl3 config_index=3 rattle_stdev=0.08 method=PBE fidelity=phase2_force energy=-137.41301943168395 stress="-0.0037927453768472155 0.00024439158905229625 0.00021457341575734337 0.00024439158905229625 -0.003936798760991248 0.00011442245914964804 0.00021457341575734337 0.00011442245914964804 -0.00278948579049108" pbc="T T T"
Rb      10.45604860       0.16134023      10.56553724        0       0.07989908       0.02867933       0.03125786
Ge       2.63513115       2.66087465       2.70348458        1      -0.34532226      -0.44168541      -0.71512717
Cl       2.61871205       2.71556556      10.49973863        2       0.06101214      -0.07938015      -0.20019363
Cl       2.79579550      10.54375765       2.49299618        3      -0.01632430      -0.23512065       0.06775860
Cl      10.50744927       2.55372434       2.49506915        4       0.22717832       0.11073269       0.13041371
Cs      -0.01794374      10.49368720       5.22040683        5      -0.02667499       0.01370828       0.01264561
Ge       2.67519851       2.44972940       7.80138821        6       0.19273708       0.52494923       0.78178301
Cl       2.62646019       2.48765696       5.17873126        7       0.00788973       0.01634898       0.27549015
Cl       2.73648881      10.45942537       7.90103227        8      -0.03054548       0.69084730       0.00538874
Cl      10.44154242       2.58823581       8.14560026        9       0.26145086       0.01700381      -0.18825519
Rb      10.52358986       5.35259916      10.41733702       10       0.04832622      -0.16604440       0.03837330
Ge       2.61484767       7.81162752       2.56230357       11       0.05635450       0.41987653      -0.12211357
Cl       2.78570542       7.87006690      10.50463636       12      -0.13893940      -0.05130310       0.79435782
Cl       2.66023293       5.22655565       2.72875553       13      -0.06289236       0.36045404       0.01827078
Cl      10.42192626       7.93101545       2.56993774       14       1.29550104      -0.13344183      -0.00183629
Rb      -0.06069585       5.29462814       5.22828276       15      -0.04114977      -0.03165962       0.03135148
Ge       2.69836048       7.93819590       7.90530765       16      -0.05483652      -0.81169047      -0.08838372
Cl       2.80965052       7.89567688       5.37779337       17      -0.04396078       0.04205255      -0.51160531
Cl       2.73175838       5.33478573       7.90768148       18      -0.05140324      -0.22876635      -0.10895335
Cl      10.55378492       7.75154389       7.95828773       19      -0.31174275       0.09093040      -0.00114348
Rb       5.37677075      -0.02123382      10.50958811       20      -0.07108840       0.04480204       0.03108046
Ge       7.75586431       2.53092092       2.59529534       21       0.56220315       0.45206240      -0.07172598
Cl       7.85533369       2.73012535      10.61313412       22      -0.10244847      -0.11476859      -0.03914235
Cl       8.07011998      10.54814950       2.51639634       23      -0.24007154      -0.32170871       0.02931496
Cl       5.24538155       2.74091811       2.64717483       24      -0.18558501      -0.12334486       0.06771981
Rb       5.30315710      10.60349936       5.30627538       25       0.03859613      -0.06706605      -0.01840302
Ge       7.92575815       2.62291760       7.87756948       26       0.07429684      -0.13015012       0.01799661
Cl       8.00186197       2.61436340       5.25215983       27      -0.04623699      -0.01663432       0.23279373
Cl       7.88503723      10.69606985       7.86991807       28      -0.01193229      -0.93274386       0.11739422
Cl       5.24896787       2.63936879       7.99885292       29      -0.50786293      -0.13785322      -0.17795419
Rb       5.23468647       5.28656583      10.63110849       30      -0.00093477      -0.08907793      -0.08159114
Ge       7.94077996       7.88948846       2.68716865       31      -0.23956532      -0.23622213       0.17484118
Cl       7.90650254       7.85331191       0.05232634       32       0.07368629       0.01009882      -0.06866984
Cl       7.81680229       5.16691015       2.74702484       33       0.15154698       0.28384576      -0.02209660
Cl       5.51441209       7.83459413       2.54594417       34      -1.09164540       0.08737748       0.05152440
Rb       5.36530543       5.37252308       5.29051589       35       0.00070999      -0.01683937       0.04850303
Ge       7.90858672       7.85162553       8.08511481       36       0.14578093      -0.04159326      -0.39079237
Cl       7.84228041       7.85383434       5.39388539       37       0.04401037       0.03852514      -0.07899814
Cl       7.83620487       5.09954072       8.00253413       38       0.03565064       1.12308042      -0.03960605
Cl       5.23892060       7.90509133       8.04181814       39       0.26950651       0.04329920      -0.03367078
