40
Lattice="12.50401814956623 0.0 0.0 0.0 12.504018149566129 0.0 0.0 1.2570588993998018e-13 12.50401814956617" Properties=species:S:1:pos:R:3:spacegroup_kinds:I:1:forces:R:3 spacegroup="P 1" unit_cell=conventional candidate_id=2c09cab8e268c3e7 formula=CsGe0.094Sn0.91I3 config_index=0 rattle_stdev=0.0 method=PBE fidelity=phase2_force energy=-112.26310397635665 stress="0.0005570485856969843 -4.601903892459795e-11 4.601903892459827e-11 -4.601903892459795e-11 0.000557048585696993 4.601903332445529e-11 4.601903892459827e-11 4.601903332445529e-11 0.0005570485856969892" pbc="T T T"
Cs      12.45912705      12.45912705       0.04489110        0       0.00101517       0.00101517      -0.00101517
Sn       3.12600454       3.12600454       3.12600454        1       0.00021644       0.00021644       0.00021501
I        3.12600454       3.12600454      12.50331784        2      -0.00000333      -0.00000333       0.01827854
I        3.12600454      12.49840858       3.12600454        3      -0.00000403       0.00739971      -0.00000362
I       12.49840858       3.12600454       3.12600454        4       0.00739971      -0.00000403      -0.00000362
Cs      12.45912705      12.45912705       6.20711797        5       0.00101622       0.00101622       0.00101935
Sn       3.12600454       3.12600454       9.37801361        6       0.00022042       0.00022042      -0.00022042
I        3.12600454       3.12600454       6.25270939        7      -0.00000028      -0.00000028      -0.01827778
I        3.12600454       0.00070031       9.37801361        8      -0.00000333      -0.01827854       0.00000333
I        0.00070031       3.12600454       9.37801361        9      -0.01827854      -0.00000333       0.00000333
Cs      12.45912705       6.29690018       0.04489110       10       0.00101622      -0.00101935      -0.00101622
Sn       3.12600454       9.37801361       3.12600454       11       0.00015415      -0.00021707       0.00021707
I        3.12600454       9.37801361       0.00560957       12      -0.00000403       0.00000362      -0.00739971
I        3.12600454       6.25761865       3.12600454       13      -0.00000316      -0.00740051      -0.00000068
I       12.40058387       9.37801361       3.12600454       14       0.10668768       0.00000333      -0.00000333
Cs      12.45912705       6.29690018       6.20711797       15       0.00102167      -0.00102089       0.00102089
Sn       3.12600454       9.37801361       9.37801361       16       0.00021644      -0.00021501      -0.00021644
I        3.12600454       9.37801361       6.24639950       17      -0.00000316       0.00000068       0.00740051
I        3.12600454       6.25130876       9.37801361       18      -0.00000028       0.01827778       0.00000028
I       12.49840858       9.37801361       9.37801361       19       0.00739971       0.00000362       0.00000403
Cs       6.29690018      12.45912705       0.04489110       20      -0.00101935       0.00101622      -0.00101622
Sn       9.37801361       3.12600454       3.12600454       21      -0.00021707       0.00015415       0.00021707
I        9.37801361       3.12600454       0.00560957       22       0.00000362      -0.00000403      -0.00739971
I        9.37801361      12.40058387       3.12600454       23       0.00000333       0.10668768      -0.00000333
I        6.25761865       3.12600454       3.12600454       24      -0.00740051      -0.00000316      -0.00000068
Cs       6.29690018      12.45912705       6.20711797       25      -0.00102089       0.00102167       0.00102089
Sn       9.37801361       3.12600454       9.37801361       26      -0.00021501       0.00021644      -0.00021644
I        9.37801361       3.12600454       6.24639950       27       0.00000068      -0.00000316       0.00740051
I        9.37801361      12.49840858       9.37801361       28       0.00000362       0.00739971       0.00000403
I        6.25130876       3.12600454       9.37801361       29       0.01827778      -0.00000028       0.00000028
Cs       6.29690018       6.29690018       0.04489110       30      -0.00102089      -0.00102089      -0.00102167
Ge       9.37801361       9.37801361       3.12600454       31       0.00000880       0.00000880      -0.00000880
I        9.37801361       9.37801361       0.10343428       32       0.00000333       0.00000333      -0.10668768
I        9.37801361       6.35544336       3.12600454       33       0.00000142      -0.10664694      -0.00000142
I        6.35544336       9.37801361       3.12600454       34      -0.10664694       0.00000142      -0.00000142
Cs       6.29690018       6.29690018       6.20711797       35      -0.00102593      -0.00102593       0.00102593
Sn       9.37801361       9.37801361       9.37801361       36      -0.00021707      -0.00021707      -0.00015415
I        9.37801361       9.37801361       6.14857479       37       0.00000142       0.00000142       0.10664694
I        9.37801361       6.25761865       9.37801361       38       0.00000068      -0.00740051       0.00000316
I        6.25761865       9.37801361       9.37801361       39      -0.00740051       0.00000068       0.00000316
40
Lattice="12.50401814956623 0.0 0.0 0.0 12.504018149566129 0.0 0.0 1.2570588993998018e-13 12.50401814956617" Properties=species:S:1:pos:R:3:spacegroup_kinds:I:1:forces:R:3 spacegroup="P 1" unit_cell=conventional candidate_id=2c09cab8e268c3e7 formula=CsGe0.094Sn0.91I3 config_index=1 rattle_stdev=0.08 method=PBE fidelity=phase2_force energy=-111.93413729954845 stress="-0.001010837815757864 4.197185881341352e-05 -7.2650526072098726e-06 4.197185881341352e-05 -0.0005020105321635069 -6.172314743834005e-05 -7.2650526072098726e-06 -6.172314743834005e-05 -0.0013465119225671864" pbc="T T T"
Cs      12.37221134      12.38744184       0.02038715        0      -0.00635045       0.04073090       0.02874141
Sn       3.01880984       3.02947769       3.07466639        1       0.25857475       0.26211348       0.17140045
I        3.23064019       3.27364137      12.56964703        2      -0.07848902      -0.06321960       0.00528414
I        3.12414063      12.48172346       3.05267496        3       0.00870521       0.03140308       0.00003035
I       12.41242917       3.11911306       3.22007162        4       0.47660371      -0.00588086       0.00324963
Cs      12.32831971      12.55738257       6.29322887        5       0.04224909       0.02577307      -0.04279351
Sn       3.15758637       3.09498847       9.42508575        6       0.09962834      -0.00856127      -0.17243488
I        3.01134063       3.10011856       6.35294816        7       0.05306843       0.01995954      -0.16171286
I        3.06754513       0.11497912       9.45358592        8      -0.00923438      -0.44399391       0.01189020
I       -0.02041991       3.11294747       9.30088503        9       0.03614236       0.01256692       0.03657661
Cs      12.43171526       6.30081250       0.00492054       10      -0.00428206      -0.02956504       0.01560948
Sn       2.94905218       9.40280056       2.99883244       11       0.29462960      -0.26377862      -0.08417351
I        3.18436090       9.36938151      -0.04640415       12      -0.04755128       0.02426135       0.03735018
I        2.99056002       6.22814072       2.99877480       13       0.00737034       0.04058920       0.07794536
I       12.51902433       9.41596883       3.19911364       14      -0.27287422       0.00117911       0.01231955
Cs      12.53596467       6.30366358       6.34449645       15       0.01791197      -0.03732972      -0.02906183
Sn       3.19415595       9.31762279       9.19500327       16       0.26073264       0.04452008       0.23891736
I        3.13474363       9.34200096       6.21336171       17       0.00899282      -0.00736597      -0.05281485
I        3.15152324       6.20802013       9.45390693       18      -0.02001498       0.40701255      -0.05886972
I       12.51052338       9.38416581       9.37326158       19       0.26984460       0.02133166       0.00056806
Cs       6.29128908      12.41383512       0.06977153       20       0.01443447       0.02613756       0.02137373
Sn       9.43595032       3.16732054       3.20808699       21      -0.41034021      -0.20037140      -0.50339558
I        9.41962582       3.05641745       0.12565478       22       0.04273363       0.02840500      -0.35755297
I        9.47133138      12.43993702       3.06742356       23      -0.02528662       0.05833969       0.13206114
I        6.31204313       3.16672429       3.05900164       24      -0.30372192      -0.01698265       0.06678373
Cs       6.34871176      12.46013021       6.33188510       25      -0.03304910       0.01606008      -0.03523001
Sn       9.46078124       3.15301995       9.27380478       26      -0.13073217       0.26057601       0.29246469
I        9.28853007       3.23076575       6.20494214       27      -0.01331709      -0.03534247       0.42822954
I        9.34656367      12.58184606       9.38399083       28       0.03586750      -0.17237160      -0.03465966
I        6.25846373       3.13031713       9.41148937       29      -0.03366286      -0.00406957      -0.01301610
Cs       6.19868177       6.20973685       0.07026105       30       0.01623868      -0.00624631       0.01423554
Ge       9.31558117       9.30952313       3.02041483       31      -0.28182056       0.12582617      -0.14981655
I        9.41431614       9.45815560       0.21653306       32      -0.01183010      -0.04518757      -0.06794632
I        9.36279898       6.35785220       2.97613120       33       0.03872556       0.04396237       0.05830015
I        6.34610120       9.36781439       3.19817928       34       0.26428868      -0.00016420      -0.02174950
Cs       6.19175040       6.28893612       6.21836196       35      -0.00560326      -0.01847129      -0.01114702
Sn       9.58831809       9.51847592       9.16716179       36      -0.52850894      -0.28686380       0.31283081
I        9.27508205       9.36427584       6.29261109       37       0.10166761       0.05157623      -0.25405273
I        9.42670926       6.26014069       9.26070064       38       0.01030654       0.11879870       0.06182306
I        6.28237391       9.46939104       9.33714608       39      -0.13977591      -0.01760023       0.02144231
40
Lattice="12.50401814956623 0.0 0.0 0.0 12.504018149566129 0.0 0.0 1.2570588993998018e-13 12.50401814956617" Properties=species:S:1:pos:R:3:spacegroup_kinds:I:1:forces:R:3 spacegroup="P 1" unit_cell=conventional candidate_id=2c09cab8e268c3e7 formula=CsGe0.094Sn0.91I3 config_index=2 rattle_stdev=0.08 method=PBE fidelity=phase2_force energy=-111.84373030440177 stress="-0.0006913365306974101 6.918731589446362e-05 6.31369315108911e-06 6.918731589446362e-05 -0.00084075538223208 -3.181802191634773e-05 6.31369315108911e-06 -3.181802191634773e-05 -0.0002839904399919684" pbc="T T T"
Cs      12.45011001      12.37300193       0.18769326        0       0.02126256      -0.00176791      -0.06455847
Sn       3.00944587       3.09989887       3.02521282        1       0.59603981       0.25294408       0.08803277
I        3.15607386       3.05575275      12.47531977        2      -0.04983095       0.05099171       0.02165243
I        3.14973735      12.59448153       3.00048492        3      -0.01146771      -0.53620275       0.05128280
I       12.64673088       3.16552148       3.11554762        4      -0.80699553       0.01629192      -0.02712069
Cs      12.42687739      12.38123407       6.16972063        5      -0.01357379      -0.01132210       0.05408222
Sn       3.06857082       3.22371600       9.31583761        6       0.35008343      -0.02135472      -0.05073165
I        3.07892249       3.12139503       6.25907578        7       0.02580169      -0.08545066      -0.05862383
I        3.03134845      -0.12319908       9.45099411        8       0.01103668       0.36791821      -0.00914027
I        0.03371397       3.07034302       9.19491186        9      -0.15936985       0.02448432       0.05142391
Cs      12.39614773       6.21461884       0.05235575       10       0.02081635       0.02155631      -0.01411233
Sn       3.08366900       9.44043320       3.10993936       11       0.19412527      -0.18979181       0.05272615
I        3.08755585       9.29519264      -0.03460918       12       0.01629362      -0.04195866       0.34916526
I        3.18919575       6.18361884       3.30280736       13      -0.03338002       0.43280677      -0.07691179
I       12.28856497       9.35888582       3.14339179       14       0.47904951      -0.03803351       0.01341744
Cs      12.43093623       6.30377022       6.21565013       15      -0.00578731       0.01022679       0.01181853
Sn       3.11024204       9.48576832       9.40562753       16      -0.09055321      -0.28868669      -0.10621740
I        3.17061609       9.33039080       6.30502608       17      -0.02305523       0.06806421      -0.30144800
I        3.23250475       6.19290613       9.33915315       18      -0.03305410      -0.03253641       0.03334958
I       12.58456172       9.17038502       9.39136787       19      -0.06556920       0.02018013      -0.01046911
Cs       6.38001695      12.31444114       0.10558238       20      -0.02695675       0.04580173      -0.02950804
Sn       9.33800459       2.93846108       3.11737112       21      -0.24031814       0.14456495       0.15731526
I        9.25779060       3.16510683      -0.03864471       22       0.08057386       0.03042963       0.12453967
I        9.46261421      12.33103844       3.11999725       23      -0.00849381       0.34776597      -0.00933734
I        6.24904625       3.29391030       3.09876150       24       0.35809180      -0.13770686      -0.00417477
Cs       6.25466777      12.35555770       6.22424590       25       0.02011117       0.02008329       0.02080855
Sn       9.46811518       3.15812740       9.43926044       26      -0.34306748      -0.06538543      -0.20962515
I        9.26976342       3.17191322       6.22878853       27       0.05288743      -0.07404140      -0.09542927
I        9.42962873      12.41803103       9.52999270       28       0.02496428       0.42119615      -0.00458119
I        6.26865763       3.16600217       9.32788633       29       0.07404577      -0.06155363       0.00525453
Cs       6.21666944       6.23439536       0.06123332       30      -0.01541417      -0.02964381       0.00536915
Ge       9.42090097       9.29201382       2.94857616       31      -0.25650201      -0.23535712       0.26519319
I        9.42976803       9.35222675       0.08962915       32      -0.00441089      -0.04932783       0.02880468
I        9.19493987       6.34647985       3.20242964       33       0.11751716      -0.00624045      -0.08876321
I        6.39182241       9.54296781       3.13100137       34      -0.42541671      -0.01434398      -0.05271638
Cs       6.29712757       6.26061587       6.23699657       35      -0.00064554      -0.01491264      -0.00377789
Sn       9.31296433       9.36988901       9.41367067       36       0.18965682       0.08522100      -0.40794080
I        9.27600332       9.38664016       6.21675374       37       0.07044126       0.05752507       0.15733026
I        9.36546544       6.35272419       9.26023254       38       0.04890470      -0.52352790       0.05882282
I        6.32690191       9.30654245       9.33409596       39      -0.14279934       0.04415144       0.07390045
40
Lattice="12.50401814956623 0.0 0.0 0.0 12.504018149566129 0.0 0.0 1.2570588993998018e-13 12.50401814956617" Properties=species:S:1:pos:R:3:spacegroup_kinds:I:1:forces:R:3 spacegroup="P 1" unit_cell=conventional candidate_id=2c09cab8e268c3e7 formula=CsGe0.094Sn0.91I3 config_index=3 rattle_stdev=0.08 method=PBE fidelity=phase2_force energy=-111.62225049922313 stress="-0.0009026131603510953 0.0001458133451085918 4.6370933465366695e-05 0.0001458133451085918 -0.0008528978766996552 1.7146778975400218e-05 4.6370933465366695e-05 1.7146778975400218e-05 -0.0002514130594221574" pbc="T T T"
Cs      12.35344357      12.62046728       0.04869626        0       0.04441184       0.02785784       0.00912342
Sn       3.10699084       3.13273435       3.20276792        1      -0.26908633      -0.28812957      -0.59157097
I        3.07147666       3.16833017      12.44132438        2       0.03185202      -0.01346268      -0.07943482
I        3.23840103      12.48043414       3.02153368        3       0.01672425      -0.14786129       0.00445412
I       12.44412576       2.99632987       3.02360665        4       0.14613435       0.05694042       0.04426199
Cs      12.44118331      12.39108216       6.14665877        5      -0.02021469       0.00987148      -0.01468923
Sn       3.14705820       2.92158909       9.24439094        6       0.04151878       0.41956940       0.46878513
I        3.06906572       2.93026249       6.15057460        7      -0.03131205      -0.00954027       0.30094277
I        3.17909434      -0.10160641       9.31478084        8      -0.03217278       0.43969890       0.02317430
I       -0.11948935       3.03084134       9.55934882        9       0.32982813       0.03268038      -0.04017969
Cs      12.42098482       6.36863330      -0.09950396       10       0.02429138      -0.07165603       0.00314906
Sn       3.08670737       9.28205389       3.06158691       11      -0.04116156       0.29601424       0.00177450
I        3.23847003       9.35958836      -0.05148615       12      -0.04162641      -0.04151382       0.46321250
I        3.11299753       6.20330825       3.24713395       13      -0.01592751       0.18655465       0.00647138
I       12.26077804       9.43069598       3.09847524       14       0.99161567      -0.10096979       0.03131193
Cs      12.39843120       6.31066228       6.15453469       15      -0.02466792      -0.00108450       0.01051676
Sn       3.17022017       9.40862227       9.34831038       16      -0.11870004      -0.58545476       0.01062136
I        3.25225605       9.39535741       6.34332684       17      -0.00851006       0.01409111      -0.48076149
I        3.18452298       6.30522845       9.33158912       18      -0.02029391      -0.22856909      -0.03625412
I       12.49046141       9.25122442       9.37203630       19      -0.12844823       0.02892182       0.00530620
Cs       6.39280488      12.43789323      -0.00725287       20      -0.03292184       0.01704775       0.01278213
Sn       9.22629068       3.00278062       3.09457868       21       0.37682802       0.18822493       0.00920348
I        9.34485515       3.18288996       0.05701160       22      -0.06329817      -0.03136084      -0.13885115
I        9.56980052      12.38700128       3.04493384       23      -0.15939586      -0.03385485       0.04549054
I        6.22213415       3.19368271       3.16555326       24      -0.12019330      -0.03376480       0.02162664
Cs       6.31919124      12.50089432       6.23252731       25       0.01381927      -0.03509128      -0.00604529
Sn       9.39618452       3.09477730       9.32057220       26      -0.07513465      -0.05860750       0.00743445
I        9.50154251       3.05696893       6.21769330       27      -0.01591794       0.00683814       0.14217101
I        9.38471776      12.63274634       9.28366663       28      -0.02942695      -0.82574729       0.06522564
I        6.21941059       3.09213339       9.42276056       29      -0.20566006      -0.04003585      -0.06066329
Cs       6.25072060       6.30259997       0.11426751       30      -0.00600256      -0.03169617      -0.03584495
Ge       9.41120633       9.35991483       3.18645199       31      -0.17139345      -0.14564203       0.12443795
I        9.39602400       9.34283337       0.15576063       32       0.02760766      -0.01624335      -0.19304657
I        9.30632375       6.24148746       3.26540327       33       0.08561825       0.06135773      -0.02714482
I        6.58898941       9.32411559       3.06432260       34      -0.82679012       0.05552535       0.03649965
Cs       6.38133956       6.38855722       6.21676782       35       0.00345791       0.01340239       0.02366150
Sn       9.37901309       9.32205190       9.52811754       36       0.07464446       0.00271272      -0.16471408
I        9.34196094       9.35351487       6.26159414       37       0.02005334       0.02535144       0.00378905
I        9.32572633       6.07629332       9.42644177       38      -0.00799461       0.84403939      -0.00588598
I        6.21567321       9.39461279       9.46572578       39       0.23629275       0.01007177      -0.00171776
