Cs Pb I  Cs Pb I  Cs Pb I  Cs Pb I  Cs Pb I  Cs Pb I  Cs Sn I  Cs Pb I 
 1.0000000000000000
    13.5533985177150313    0.0000000000000000    0.0000000000000000
     0.0000000000000000   13.5533985177150313    0.0000000000000000
     0.0000000000000000    0.0000000000000000   13.5533985177150313
 Cs  Pb  I   Cs  Pb  I   Cs  Pb  I   Cs  Pb  I   Cs  Pb  I   Cs  Pb  I   Cs  Sn  I   Cs  Pb  I  
   1   1   3   1   1   3   1   1   3   1   1   3   1   1   3   1   1   3   1   1   3   1   1   3
Cartesian
  0.0000000000000000  0.0000000000000000  0.0000000000000000
  3.3883496294287578  3.3883496294287578  3.3883496294287578
  3.3883496294287578  3.3883496294287578  0.0000000000000000
  3.3883496294287578  0.0000000000000000  3.3883496294287578
  0.0000000000000000  3.3883496294287578  3.3883496294287578
  0.0000000000000000  0.0000000000000000  6.7766992588575148
  3.3883496294287578  3.3883496294287578 10.1650488882862735
  3.3883496294287578  3.3883496294287578  6.7766992588575148
  3.3883496294287578  0.0000000000000000 10.1650488882862735
  0.0000000000000000  3.3883496294287578 10.1650488882862735
  0.0000000000000000  6.7766992588575148  0.0000000000000000
  3.3883496294287578 10.1650488882862735  3.3883496294287578
  3.3883496294287578 10.1650488882862735  0.0000000000000000
  3.3883496294287578  6.7766992588575148  3.3883496294287578
  0.0000000000000000 10.1650488882862735  3.3883496294287578
  0.0000000000000000  6.7766992588575148  6.7766992588575148
  3.3883496294287578 10.1650488882862735 10.1650488882862735
  3.3883496294287578 10.1650488882862735  6.7766992588575148
  3.3883496294287578  6.7766992588575148 10.1650488882862735
  0.0000000000000000 10.1650488882862735 10.1650488882862735
  6.7766992588575148  0.0000000000000000  0.0000000000000000
 10.1650488882862735  3.3883496294287578  3.3883496294287578
 10.1650488882862735  3.3883496294287578  0.0000000000000000
 10.1650488882862735  0.0000000000000000  3.3883496294287578
  6.7766992588575148  3.3883496294287578  3.3883496294287578
  6.7766992588575148  0.0000000000000000  6.7766992588575148
 10.1650488882862735  3.3883496294287578 10.1650488882862735
 10.1650488882862735  3.3883496294287578  6.7766992588575148
 10.1650488882862735  0.0000000000000000 10.1650488882862735
  6.7766992588575148  3.3883496294287578 10.1650488882862735
  6.7766992588575148  6.7766992588575148  0.0000000000000000
 10.1650488882862735 10.1650488882862735  3.3883496294287578
 10.1650488882862735 10.1650488882862735  0.0000000000000000
 10.1650488882862735  6.7766992588575148  3.3883496294287578
  6.7766992588575148 10.1650488882862735  3.3883496294287578
  6.7766992588575148  6.7766992588575148  6.7766992588575148
 10.1650488882862735 10.1650488882862735 10.1650488882862735
 10.1650488882862735 10.1650488882862735  6.7766992588575148
 10.1650488882862735  6.7766992588575148 10.1650488882862735
  6.7766992588575148 10.1650488882862735 10.1650488882862735
