40
Lattice="11.732351420143718 0.0 0.0 0.0 11.733083063992446 0.0 0.0 1.3357877146295866e-13 11.732351420143857" Properties=species:S:1:pos:R:3:spacegroup_kinds:I:1:forces:R:3 spacegroup="P 1" unit_cell=conventional candidate_id=275e9df3edf263ba formula=Cs0.8K0.2SnBr3 config_index=0 rattle_stdev=0.0 method=PBE fidelity=phase2_force energy=-126.57910353000226 stress="3.961362336949096e-05 0.0 0.0 0.0 2.0576256857103604e-05 -2.34271120412919e-19 0.0 -2.34271120412919e-19 3.961362336948984e-05" pbc="T T T"
Cs       0.00000000       0.00000000       0.00000000        0       0.00000000       0.00000000       0.00000000
Sn       2.93308786       2.95259853       2.93308786        1       0.00000000       0.01038025       0.00000000
Br       2.95921373       3.01137131      11.73235142        2       0.00251308      -0.00801456       0.00000000
Br       2.93308786      11.73308306       2.93308786        3       0.00000000       0.00000000       0.00000000
Br      11.73235142       3.01137131       2.95921373        4       0.00000000      -0.00801456       0.00251308
Cs       0.00000000       0.00000000       5.86617571        5       0.00000000      -0.00000000      -0.00000000
Sn       2.93308786       2.95259853       8.79926357        6       0.00000000       0.01038025      -0.00000000
Br       2.90696198       3.01137131       5.86617571        7      -0.00251308      -0.00801456       0.00000000
Br       2.93308786      11.73308306       8.79926357        8       0.00000000       0.00000000      -0.00000000
Br      11.73235142       3.01137131       8.77313769        9       0.00000000      -0.00801456      -0.00251308
Cs       0.00000000       5.86654153       0.00000000       10       0.00000000      -0.00000000      -0.00000000
Sn       2.93308786       8.78048454       2.93308786       11       0.00000000      -0.01038025       0.00000000
Br       2.95921373       8.72171176      11.73235142       12       0.00251308       0.00801456       0.00000000
Br       2.93308786       5.86654153       2.93308786       13      -0.00000000       0.00000000      -0.00000000
Br      11.73235142       8.72171176       2.95921373       14       0.00000000       0.00801456       0.00251308
K       11.73235142       5.86654153       5.86617571       15       0.00000000       0.00000000       0.00000000
Sn       2.93308786       8.78048454       8.79926357       16       0.00000000      -0.01038025      -0.00000000
Br       2.90696198       8.72171176       5.86617571       17      -0.00251308       0.00801456       0.00000000
Br       2.93308786       5.86654153       8.79926357       18      -0.00000000      -0.00000000       0.00000000
Br      11.73235142       8.72171176       8.77313769       19       0.00000000       0.00801456      -0.00251308
Cs       5.86617571       0.00000000       0.00000000       20       0.00000000       0.00000000       0.00000000
Sn       8.79926357       2.95259853       2.93308786       21      -0.00000000       0.01038025       0.00000000
Br       8.77313769       3.01137131      11.73235142       22      -0.00251308      -0.00801456       0.00000000
Br       8.79926357      11.73308306       2.93308786       23      -0.00000000      -0.00000000       0.00000000
Br       5.86617571       3.01137131       2.90696198       24       0.00000000      -0.00801456      -0.00251308
Cs       5.86617571       0.00000000       5.86617571       25       0.00000000       0.00000000       0.00000000
Sn       8.79926357       2.95259853       8.79926357       26      -0.00000000       0.01038025      -0.00000000
Br       8.82538944       3.01137131       5.86617571       27       0.00251308      -0.00801456      -0.00000000
Br       8.79926357      11.73308306       8.79926357       28      -0.00000000      -0.00000000      -0.00000000
Br       5.86617571       3.01137131       8.82538944       29      -0.00000000      -0.00801456       0.00251308
K        5.86617571       5.86654153      11.73235142       30       0.00000000       0.00000000       0.00000000
Sn       8.79926357       8.78048454       2.93308786       31      -0.00000000      -0.01038025       0.00000000
Br       8.77313769       8.72171176      11.73235142       32      -0.00251308       0.00801456       0.00000000
Br       8.79926357       5.86654153       2.93308786       33       0.00000000       0.00000000      -0.00000000
Br       5.86617571       8.72171176       2.90696198       34      -0.00000000       0.00801456      -0.00251308
Cs       5.86617571       5.86654153       5.86617571       35       0.00000000       0.00000000       0.00000000
Sn       8.79926357       8.78048454       8.79926357       36      -0.00000000      -0.01038025      -0.00000000
Br       8.82538944       8.72171176       5.86617571       37       0.00251308       0.00801456       0.00000000
Br       8.79926357       5.86654153       8.79926357       38       0.00000000      -0.00000000       0.00000000
Br       5.86617571       8.72171176       8.82538944       39       0.00000000       0.00801456       0.00251308
40
Lattice="11.732351420143718 0.0 0.0 0.0 11.733083063992446 0.0 0.0 1.3357877146295866e-13 11.732351420143857" Properties=species:S:1:pos:R:3:spacegroup_kinds:I:1:forces:R:3 spacegroup="P 1" unit_cell=conventional candidate_id=275e9df3edf263ba formula=Cs0.8K0.2SnBr3 config_index=1 rattle_stdev=0.08 method=PBE fidelity=phase2_force energy=-126.00026153770152 stress="-0.002226338166734702 0.00012224658457269657 7.840848677023109e-06 0.00012224658457269657 -0.0012542446498515704 -0.00013460089372401875 7.840848677023109e-06 -0.00013460089372401875 -0.002767762982281886" pbc="T T T"
Cs      -0.08691571      -0.07168521      -0.02450395        0      -0.02984866       0.04498609       0.03535842
Sn       2.82589316       2.85607168       2.88174971        1       0.35779408       0.35064258       0.18377721
Br       3.06384938       3.15900814      11.79868062        2      -0.07432035      -0.08978063       0.02162821
Br       2.93122395      11.71639795       2.85975828        3      -0.03929568       0.02846436      -0.02878421
Br      11.64637201       3.00447983       3.05328081        4       0.49687897      -0.02116541      -0.00750553
Cs      -0.13080734       0.09825552       5.95228661        5       0.06653181       0.04136280      -0.06915528
Sn       2.96466968       2.92158246       8.84633571        6       0.11207015      -0.00619855      -0.15730656
Br       2.79229808       2.98548533       5.96641449        7       0.05648217       0.00282646      -0.14139371
Br       2.87462845      11.84736187       8.87483588        8      -0.00064300      -0.42032191      -0.02086011
Br      11.71123120       2.99831424       8.69600911        9       0.06491264      -0.00012660       0.01526322
Cs      -0.02741179       5.87045385      -0.03997056       10      -0.01214523      -0.04122483       0.02095455
Sn       2.75613549       8.80527149       2.80591575       11       0.83344788      -0.28656310      -0.09572911
Br       3.01757010       8.71307966      11.68033770       12      -0.07957962       0.03660735       0.01886051
Br       2.79764333       5.83706361       2.80585812       13      -0.00484639       0.02545666       0.08204960
Br      11.85079189       8.75966697       3.03232283       14      -0.79650749       0.01950907       0.01589967
K       11.80918904       5.87330494       6.00355418       15       0.04382528      -0.06127485       0.01312463
Sn       3.00123927       8.72009371       8.61625322       16       0.28939123       0.07869113       0.36222064
Br       2.91570108       8.68569911       5.83313791       17      -0.01632208      -0.02173420      -0.07025870
Br       2.95860656       5.82325290       8.87515688       18      -0.01565224       0.42815912      -0.08776297
Br      11.74446622       8.72786395       8.76838566       19       0.29679975       0.01647773      -0.07389968
Cs       5.86056461      -0.04529192       0.02488043       20       0.02793011       0.02772037       0.03147703
Sn       8.85720027       2.99391453       3.01517031       21      -0.50068536      -0.28516009      -0.60685253
Br       8.81474990       2.94178422      11.85239663       22       0.07905554       0.00790640      -0.35649476
Br       8.89258134      11.77243622       2.87450688       23      -0.01542922      -0.11118006       0.10022405
Br       5.92060020       3.05209105       2.83995908       24      -0.33577687      -0.03138387       0.07087596
Cs       5.91798730       0.00100316       5.99094284       25      -0.04070774       0.01637993      -0.05385334
Sn       8.88203119       2.97961394       8.69505473       26      -0.22783697       0.29407034       0.38226928
Br       8.73590590       3.11613252       5.82471835       27       0.00155448      -0.06203319       0.47576443
Br       8.76781362      11.81652054       8.80524078       28       0.07248437      -0.16006190      -0.11321217
Br       5.87333067       3.01568390       8.85886520       29      -0.05323593      -0.02852764      -0.03818585
K        5.76795731       5.77937821      11.75772137       30      -0.03276911      -0.05717814       0.05114074
Sn       8.73683112       8.71199405       2.82749814       31      -0.23924156       0.24700043       0.11240755
Br       8.80944022       8.80185374      11.84545019       32       0.00917969       0.00252857      -0.16639569
Br       8.78404893       5.86895038       2.78321452       33       0.02088883       0.14218362       0.00208013
Br       5.85683355       8.71151253       2.97913672       34       0.31837730       0.01269290      -0.02949180
Cs       5.76102594       5.85857747       5.87741970       35      -0.00281117      -0.02814166      -0.03211881
Sn       9.00956804       8.92094684       8.58841174       36      -0.62337215      -0.32709560       0.94351687
Br       8.72245788       8.70797398       6.01021201       37       0.05957963       0.05574364      -0.81203053
Br       8.84795922       5.86906358       8.68195059       38       0.06071646       0.14583322       0.02837821
Br       5.89093097       8.81308918       8.78452191       39      -0.12740352       0.00747218      -0.03704556
40
Lattice="11.732351420143718 0.0 0.0 0.0 11.733083063992446 0.0 0.0 1.3357877146295866e-13 11.732351420143857" Properties=species:S:1:pos:R:3:spacegroup_kinds:I:1:forces:R:3 spacegroup="P 1" unit_cell=conventional candidate_id=275e9df3edf263ba formula=Cs0.8K0.2SnBr3 config_index=2 rattle_stdev=0.08 method=PBE fidelity=phase2_force energy=-126.00289117179781 stress="-0.0014236834643319648 7.282618388885695e-07 1.2476430313413297e-05 7.282618388885695e-07 -0.001555182477827339 -7.968806533212098e-06 1.2476430313413297e-05 -7.968806533212098e-06 -0.001053866968944035" pbc="T T T"
Cs      -0.00901704      -0.08612512       0.14280215        0       0.02984934      -0.00464751      -0.09408575
Sn       2.81652919       2.92649286       2.83229614        1       0.76595204       0.29285989       0.16400417
Br       2.98928305       2.94111952      11.70435336        2      -0.09520270       0.05967347       0.01666909
Br       2.95682067      11.82915602       2.80756824        3      -0.05090467      -0.58170230       0.04206963
Br      11.88067372       3.05088825       2.94875681        4      -0.89421002      -0.01038826      -0.04345923
Cs      -0.03224966      -0.07789298       5.82877837        5      -0.01517870      -0.01378377       0.07755791
Sn       2.87565414       3.05030999       8.73708756        6       0.42496561      -0.08675243      -0.07795019
Br       2.85987993       3.00676180       5.87254210        7       0.00231963      -0.10061218      -0.03306747
Br       2.83843177      11.60918367       8.87224406        8      -0.01550231       0.35778305      -0.01498308
Br      11.76536508       2.95570979       8.59003594        9      -0.14190128       0.05440539       0.06103318
Cs      -0.06297932       5.78426020       0.00746465       10       0.03737107       0.02930768      -0.03016625
Sn       2.89075232       8.84290413       2.91702268       11       0.27046095      -0.28131312       0.09107556
Br       2.92076504       8.63889079      11.69213267       12       0.00864501      -0.00692220       0.39613052
Br       2.99627907       5.79254172       3.10989068       13      -0.07537369       0.51386600      -0.10640834
Br      11.62033253       8.70258397       2.97660098       14       0.54580032       0.00013177       0.00396653
K       11.70416060       5.87341157       5.87470787       15      -0.00105749       0.01733612       0.03553200
Sn       2.91732536       8.88823925       8.82687748       16      -0.09694342      -0.37252871      -0.14745899
Br       2.95157353       8.67408894       5.92480229       17      -0.04437536       0.13435377      -0.33519281
Br       3.03958807       5.80813890       8.76040310       18      -0.05116412      -0.05080377       0.05738446
Br      11.81850456       8.51408316       8.78649195       19      -0.04469323       0.05995284      -0.01911629
Cs       5.94929248      -0.14468591       0.06069128       20      -0.04267630       0.06180688      -0.04489518
Sn       8.75925454       2.76505507       2.92445444       21      -0.31397890       0.50485244       0.19557212
Br       8.65291468       3.05047360      11.68809714       22       0.09011300       0.01107384       0.15965802
Br       8.88386417      11.66353764       2.92708057       23      -0.00387836       0.12287432      -0.02024770
Br       5.85760331       3.17927707       2.87971895       24       0.42175132      -0.21646486      -0.03044392
Cs       5.82394330      -0.10356935       5.88330363       25       0.02700748       0.01641150       0.02726803
Sn       8.88936513       2.98472139       8.86051039       26      -0.46043884      -0.06541974      -0.29339943
Br       8.71713924       3.05727999       5.84856474       27       0.06488134      -0.13946502      -0.11655744
Br       8.85087868      11.65270552       8.95124265       28       0.01394004       0.44291279       0.00009100
Br       5.88352458       3.05136894       8.77526215       29       0.09284692      -0.07796318       0.01194784
K        5.78594497       5.80403671      11.74869364       30      -0.03171669      -0.08590077       0.01389096
Sn       8.84215093       8.69448474       2.75565947       31      -0.43713396      -0.23775530       0.62306386
Br       8.82489211       8.69592489      11.71854629       32       0.00953309      -0.03422392       0.06904342
Br       8.61618982       5.85757802       3.00951296       33       0.13728342      -0.05550984      -0.10719172
Br       5.90255476       8.88666595       2.91195882       34      -0.39772763       0.05035124      -0.05806057
Cs       5.86640311       5.83025723       5.89605431       35       0.00763068      -0.01647524      -0.01934070
Sn       8.73421429       8.77235994       8.83492062       36       0.22091837       0.07327971      -0.53945692
Br       8.72337915       8.73033830       5.93435466       37       0.06353803       0.10985327      -0.10393023
Br       8.78671540       5.96164707       8.68148249       38       0.07615262      -0.56254074       0.07935727
Br       5.93545898       8.65024059       8.78147179       39      -0.10798420       0.09284300       0.09701455
40
Lattice="11.732351420143718 0.0 0.0 0.0 11.733083063992446 0.0 0.0 1.3357877146295866e-13 11.732351420143857" Properties=species:S:1:pos:R:3:spacegroup_kinds:I:1:forces:R:3 spacegroup="P 1" unit_cell=conventional candidate_id=275e9df3edf263ba formula=Cs0.8K0.2SnBr3 config_index=3 rattle_stdev=0.08 method=PBE fidelity=phase2_force energy=-125.82928128994122 stress="-0.001594452742312976 0.0001807583325340164 4.0257816867204816e-05 0.0001807583325340164 -0.0016694803806660398 0.00015565068590680126 4.0257816867204816e-05 0.00015565068590680126 -0.0009822347305806607" pbc="T T T"
Cs      -0.10568348       0.16134023       0.00380516        0       0.05197913       0.05745804       0.02863073
Sn       2.91407416       2.95932834       3.00985124        1      -0.28590047      -0.34538495      -0.72943107
Br       2.90468585       3.05369694      11.67035796        2       0.04651035      -0.05043084      -0.13150449
Br       3.04548435      11.71510863       2.82861700        3       0.01146019      -0.17087481       0.02717959
Br      11.67806860       2.88169664       2.85681585        4       0.10998719       0.04051262       0.04598399
Cs      -0.01794374      -0.06804488       5.80571650        5      -0.03267606       0.01753862      -0.01834423
Sn       2.95414152       2.74818308       8.66564089        6       0.04350777       0.54046557       0.59539937
Br       2.85002317       2.81562926       5.76404092        7      -0.01098992      -0.02848209       0.35015002
Br       2.98617766      11.63077635       8.73603079        8      -0.00259712       0.50644061       0.00148947
Br      11.61216176       2.91620811       8.95447290        9       0.37325570      -0.01583475      -0.05866936
Cs      -0.03814223       5.93827465      -0.14439506       10       0.03972037      -0.10935272       0.01647280
Sn       2.89379069       8.68452481       2.86867023       11       0.07399545       0.32984428      -0.00420086
Br       3.07167922       8.70328650      11.67525570       12      -0.04620154      -0.05078997       0.53853717
Br       2.92008085       5.81223114       3.05421727       13      -0.04533823       0.25203365       0.02449632
Br      11.59254559       8.77439412       2.93168443       14       1.10860748      -0.07372071       0.00546432
K       11.67165557       5.88030363       5.81359243       15      -0.05639862       0.00628034      -0.00246884
Sn       2.97730349       8.81109320       8.76956034       16      -0.13848923      -0.64430402       0.04088905
Br       3.03321350       8.73905556       5.96310304       17      -0.01012149       0.04297560      -0.52930141
Br       2.99160630       5.92046122       8.75283908       18      -0.01931090      -0.28649868      -0.05731038
Br      11.72440425       8.59492256       8.76716038       19      -0.17964101       0.04222174       0.00044353
Cs       5.96208042      -0.02123382      -0.05214397       20      -0.05098319       0.02824262       0.02043411
Sn       8.64754064       2.82937461       2.90166200       21       0.45793078       0.35697230      -0.00585869
Br       8.73997922       3.06825673      11.78375345       22      -0.06722587      -0.07075528      -0.11375384
Br       8.99105047      11.71950048       2.85201716       23      -0.13137197      -0.26973708       0.01007185
Br       5.83069122       3.07904948       2.94651070       24      -0.15446021      -0.05950731       0.03025973
Cs       5.88846677       0.04176727       5.89158505       25       0.01934077      -0.04102055      -0.01193601
Sn       8.81743447       2.92137129       8.74182216       26      -0.09346513      -0.08433456       0.04127424
Br       8.94891833       2.94233570       5.83746950       27      -0.01540506      -0.02000381       0.13951844
Br       8.80596771      11.86742083       8.70491659       28      -0.01267316      -0.84552592       0.07364452
Br       5.83427754       2.97750016       8.87013639       29      -0.29586818      -0.09972241      -0.09446861
K        5.81999613       5.87224132      11.80172783       30      -0.02056283      -0.03274660      -0.03178141
Sn       8.83245628       8.76238576       2.99353531       31      -0.16633864      -0.20478782       0.17436526
Br       8.79114808       8.68653151      11.78467776       32       0.03564708       0.00746287       0.05483050
Br       8.72757370       5.75258564       3.07248659       33       0.10102491       0.22644340      -0.00595787
Br       6.09972176       8.66781374       2.84528004       34      -1.00957190       0.03073932      -0.01061364
Cs       5.95061509       5.95819857       5.87582556       35       0.00577651      -0.00169208       0.03404436
Sn       8.80026304       8.72452282       8.94936750       36       0.08211279      -0.01877822      -0.36018423
Br       8.78933677       8.69721301       5.97919506       37       0.01537941       0.02770226      -0.07615955
Br       8.74697628       5.68521621       8.84769172       38      -0.00023903       0.97447140      -0.00291597
Br       5.82423027       8.73831094       8.91310161       39       0.25309819       0.02971282      -0.00732740
