40
Lattice="12.399645919497523 0.0 0.0 0.004078412767249922 12.305355100403037 0.0 -0.0006599153494970787 0.004109882666508124 12.399645220823357" Properties=species:S:1:pos:R:3:spacegroup_kinds:I:1:forces:R:3 spacegroup="P 1" unit_cell=conventional candidate_id=8777a166c1c8a4be formula=MASnBr0.2I0.83 config_index=0 rattle_stdev=0.0 method=PBE fidelity=phase2_force energy=-115.16008548886573 stress="-0.001468464989201246 -4.192812374495304e-06 7.515742514455713e-06 -4.192812374495304e-06 0.0004244472777947707 -4.825233025064585e-06 7.515742514455713e-06 -4.825233025064585e-06 -0.0014685427973157668" pbc="T T T"
Cs       0.05580969      12.30206685       0.05280258        0      -0.00087132      -0.00284869      -0.00650762
Sn       3.21534801       3.22991289       3.08791276        1      -0.10389556      -0.07463919       0.00242148
I        3.18201108       3.23822026       0.01292486        2      -0.00216703      -0.00947640      -0.06743610
I        3.17056587      12.30636045       3.03317390        3      -0.00046398       0.00001315       0.00046081
I        0.03463744       3.21418790       3.10226091        4       0.01386762      -0.00267613       0.00176849
Cs       0.05337606       0.00203714       6.14611945        5      -0.00385045       0.00000503       0.00385487
Sn       3.11096048       3.23473281       9.30644710        6      -0.00832328      -0.01846011       0.00591213
I        3.17937764       3.23434113       6.17958368        7      -0.00136832      -0.01140053       0.06914368
I        3.09811390      12.23167623       9.40897096        8       0.00007208       0.03229029      -0.00518584
I        0.01613984       3.15073016       9.29533921        9      -0.07012799      -0.01479778      -0.00449113
Cs       0.04657030       6.15027371       0.04105962       10       0.00516029      -0.00012032      -0.00882015
Sn       3.11475939       9.07745521       2.98538061       11      -0.00201081       0.07467125       0.10342598
Br       3.10296929       9.10564655      12.37740304       12      -0.00370412      -0.03563819      -0.00515969
Br       3.17511009       6.15368072       3.02659083       13       0.01177033      -0.00001261      -0.01177119
I        0.02308527       9.07406359       3.02118756       14      -0.06915438       0.01142295       0.00135929
Cs       0.04528158       6.15471805       6.15625260       15      -0.00543745      -0.00000181       0.00543903
Sn       3.10262870       9.11249647       9.46369597       16       0.00092529       0.07219580      -0.05798562
I        3.10024718       9.09423921       6.16608502       17      -0.00177485       0.00267075      -0.01387636
Br       3.10488369       6.09580011       9.34976844       18      -0.00704047      -0.01336742       0.00723197
I        0.03343741       9.15758305       9.39295068       19      -0.15058508      -0.00348139      -0.00770591
Cs       6.15141708       0.00001604       0.04840330       20       0.00553396       0.00000353      -0.00552786
Sn       9.13666667       3.19702279       3.09970957       21       0.05806518      -0.07221547      -0.00048669
I        9.20628337       3.15729971       0.03144219       22       0.00870046      -0.00067379      -0.15219340
I        9.19035758       0.07782674       3.10526109       23       0.00517727      -0.03227941      -0.00006927
Br       6.22296205       3.20483830       3.09921133       24       0.00512544       0.03563817       0.00368017
Cs       6.14669426       0.00534355       6.14808743       25       0.00651608       0.00285595       0.00087417
Sn       9.29125337       3.09494280       9.29861053       26      -0.00063872      -0.00056367      -0.00026780
I        9.20723366       3.15293005       6.16891941       27       0.00770182       0.00352774       0.15057514
I        9.30445695       0.00308068       9.29451675       28       0.00266170      -0.00000113      -0.00265260
I        6.18587731       3.16134048       9.29439131       29       0.06963686      -0.02037571      -0.00492171
Cs       6.16049701       6.15269126       0.04136295       30      -0.00088391      -0.00000444       0.00089178
Sn       9.29586417       9.07473093       3.08943809       31      -0.00629741       0.01846064       0.00871580
I        9.30810793       9.14710007       0.01449775       32       0.00493808       0.02034907      -0.06964342
Br       9.25159420       6.21368031       3.09646083       33      -0.00722474       0.01336393       0.00702336
I        6.18974260       9.06813974       3.01888427       34       0.06745017       0.00945259       0.00216554
Cs       6.16047576       6.15713518       6.15528853       35       0.00882455       0.00010749      -0.00515701
Sn       9.30341607       9.21657974       9.30874485       36      -0.00010738       0.00056374       0.00024772
I        9.30683519       9.15975567       6.18423130       37       0.00450266       0.01482086       0.07012314
I        9.30464504       6.15575885       9.29636776       38       0.00812608      -0.00000205      -0.00811980
I        6.17091278       9.15117954       9.39422974       39       0.15220818       0.00062102      -0.00869201
40
Lattice="12.399645919497523 0.0 0.0 0.004078412767249922 12.305355100403037 0.0 -0.0006599153494970787 0.004109882666508124 12.399645220823357" Properties=species:S:1:pos:R:3:spacegroup_kinds:I:1:forces:R:3 spacegroup="P 1" unit_cell=conventional candidate_id=8777a166c1c8a4be formula=MASnBr0.2I0.83 config_index=1 rattle_stdev=0.08 method=PBE fidelity=phase2_force energy=-114.61825933022878 stress="-0.003107374931223691 -7.587719838842578e-05 5.246327994122099e-05 -7.587719838842578e-05 -0.0005592092658233756 -3.8326291708550306e-05 5.246327994122099e-05 -3.8326291708550306e-05 -0.003655383673800597" pbc="T T T"
Cs      -0.03110602      12.23038164       0.02829863        0      -0.01480928       0.03725693       0.02175191
Sn       3.10815331       3.13338605       3.03657461        1       0.06791750       0.13764751       0.26245655
I        3.28664673       3.38585710       0.07925405        2      -0.11475740      -0.12892099      -0.11928623
I        3.16870197      12.28967533       2.95984432        3      -0.02675857       0.03891457       0.00196359
I       -0.05134197       3.20729642       3.19632799        4       0.31017653      -0.00534145      -0.01266882
Cs      -0.07743128       0.10029266       6.23223035        5       0.04561604       0.03319739      -0.03987791
Sn       3.14254231       3.20371674       9.35351924        6       0.05893161      -0.21355550      -0.15308379
I        3.06471373       3.20845515       6.27982245        7       0.05279388      -0.00686957      -0.09188144
I        3.03965449      12.34595503       9.48454327        8       0.00032864      -0.25022579      -0.03169169
I       -0.00498038       3.13767309       9.21821063        9       0.02692117      -0.01457541       0.02816763
Cs       0.01915851       6.15418603       0.00108906       10      -0.00204547      -0.03387182       0.02027628
Sn       2.93780703       9.10224216       2.85820851       11       0.92029414      -0.15754663      -0.08677705
Br       3.16132566       9.09701445      12.32538932       12      -0.07823735      -0.01915163       0.04553693
Br       3.03966557       6.12420280       2.89936109       13      -0.00216558       0.06226010       0.06711124
I        0.14152574       9.11201880       3.09429667       14      -0.95425829       0.02010237       0.04109279
Cs       0.12211920       6.16148146       6.29363108       15       0.01609486      -0.03321174      -0.02021674
Sn       3.17078012       9.05210565       9.28068562       16       0.21711655       0.15663363       0.06507443
I        3.10898627       9.05822656       6.13304722       17      -0.00878599       0.01273119       0.09626423
Br       3.13040239       6.05251148       9.42566176       18      -0.02727491       0.37563920      -0.04711768
I        0.04555222       9.16373525       9.38819865       19       0.11680450       0.02259350      -0.01309487
Cs       6.14580599      -0.04527588       0.07328373       20       0.01917077       0.01283775       0.01135618
Sn       9.19460338       3.23833879       3.18179203       21      -0.18163684      -0.25897492      -0.59310608
I        9.24789558       3.08771263       0.15148740       22       0.04977613       0.03864790      -0.55540744
I        9.28367535       0.11717990       3.04668012       23      -0.00925468      -0.10762704       0.13579676
Br       6.27738654       3.24555805       3.03220843       24      -0.19782323       0.01769939       0.07305285
Cs       6.19850585       0.00634671       6.27285455       25      -0.03610704       0.00324448      -0.03115437
Sn       9.37402100       3.12195822       9.19440170       26      -0.15458952       0.27966197       0.29944957
I        9.11775012       3.25769126       6.12746205       27      -0.00232666      -0.04874320       0.64772562
I        9.27300700       0.08651816       9.30049397       28       0.02687982      -0.19791524      -0.04188447
I        6.19303227       3.16565307       9.32786707       29       0.02655672      -0.02139000      -0.01491633
Cs       6.06227861       6.06552794       0.06673290       30       0.07888442       0.06815219       0.03335289
Sn       9.23343173       9.00624045       2.98384838       31      -0.19579236       0.22447273       0.27060323
I        9.34441047       9.22724206       0.12759653       32       0.01303897       0.00523871      -0.42933228
Br       9.23637957       6.21608915       2.94658749       33       0.03304851       0.02008758       0.01649414
I        6.18040044       9.05794051       3.09105902       34       0.28571560       0.00719206       0.00679454
Cs       6.05532598       6.14917112       6.16653252       35      -0.00872676      -0.01747407      -0.01702211
Sn       9.51372055       9.35704204       9.09789303       36      -0.43955871      -0.29643114       0.84381237
I        9.20390363       9.14601790       6.32826760       37       0.03981133       0.06290418      -0.79938507
I        9.35334069       6.15828089       9.17905479       38       0.00476221       0.18730674       0.08855744
I        6.19566804       9.24255697       9.35336221       39       0.04371998      -0.01094067       0.02221037
40
Lattice="12.399645919497523 0.0 0.0 0.004078412767249922 12.305355100403037 0.0 -0.0006599153494970787 0.004109882666508124 12.399645220823357" Properties=species:S:1:pos:R:3:spacegroup_kinds:I:1:forces:R:3 spacegroup="P 1" unit_cell=conventional candidate_id=8777a166c1c8a4be formula=MASnBr0.2I0.83 config_index=2 rattle_stdev=0.08 method=PBE fidelity=phase2_force energy=-114.71348284325396 stress="-0.002847406572395297 -8.118274557868112e-06 1.9451014934586425e-05 -8.118274557868112e-06 -0.0015536791581125958 3.7693612603108235e-05 1.9451014934586425e-05 3.7693612603108235e-05 -0.002612771794015573" pbc="T T T"
Cs       0.04679265      12.21594173       0.19560474        0       0.01268686      -0.00151185      -0.06825994
Sn       3.09878934       3.20380723       2.98712104        1       0.43513237       0.14692745       0.21862656
I        3.21208040       3.16796847      -0.01507321        2      -0.05608108       0.03036834      -0.09794048
I        3.19429869      12.40243340       2.90765428        3      -0.04415455      -0.47778147       0.05892586
I        0.18295974       3.25370485       3.09180399        4      -0.65056760      -0.01517167      -0.03726555
Cs       0.02112640      -0.07585584       6.10872211        5      -0.01086492      -0.01205826       0.04694071
Sn       3.05352676       3.33244427       9.24427110        6       0.41744209      -0.15971553      -0.04912713
I        3.13229559       3.22973162       6.18595007        7       0.01362085      -0.09072655      -0.00419566
I        3.00345782      12.10777683       9.48195145        8       0.01472156       0.46993814      -0.00046299
I        0.04915350       3.09506864       9.11223746        9      -0.22750441       0.00511815       0.04213760
Cs      -0.01640902       6.06799238       0.04852427       10       0.03063584       0.01705977      -0.03403024
Sn       3.07242386       9.13987480       2.96931543       11       0.26139982      -0.12589284       0.17520554
Br       3.06452060       9.02282558      12.33718429       12       0.01018448      -0.03524586       0.34173478
Br       3.23830130       6.07968091       3.20339366       13      -0.03436851       0.40761912      -0.11060880
I       -0.08893363       9.05493580       3.03857482       14       0.49219738       0.00373651       0.03132592
Cs       0.01709075       6.16158809       6.16478476       15      -0.00137532       0.01377760       0.01295108
Sn       3.08686621       9.22025118       9.49130988       16       0.00154600      -0.31309177      -0.19772908
I        3.14485873       9.04661639       6.22471159       17      -0.04657101       0.10022435      -0.28112733
Br       3.21138390       6.03739748       9.31090798       18      -0.05802244       0.06961511       0.02253941
I        0.11959055       8.94995446       9.40630494       19      -0.26680866      -0.00585641      -0.01358807
Cs       6.23453385      -0.14466987       0.10909458       20      -0.01842311       0.04100077      -0.05191212
Sn       9.09665765       3.00947934       3.09107616       21      -0.20061843       0.31596632       0.14392361
I        9.08606036       3.19640200      -0.01281209       22       0.09132175       0.02419840      -0.02256719
I        9.27495818       0.00828131       3.09925381       23       0.00148714      -0.01721295      -0.00893187
Br       6.21438966       3.37274406       3.07196829       24       0.35345060      -0.14821177      -0.01347514
Cs       6.10446185      -0.09822580       6.16521535       25       0.01951542       0.00578033       0.02185908
Sn       9.38135494       3.12706567       9.35985736       26      -0.36367385      -0.06969931      -0.19246261
I        9.09898347       3.19883873       6.15130844       27       0.06333828      -0.07885284       0.05801129
I        9.35607207      -0.07729686       9.44649583       28       0.03022776       0.48506413       0.00252379
I        6.20322618       3.20133811       9.24426402       29       0.10079853      -0.09181607       0.00665267
Cs       6.08026628       6.09018644       0.05770517       30      -0.01155544      -0.01050541       0.02569087
Sn       9.33875153       8.98873113       2.91200971       31      -0.42303162      -0.12864567       0.66021573
I        9.35986235       9.12131321       0.00069262       32       0.01167275      -0.02628052      -0.08178114
Br       9.06852046       6.20471680       3.17288593       33       0.10738832      -0.00267832      -0.08515743
I        6.22612165       9.23309393       3.02388111       34      -0.34089504       0.02942086      -0.04023443
Cs       6.16070315       6.12085087       6.18516713       35       0.00143044      -0.00633672      -0.04302230
Sn       9.23836679       9.20845514       9.34440191       36       0.14467856       0.12497486      -0.45010890
I        9.20482490       9.16838222       6.25241026       37       0.06154202       0.10587944      -0.09432914
I        9.29209688       6.25086439       9.17858669       38       0.06796594      -0.63883846       0.04427216
I        6.24019605       9.07970838       9.35031209       39       0.00920564       0.05906991       0.06067092
40
Lattice="12.399645919497523 0.0 0.0 0.004078412767249922 12.305355100403037 0.0 -0.0006599153494970787 0.004109882666508124 12.399645220823357" Properties=species:S:1:pos:R:3:spacegroup_kinds:I:1:forces:R:3 spacegroup="P 1" unit_cell=conventional candidate_id=8777a166c1c8a4be formula=MASnBr0.2I0.83 config_index=3 rattle_stdev=0.08 method=PBE fidelity=phase2_force energy=-114.422536050465 stress="-0.002765468275299322 0.00013446184320414323 7.91151191004874e-05 0.00013446184320414323 -0.0008230832719772438 0.00015241772884851 7.91151191004874e-05 0.00015241772884851 -0.0022008021944465205" pbc="T T T"
Cs      -0.04987379      12.46340708       0.05660774        0       0.03765726       0.03827601       0.02086581
Sn       3.19633431       3.23664271       3.16467614        1      -0.32093916      -0.35916532      -0.74669567
I        3.12748320       3.28054590      -0.04906860        2       0.01501249      -0.03010017      -0.13810744
I        3.28296237      12.28838601       2.92870305        3      -0.00254309      -0.14076948       0.02226640
I       -0.01964538       3.08451324       2.99986302        4       0.18562895       0.06782719       0.06172493
Cs       0.03543232      -0.06600774       6.08566025        5      -0.01800052       0.00972919      -0.01839966
Sn       3.13201415       3.03031736       9.17282443        6      -0.00620792       0.34530612       0.51783818
I        3.12243882       3.03859908       6.07744889        7      -0.02151182      -0.02253770       0.46129637
I        3.15120371      12.12936951       9.34573818        8      -0.04382829       0.61373475      -0.00598890
I       -0.10404982       3.05556696       9.47667442        9       0.32230832       0.01125272      -0.04062074
Cs       0.00842807       6.22200683      -0.10333544       10       0.04275524      -0.09632392       0.00256967
Sn       3.07546222       8.98149548       2.92096298       11       0.09963889       0.35485879       0.11793682
Br       3.21543478       9.08722130      12.32030732       12      -0.05794589      -0.07409051       0.44212511
Br       3.16210308       6.09937033       3.14772025       13      -0.00921338       0.20706068       0.00289642
I       -0.11672056       9.12674595       2.99365826       14       1.01770690      -0.02906427       0.00587139
Cs      -0.01541428       6.16848015       6.10366932       15      -0.01758802      -0.01179571       0.00909061
Sn       3.14684434       9.14310513       9.43399274       16      -0.16404006      -0.54939429      -0.16377130
I        3.22649869       9.11158300       6.26301235       17      -0.04395957       0.01263377      -0.37118406
Br       3.16340213       6.14971980       9.30334395       18      -0.02880112      -0.28019914      -0.04866896
I        0.02549024       9.03079386       9.38697337       19      -0.26181414       0.03669670      -0.02130348
Cs       6.24732179      -0.02121777      -0.00374067       20      -0.03930730       0.01310799       0.00395678
Sn       8.98494375       3.07379887       3.06828371       21       0.39909251       0.27289409       0.04144618
I        9.17312490       3.21418513       0.08284422       22      -0.03935251      -0.03056421      -0.31192212
I        9.38214448       0.06424415       3.02419040       23      -0.09949413      -0.33113995       0.01919211
Br       6.18747756       3.27251648       3.13876005       24      -0.16188781      -0.02728426       0.03220045
Cs       6.16898532       0.04711082       6.17349676       25       0.01173376      -0.04410942      -0.00582729
Sn       9.30942428       3.06371556       9.24116912       26      -0.09001919      -0.10039541      -0.00129679
I        9.33076256       3.08389445       6.14021320       27       0.00531546       0.00634675       0.28730911
I        9.31116109       0.13741845       9.20016977       28      -0.02269812      -0.96477867       0.06212293
I        6.15397914       3.12746933       9.33913825       29      -0.14268765      -0.05320133      -0.06898260
Cs       6.11431744       6.15839105       0.11073936       30      -0.02079971      -0.04367875      -0.05642215
Sn       9.32905689       9.05663215       3.14988554       31      -0.15040802      -0.17996147       0.24288399
I        9.32611832       9.11191983       0.06682409       32       0.02963072       0.01967955      -0.01624952
Br       9.17990434       6.09972442       3.23585956       33       0.07488180       0.21931241       0.00420570
I        6.42328864       9.01424171       2.95720233       34      -1.00946144       0.06289742       0.02061926
Cs       6.24491514       6.24879222       6.16493838       35       0.00823414      -0.00677369       0.01369500
Sn       9.30441555       9.16061802       9.45884878       36       0.07507198       0.00164350      -0.29071528
I        9.27078252       9.13525693       6.29725065       37       0.01417767       0.03133200      -0.06808016
I        9.25235776       5.97443352       9.34479592       38      -0.01108543       1.05340337      -0.00643462
I        6.12896734       9.16777873       9.48194191       39       0.44162217      -0.00140097      -0.00847689
