Cs Pb I  Cs Pb I  Cs Sn I  Cs Sn I  Cs Sn I  Cs Pb I  Cs Sn I  Cs Pb I 
 1.0000000000000000
    13.5413777024348594    0.0000000000000000    0.0000000000000000
     0.0000000000000000   13.5413777024348594    0.0000000000000000
     0.0000000000000000    0.0000000000000000   13.5413777024348594
 Cs  Pb  I   Cs  Pb  I   Cs  Sn  I   Cs  Sn  I   Cs  Sn  I   Cs  Pb  I   Cs  Sn  I   Cs  Pb  I  
   1   1   3   1   1   3   1   1   3   1   1   3   1   1   3   1   1   3   1   1   3   1   1   3
Cartesian
  0.0000000000000000  0.0000000000000000  0.0000000000000000
  3.3853444256087148  3.3853444256087148  3.3853444256087148
  3.3853444256087148  3.3853444256087148  0.0000000000000000
  3.3853444256087148  0.0000000000000000  3.3853444256087148
  0.0000000000000000  3.3853444256087148  3.3853444256087148
  0.0000000000000000  0.0000000000000000  6.7706888512174288
  3.3853444256087148  3.3853444256087148 10.1560332768261468
  3.3853444256087148  3.3853444256087148  6.7706888512174288
  3.3853444256087148  0.0000000000000000 10.1560332768261468
  0.0000000000000000  3.3853444256087148 10.1560332768261468
  0.0000000000000000  6.7706888512174288  0.0000000000000000
  3.3853444256087148 10.1560332768261468  3.3853444256087148
  3.3853444256087148 10.1560332768261468  0.0000000000000000
  3.3853444256087148  6.7706888512174288  3.3853444256087148
  0.0000000000000000 10.1560332768261468  3.3853444256087148
  0.0000000000000000  6.7706888512174288  6.7706888512174288
  3.3853444256087148 10.1560332768261468 10.1560332768261468
  3.3853444256087148 10.1560332768261468  6.7706888512174288
  3.3853444256087148  6.7706888512174288 10.1560332768261468
  0.0000000000000000 10.1560332768261468 10.1560332768261468
  6.7706888512174288  0.0000000000000000  0.0000000000000000
 10.1560332768261468  3.3853444256087148  3.3853444256087148
 10.1560332768261468  3.3853444256087148  0.0000000000000000
 10.1560332768261468  0.0000000000000000  3.3853444256087148
  6.7706888512174288  3.3853444256087148  3.3853444256087148
  6.7706888512174288  0.0000000000000000  6.7706888512174288
 10.1560332768261468  3.3853444256087148 10.1560332768261468
 10.1560332768261468  3.3853444256087148  6.7706888512174288
 10.1560332768261468  0.0000000000000000 10.1560332768261468
  6.7706888512174288  3.3853444256087148 10.1560332768261468
  6.7706888512174288  6.7706888512174288  0.0000000000000000
 10.1560332768261468 10.1560332768261468  3.3853444256087148
 10.1560332768261468 10.1560332768261468  0.0000000000000000
 10.1560332768261468  6.7706888512174288  3.3853444256087148
  6.7706888512174288 10.1560332768261468  3.3853444256087148
  6.7706888512174288  6.7706888512174288  6.7706888512174288
 10.1560332768261468 10.1560332768261468 10.1560332768261468
 10.1560332768261468 10.1560332768261468  6.7706888512174288
 10.1560332768261468  6.7706888512174288 10.1560332768261468
  6.7706888512174288 10.1560332768261468 10.1560332768261468
