Cs Sn I 
 1.0000000000000000
     6.7600115388215123    0.0000000000000000    0.0000000000000000
     0.0000000000000000    6.7600115388215123    0.0000000000000000
     0.0000000000000000    0.0000000000000000    6.7600115388215123
 Cs  Sn  I  
   1   1   3
Cartesian
  0.0000000000000000  0.0000000000000000  0.0000000000000000
  3.3800057694107561  3.3800057694107561  3.3800057694107561
  3.3800057694107561  3.3800057694107561  0.0000000000000000
  3.3800057694107561  0.0000000000000000  3.3800057694107561
  0.0000000000000000  3.3800057694107561  3.3800057694107561
