Cs Sn Cl Cs Pb Cl Cs Sn Cl Cs Sn Cl Cs Sn Cl Cs Sn Cl Cs Sn Cl Cs Sn Cl
 1.0000000000000000
    11.9649538444575700    0.0000000000000000    0.0000000000000000
     0.0000000000000000   11.9649538444575700    0.0000000000000000
     0.0000000000000000    0.0000000000000000   11.9649538444575700
 Cs  Sn  Cl  Cs  Pb  Cl  Cs  Sn  Cl  Cs  Sn  Cl  Cs  Sn  Cl  Cs  Sn  Cl  Cs  Sn  Cl  Cs  Sn  Cl 
   1   1   3   1   1   3   1   1   3   1   1   3   1   1   3   1   1   3   1   1   3   1   1   3
Cartesian
  0.0000000000000000  0.0000000000000000  0.0000000000000000
  2.9912384611143925  2.9912384611143925  2.9912384611143925
  2.9912384611143925  2.9912384611143925  0.0000000000000000
  2.9912384611143925  0.0000000000000000  2.9912384611143925
  0.0000000000000000  2.9912384611143925  2.9912384611143925
  0.0000000000000000  0.0000000000000000  5.9824769222287841
  2.9912384611143925  2.9912384611143925  8.9737153833431780
  2.9912384611143925  2.9912384611143925  5.9824769222287841
  2.9912384611143925  0.0000000000000000  8.9737153833431780
  0.0000000000000000  2.9912384611143925  8.9737153833431780
  0.0000000000000000  5.9824769222287841  0.0000000000000000
  2.9912384611143925  8.9737153833431780  2.9912384611143925
  2.9912384611143925  8.9737153833431780  0.0000000000000000
  2.9912384611143925  5.9824769222287841  2.9912384611143925
  0.0000000000000000  8.9737153833431780  2.9912384611143925
  0.0000000000000000  5.9824769222287841  5.9824769222287841
  2.9912384611143925  8.9737153833431780  8.9737153833431780
  2.9912384611143925  8.9737153833431780  5.9824769222287841
  2.9912384611143925  5.9824769222287841  8.9737153833431780
  0.0000000000000000  8.9737153833431780  8.9737153833431780
  5.9824769222287841  0.0000000000000000  0.0000000000000000
  8.9737153833431780  2.9912384611143925  2.9912384611143925
  8.9737153833431780  2.9912384611143925  0.0000000000000000
  8.9737153833431780  0.0000000000000000  2.9912384611143925
  5.9824769222287841  2.9912384611143925  2.9912384611143925
  5.9824769222287841  0.0000000000000000  5.9824769222287841
  8.9737153833431780  2.9912384611143925  8.9737153833431780
  8.9737153833431780  2.9912384611143925  5.9824769222287841
  8.9737153833431780  0.0000000000000000  8.9737153833431780
  5.9824769222287841  2.9912384611143925  8.9737153833431780
  5.9824769222287841  5.9824769222287841  0.0000000000000000
  8.9737153833431780  8.9737153833431780  2.9912384611143925
  8.9737153833431780  8.9737153833431780  0.0000000000000000
  8.9737153833431780  5.9824769222287841  2.9912384611143925
  5.9824769222287841  8.9737153833431780  2.9912384611143925
  5.9824769222287841  5.9824769222287841  5.9824769222287841
  8.9737153833431780  8.9737153833431780  8.9737153833431780
  8.9737153833431780  8.9737153833431780  5.9824769222287841
  8.9737153833431780  5.9824769222287841  8.9737153833431780
  5.9824769222287841  8.9737153833431780  8.9737153833431780
