40
Lattice="12.492667978707587 0.0 0.0 0.006518531875787358 12.492666278059751 0.0 -0.0003805903919773834 0.00038078903154286606 12.644238995087697" Properties=species:S:1:pos:R:3:spacegroup_kinds:I:1:forces:R:3 spacegroup="P 1" unit_cell=conventional occupancy="_JSON {\"0\": {\"Cs\": 1.0}, \"1\": {\"Pb\": 1.0}, \"2\": {\"I\": 1.0}, \"3\": {\"I\": 1.0}, \"4\": {\"I\": 1.0}, \"5\": {\"Cs\": 1.0}, \"6\": {\"Pb\": 1.0}, \"7\": {\"I\": 1.0}, \"8\": {\"I\": 1.0}, \"9\": {\"I\": 1.0}, \"10\": {\"Cs\": 1.0}, \"11\": {\"Pb\": 1.0}, \"12\": {\"Br\": 1.0}, \"13\": {\"Br\": 1.0}, \"14\": {\"I\": 1.0}, \"15\": {\"Cs\": 1.0}, \"16\": {\"Pb\": 1.0}, \"17\": {\"I\": 1.0}, \"18\": {\"Br\": 1.0}, \"19\": {\"I\": 1.0}, \"20\": {\"Cs\": 1.0}, \"21\": {\"Pb\": 1.0}, \"22\": {\"I\": 1.0}, \"23\": {\"I\": 1.0}, \"24\": {\"Br\": 1.0}, \"25\": {\"Cs\": 1.0}, \"26\": {\"Pb\": 1.0}, \"27\": {\"I\": 1.0}, \"28\": {\"I\": 1.0}, \"29\": {\"I\": 1.0}, \"30\": {\"Cs\": 1.0}, \"31\": {\"Pb\": 1.0}, \"32\": {\"I\": 1.0}, \"33\": {\"Br\": 1.0}, \"34\": {\"Br\": 1.0}, \"35\": {\"Cs\": 1.0}, \"36\": {\"Pb\": 1.0}, \"37\": {\"I\": 1.0}, \"38\": {\"I\": 1.0}, \"39\": {\"Br\": 1.0}}" candidate_id=b7fd94441ec8fa5f formula=MAPbBr0.3I0.73 config_index=0 rattle_stdev=0.0 method=PBE fidelity=phase2_force energy=-117.30453397659412 stress="-8.55095398282055e-05 -1.0343634999534794e-05 1.3524168940422122e-05 -1.0343634999534794e-05 -8.549874544485045e-05 -1.3531227539780974e-05 1.3524168940422122e-05 -1.3531227539780974e-05 -0.001041424995651547" pbc="T T T"
Cs       0.05313924      12.44602124       0.01943519        0       0.00790449      -0.00790862      -0.00448920
Pb       3.24551287       3.24195105       3.15477110        1      -0.00032835       0.00620199      -0.00600473
I        3.20493037       3.30588200       0.00820559        2      -0.01394539       0.00546812      -0.01654304
I        3.26516706      12.48445045       3.08523817        3      -0.00904014       0.00107712       0.00231093
I        0.00495793       3.25129209       3.17291586        4       0.00091230      -0.00478503       0.00049959
Cs       0.01449500      12.48468564       6.30140024        5      -0.00845811       0.00846252       0.00280805
Pb       3.13759292       3.24289215       9.48873985        6       0.01476046       0.00098867       0.00889197
I        3.19487858       3.26563413       6.31362982        7      -0.00918077      -0.00042861       0.01579586
I        3.19949088      12.48268944       9.56556776        8      -0.00911210      -0.01619717       0.00191215
I        0.00738668       3.16266476       9.46912057        9      -0.00659100      -0.00557598      -0.00418128
Cs       0.04421157       6.27717978       0.03702419       10       0.01510940       0.00207942       0.00001905
Pb       3.25738796       9.24010014       3.04971852       11       0.01031401      -0.01031940      -0.00068785
Br       3.22387242       9.27363318       0.00620991       12       0.02862039      -0.02863532      -0.00091309
Br       3.23011338       6.25032524       3.11079306       13       0.03003182       0.00663451      -0.01641011
I        0.01303403       9.23401390       3.08523817       14      -0.00107241       0.00904071       0.00231093
Cs       0.03730480       6.26135674       6.28338420       15       0.00283137      -0.00393722      -0.00324525
Pb       3.24603789       9.25145613       9.59353622       16       0.00782510      -0.00782919       0.00213760
I        3.29121751       9.20625293       6.32169365       17      -0.02089491       0.02090582      -0.00030061
Br       3.16648017       6.24524621       9.53131884       18       0.00292119       0.03627945       0.01840280
I        0.01482931       9.29968916       9.56556776       19       0.01620192       0.00910365       0.00191215
Cs       6.22198452      12.45173008       0.03702419       20      -0.00208730      -0.01510831       0.00001905
Pb       9.25212308       3.24223622       3.16001683       21       0.00083608      -0.00083652       0.00473542
I        9.28682244       3.20751875       0.01099711       22       0.00869541      -0.00869995      -0.01613099
I        9.24789228      12.48940484       3.17291586       23       0.00478455      -0.00091479       0.00049959
Br       6.24401962       3.21322094       3.16410164       24       0.00246733       0.03206280       0.00640858
Cs       6.23781115      12.45862858       6.28338420       25       0.00393574      -0.00283342      -0.00324525
Pb       9.36394064       3.13036030       9.48590982       26      -0.00858818       0.00859266      -0.00214096
I        9.29866263       3.19567238       6.31228657       27       0.00698531      -0.00698896       0.01619402
I        9.33651833      12.48692984       9.46912057       28       0.00557942       0.00658809      -0.00418128
I        6.24295803       3.20210186       9.47744073       29       0.00558422      -0.00978510      -0.00781100
Cs       6.20975987       6.28618732       0.03412211       30      -0.01552438       0.01553249       0.01420934
Pb       9.25554243       9.24884546       3.15477110       31      -0.00620182       0.00033158      -0.00600473
I        9.19163266       9.28946132       0.00820559       32      -0.00546085       0.01394824      -0.01654304
Br       9.28270795       6.25032413       3.16410164       33      -0.03206409      -0.00245060       0.00640858
Br       6.24717669       9.26581469       3.11079306       34      -0.00665018      -0.03002835      -0.01641011
Cs       6.22879020       6.26714705       6.28799500       35       0.00525028      -0.00525302      -0.01648164
Pb       9.25465764       9.35676588       9.48873985       36      -0.00099637      -0.01475994       0.00889197
I        9.23188577       9.29949210       6.31362982       37       0.00043340       0.00918054       0.01579586
I        9.29382758       6.25137992       9.47744073       38       0.00978219      -0.00558932      -0.00781100
Br       6.25228891       9.32944524       9.53131884       39      -0.03628097      -0.00290226       0.01840280
40
Lattice="12.492667978707587 0.0 0.0 0.006518531875787358 12.492666278059751 0.0 -0.0003805903919773834 0.00038078903154286606 12.644238995087697" Properties=species:S:1:pos:R:3:spacegroup_kinds:I:1:forces:R:3 spacegroup="P 1" unit_cell=conventional occupancy="_JSON {\"0\": {\"Cs\": 1.0}, \"1\": {\"Pb\": 1.0}, \"2\": {\"I\": 1.0}, \"3\": {\"I\": 1.0}, \"4\": {\"I\": 1.0}, \"5\": {\"Cs\": 1.0}, \"6\": {\"Pb\": 1.0}, \"7\": {\"I\": 1.0}, \"8\": {\"I\": 1.0}, \"9\": {\"I\": 1.0}, \"10\": {\"Cs\": 1.0}, \"11\": {\"Pb\": 1.0}, \"12\": {\"Br\": 1.0}, \"13\": {\"Br\": 1.0}, \"14\": {\"I\": 1.0}, \"15\": {\"Cs\": 1.0}, \"16\": {\"Pb\": 1.0}, \"17\": {\"I\": 1.0}, \"18\": {\"Br\": 1.0}, \"19\": {\"I\": 1.0}, \"20\": {\"Cs\": 1.0}, \"21\": {\"Pb\": 1.0}, \"22\": {\"I\": 1.0}, \"23\": {\"I\": 1.0}, \"24\": {\"Br\": 1.0}, \"25\": {\"Cs\": 1.0}, \"26\": {\"Pb\": 1.0}, \"27\": {\"I\": 1.0}, \"28\": {\"I\": 1.0}, \"29\": {\"I\": 1.0}, \"30\": {\"Cs\": 1.0}, \"31\": {\"Pb\": 1.0}, \"32\": {\"I\": 1.0}, \"33\": {\"Br\": 1.0}, \"34\": {\"Br\": 1.0}, \"35\": {\"Cs\": 1.0}, \"36\": {\"Pb\": 1.0}, \"37\": {\"I\": 1.0}, \"38\": {\"I\": 1.0}, \"39\": {\"Br\": 1.0}}" candidate_id=b7fd94441ec8fa5f formula=MAPbBr0.3I0.73 config_index=1 rattle_stdev=0.08 method=PBE fidelity=phase2_force energy=-116.70791557868775 stress="-0.0014674391332486897 1.9319786000110046e-05 -4.4423634862640226e-05 1.9319786000110046e-05 -0.0010229675422441904 -0.00013741353188579685 -4.4423634862640226e-05 -0.00013741353188579685 -0.0033211497502443487" pbc="T T T"
Cs      -0.03377647      12.37433603      -0.00506876        0      -0.02755942       0.01961376       0.02844956
Pb       3.13831818       3.14542420       3.10343296        1       0.24092248       0.23273329       0.26796752
I        3.30956602       3.45351884       0.07453478        2      -0.09775989      -0.06613899      -0.11705420
I        3.26330316      12.46776534       3.01190859        3      -0.01298246       0.02788485       0.00170992
I       -0.08102148       3.24440061       3.26698294        4       0.44170451      -0.00833027       0.01120179
Cs      -0.11631234      12.58294116       6.38751114        5       0.02531892       0.04598235      -0.04312799
Pb       3.16917475       3.21187609       9.53581199        6       0.05027129      -0.02853326      -0.06763188
I        3.08021468       3.23974816       6.41386860        7       0.02662192       0.01045254      -0.21789851
I        3.14103147      12.59696824       9.64114007        8      -0.02158367      -0.41829375       0.00577249
I       -0.01373354       3.14960770       9.39199199        9       0.18625821      -0.00331924       0.01510158
Cs       0.01679978       6.28109210      -0.00294637       10       0.00254336      -0.02832973       0.02966712
Pb       3.08043560       9.26488708       2.92254641       11       0.66013408      -0.24808534      -0.10103925
Br       3.28222878       9.26500108      -0.04580381       12      -0.03424869      -0.00680943       0.01023700
Br       3.09466886       6.22084731       2.98356332       13       0.01486025       0.04470242       0.05050818
I        0.13147450       9.27196912       3.15834727       14      -0.66229038       0.01703877       0.03029910
Cs       0.11414242       6.26812015       6.42076267       15       0.01997481      -0.03700468      -0.01794173
Pb       3.31418931       9.19106531       9.41052588       16       0.21971026       0.08064133       0.22175950
I        3.29995661       9.17024028       6.28865586       17      -0.03555759       0.01989333      -0.01466185
Br       3.19199887       6.20195758       9.60721216       18      -0.01468777       0.38045075      -0.03137437
I        0.02694412       9.30584135       9.56081573       19       0.24319681       0.02539504      -0.00679001
Cs       6.21637342      12.40643815       0.06190462       20       0.02019290       0.00330851       0.01620280
Pb       9.31005978       3.28355223       3.24209929       21      -0.36297389      -0.20455900      -0.50593779
I        9.32843465       3.13793167       0.13104232       22       0.05080387       0.00305040      -0.49860789
I        9.34121005      12.52875799       3.11433488       23       0.01009811      -0.13330844       0.10462629
Br       6.29844411       3.25394069       3.09709874       24      -0.30862181       0.01966451       0.05912604
Cs       6.28962274      12.45963174       6.40815133       25      -0.02838125       0.00137360      -0.02870059
Pb       9.44670827       3.15737571       9.38170098       26      -0.27133227       0.29971988       0.36450775
I        9.20917908       3.30043359       6.27082921       27      -0.02242027      -0.04419234       0.47636789
I        9.30506838      12.57036732       9.47509778       28       0.00016967      -0.17979917      -0.01363706
I        6.25011299       3.20641445       9.51091648       29       0.04177517      -0.00921801      -0.00827267
Cs       6.11154146       6.19902399       0.05949206       30       0.05567854       0.04293880       0.04811660
Pb       9.19310999       9.18035498       3.04918139       31      -0.17185150       0.20626408       0.37469446
I        9.22793519       9.36960331       0.12130436       32       0.02057950       0.00717150      -0.52474082
Br       9.26749332       6.25273297       3.01422830       33       0.00890040       0.10319021       0.01260777
Br       6.23783453       9.25561546       3.18296780       34       0.19546603      -0.03105202      -0.00304853
Cs       6.12364043       6.25918299       6.29923899       35       0.01213806      -0.03575590      -0.03131041
Pb       9.46496211       9.49722819       9.27788803       36      -0.34769677      -0.35820788       1.01706575
I        9.12895421       9.28575433       6.45766612       37      -0.02059597       0.02476482      -1.00601525
I        9.34252323       6.25390197       9.36012775       38       0.01191405       0.22430094       0.07554451
Br       6.27704417       9.42082267       9.49045131       39      -0.11992437       0.00175891       0.01685016
40
Lattice="12.492667978707587 0.0 0.0 0.006518531875787358 12.492666278059751 0.0 -0.0003805903919773834 0.00038078903154286606 12.644238995087697" Properties=species:S:1:pos:R:3:spacegroup_kinds:I:1:forces:R:3 spacegroup="P 1" unit_cell=conventional occupancy="_JSON {\"0\": {\"Cs\": 1.0}, \"1\": {\"Pb\": 1.0}, \"2\": {\"I\": 1.0}, \"3\": {\"I\": 1.0}, \"4\": {\"I\": 1.0}, \"5\": {\"Cs\": 1.0}, \"6\": {\"Pb\": 1.0}, \"7\": {\"I\": 1.0}, \"8\": {\"I\": 1.0}, \"9\": {\"I\": 1.0}, \"10\": {\"Cs\": 1.0}, \"11\": {\"Pb\": 1.0}, \"12\": {\"Br\": 1.0}, \"13\": {\"Br\": 1.0}, \"14\": {\"I\": 1.0}, \"15\": {\"Cs\": 1.0}, \"16\": {\"Pb\": 1.0}, \"17\": {\"I\": 1.0}, \"18\": {\"Br\": 1.0}, \"19\": {\"I\": 1.0}, \"20\": {\"Cs\": 1.0}, \"21\": {\"Pb\": 1.0}, \"22\": {\"I\": 1.0}, \"23\": {\"I\": 1.0}, \"24\": {\"Br\": 1.0}, \"25\": {\"Cs\": 1.0}, \"26\": {\"Pb\": 1.0}, \"27\": {\"I\": 1.0}, \"28\": {\"I\": 1.0}, \"29\": {\"I\": 1.0}, \"30\": {\"Cs\": 1.0}, \"31\": {\"Pb\": 1.0}, \"32\": {\"I\": 1.0}, \"33\": {\"Br\": 1.0}, \"34\": {\"Br\": 1.0}, \"35\": {\"Cs\": 1.0}, \"36\": {\"Pb\": 1.0}, \"37\": {\"I\": 1.0}, \"38\": {\"I\": 1.0}, \"39\": {\"Br\": 1.0}}" candidate_id=b7fd94441ec8fa5f formula=MAPbBr0.3I0.73 config_index=2 rattle_stdev=0.08 method=PBE fidelity=phase2_force energy=-116.7915394716653 stress="-0.0011488597732934073 1.0736666945701712e-05 5.422060703398666e-05 1.0736666945701712e-05 -0.0013315279165349739 -3.383829457638715e-05 5.422060703398666e-05 -3.383829457638715e-05 -0.0019082081433936327" pbc="T T T"
Cs       0.04412219      12.35989612       0.16223735        0       0.02279162      -0.01596865      -0.06244695
Pb       3.12895420       3.21584539       3.05397939        1       0.58059883       0.24787752       0.22387591
I        3.23499968       3.23563021      -0.01979247        2      -0.04706030       0.03026860      -0.08960345
I        3.28889988      12.58052341       2.95971855        3      -0.03366831      -0.53243482       0.03417107
I        0.15328023       3.29080903       3.16245894        4      -0.79003139      -0.00175364      -0.02310038
Cs      -0.01775466      12.40679266       6.26400290        5      -0.02228245      -0.00278237       0.05209428
Pb       3.08015921       3.34060362       9.42656385        6       0.47694277      -0.05544196       0.01764561
I        3.14779653       3.26102463       6.31999621        7       0.00642525      -0.08074154      -0.10650587
I        3.10483480      12.35879004       9.63854825        8       0.00529967       0.39099569       0.00374701
I        0.04040034       3.10700324       9.28601882        9      -0.19262199      -0.01594723      -0.00223177
Cs      -0.01876776       6.19489844       0.04448884       10       0.03490129       0.02288177      -0.03225975
Pb       3.21505243       9.30251972       3.03365334       11       0.23797853      -0.21695030       0.08172352
Br       3.18542373       9.19081221      -0.03400884       12       0.03336759      -0.03049725       0.34137339
Br       3.29330459       6.17632543       3.28759589       13      -0.01161718       0.45262719      -0.08978781
I       -0.09898487       9.21488611       3.10262542       14       0.48977860       0.01331957       0.01207932
Cs       0.00911398       6.26822679       6.29191636       15       0.00429873       0.00652783       0.01869895
Pb       3.23027539       9.35921084       9.62115014       16      -0.02926742      -0.35270676      -0.10632843
I        3.33582906       9.15863012       6.38032023       17      -0.06365505       0.10070936      -0.28702143
Br       3.27298038       6.18684358       9.49245837       18      -0.03121961       0.06566104       0.03593362
I        0.10098245       9.09206056       9.57892201       19      -0.07924439       0.01384445       0.00114129
Cs       6.30510129      12.30704417       0.09771547       20      -0.02817389       0.02100385      -0.03135954
Pb       9.21211405       3.05469277       3.15138342       21      -0.21482997       0.33290943       0.12863805
I        9.16659942       3.24662105      -0.03325717       22       0.06457008       0.02664311       0.17898404
I        9.33249288      12.41985941       3.16690857       23       0.02570072       0.10804349      -0.00955754
Br       6.23544723       3.38112670       3.13685860       24       0.32288671      -0.09809252      -0.01617885
Cs       6.19557875      12.35505924       6.30051212       25       0.02226584      -0.01011097       0.02023846
Pb       9.45404220       3.16248317       9.54715664       26      -0.39831186      -0.05828646      -0.23875079
I        9.19041243       3.24158106       6.29467560       27       0.05777072      -0.07161464      -0.03612809
I        9.38813344      12.40655230       9.62109965       28       0.05174969       0.56348027       0.01862588
I        6.26030689       3.24209949       9.42731344       29       0.05373323      -0.08184069      -0.00486391
Cs       6.12952913       6.22368250       0.05046433       30      -0.02184323      -0.02921094       0.01766771
Pb       9.29842979       9.16284567       2.97734272       31      -0.35285825      -0.19763163       0.69406469
I        9.24338708       9.26367446      -0.00559955       32       0.00190871      -0.02208847      -0.05078585
Br       9.09963421       6.24136062       3.24052674       33       0.06190891      -0.06912708      -0.06084797
Br       6.28355574       9.43076888       3.11578990       34      -0.35500061       0.02114841      -0.07497544
Cs       6.22901760       6.23086274       6.31787360       35       0.00404151      -0.02434709      -0.03346325
Pb       9.18960836       9.34864128       9.52439691       36       0.19494081       0.10290418      -0.40708396
I        9.12987548       9.30811865       6.38180877       37       0.06280220       0.09003690      -0.22592297
I        9.28127941       6.34648546       9.35965965       38       0.07185805      -0.69365325       0.02214849
Br       6.32157218       9.25797408       9.48740119       39      -0.21690187       0.05058281       0.08486824
40
Lattice="12.492667978707587 0.0 0.0 0.006518531875787358 12.492666278059751 0.0 -0.0003805903919773834 0.00038078903154286606 12.644238995087697" Properties=species:S:1:pos:R:3:spacegroup_kinds:I:1:forces:R:3 spacegroup="P 1" unit_cell=conventional occupancy="_JSON {\"0\": {\"Cs\": 1.0}, \"1\": {\"Pb\": 1.0}, \"2\": {\"I\": 1.0}, \"3\": {\"I\": 1.0}, \"4\": {\"I\": 1.0}, \"5\": {\"Cs\": 1.0}, \"6\": {\"Pb\": 1.0}, \"7\": {\"I\": 1.0}, \"8\": {\"I\": 1.0}, \"9\": {\"I\": 1.0}, \"10\": {\"Cs\": 1.0}, \"11\": {\"Pb\": 1.0}, \"12\": {\"Br\": 1.0}, \"13\": {\"Br\": 1.0}, \"14\": {\"I\": 1.0}, \"15\": {\"Cs\": 1.0}, \"16\": {\"Pb\": 1.0}, \"17\": {\"I\": 1.0}, \"18\": {\"Br\": 1.0}, \"19\": {\"I\": 1.0}, \"20\": {\"Cs\": 1.0}, \"21\": {\"Pb\": 1.0}, \"22\": {\"I\": 1.0}, \"23\": {\"I\": 1.0}, \"24\": {\"Br\": 1.0}, \"25\": {\"Cs\": 1.0}, \"26\": {\"Pb\": 1.0}, \"27\": {\"I\": 1.0}, \"28\": {\"I\": 1.0}, \"29\": {\"I\": 1.0}, \"30\": {\"Cs\": 1.0}, \"31\": {\"Pb\": 1.0}, \"32\": {\"I\": 1.0}, \"33\": {\"Br\": 1.0}, \"34\": {\"Br\": 1.0}, \"35\": {\"Cs\": 1.0}, \"36\": {\"Pb\": 1.0}, \"37\": {\"I\": 1.0}, \"38\": {\"I\": 1.0}, \"39\": {\"Br\": 1.0}}" candidate_id=b7fd94441ec8fa5f formula=MAPbBr0.3I0.73 config_index=3 rattle_stdev=0.08 method=PBE fidelity=phase2_force energy=-116.62443691927051 stress="-0.0014070860516331397 0.00011427580537519713 6.803837259202519e-05 0.00011427580537519713 -0.0013082677338578294 8.704769281216324e-05 6.803837259202519e-05 8.704769281216324e-05 -0.0017651033807652556" pbc="T T T"
Cs      -0.05254424      12.60736147       0.02324035        0       0.01779526       0.05463959       0.02674015
Pb       3.22649918       3.24868086       3.23153449        1      -0.24922327      -0.25309294      -0.74249766
I        3.15040249       3.34820764      -0.05378787        2      -0.00145681      -0.00709106      -0.07642702
I        3.37756356      12.46647602       2.98076731        3       0.00147999      -0.17739067       0.01783677
I       -0.04932489       3.12161743       3.07051798        4       0.13253958       0.03520983       0.03491749
Cs      -0.00344873      12.41664076       6.24094103        5      -0.03968671       0.02900346      -0.01601748
Pb       3.15864659       3.03847671       9.35511718        6      -0.06565741       0.35604912       0.44766974
I        3.13793977       3.06989208       6.21149504        7      -0.03853309      -0.02893844       0.44388843
I        3.25258069      12.38038272       9.50233498        8      -0.04116858       0.41986620      -0.00065355
I       -0.11280298       3.06750156       9.65045578        9       0.58451821       0.01445955       0.01402972
Cs       0.00606934       6.34891290      -0.10737087       10       0.02756455      -0.08211764      -0.01401615
Pb       3.21809080       9.14414041       2.98530089       11       0.04621386       0.28505762       0.00515310
Br       3.33633790       9.25520792      -0.05088581       12      -0.00930601      -0.07275077       0.42990940
Br       3.21710637       6.19601485       3.23192248       13       0.00731654       0.23821479       0.00347964
I       -0.12677180       9.28669627       3.05770887       14       0.93814725      -0.04773331      -0.00140913
Cs      -0.02339105       6.27511885       6.23080092       15      -0.03169783      -0.01945035      -0.00083646
Pb       3.29025353       9.28206479       9.56383300       16      -0.12589363      -0.53487687       0.01126964
I        3.41746903       9.22359673       6.41862098       17      -0.04792289       0.04054067      -0.44639292
Br       3.22499861       6.29916590       9.48489435       18      -0.01010368      -0.21827789      -0.02354942
I        0.00688215       9.17289996       9.55959045       19      -0.12188563       0.04051912      -0.00556790
Cs       6.31788923      12.43049626      -0.01511978       20      -0.03302761       0.00257524      -0.00279507
Pb       9.10040015       3.11901231       3.12859097       21       0.32942565       0.25052070       0.06251127
I        9.25366397       3.26440418       0.06239914       22      -0.03428990      -0.02935204      -0.22001521
I        9.43967918      12.47582225       3.09184516       23      -0.06370411      -0.22268279       0.01280657
Br       6.20853513       3.28089912       3.20365036       24      -0.13507776       0.00059209       0.03511571
Cs       6.26010221      12.50039586       6.30879353       25       0.01813159      -0.02385667      -0.00066230
Pb       9.38211155       3.09913306       9.42846841       26      -0.21300358      -0.01407235       0.01823281
I        9.42219152       3.12663677       6.28358036       27       0.01546603      -0.00497721       0.10531058
I        9.34322247      12.62126760       9.37477359       28      -0.03363755      -1.11324124       0.04375450
I        6.21105985       3.16823072       9.52218767       29      -0.17112812      -0.02824878      -0.04283476
Cs       6.16358029       6.29188711       0.10349852       30      -0.01455796      -0.02325298      -0.03179097
Pb       9.28873515       9.23074668       3.21521856       31      -0.07025804      -0.19541368       0.20295645
I        9.20964305       9.25428108       0.06053193       32       0.02039481       0.00451901       0.03661359
Br       9.21101809       6.13636823       3.30350037       33       0.01849246       0.21284307       0.01788254
Br       6.48072274       9.21191667       3.04911112       34      -0.93582199      -0.01972234      -0.01302443
Cs       6.31322959       6.35880409       6.29764485       35       0.02119807      -0.02860994       0.00151380
Pb       9.25565711       9.30080417       9.63884378       36       0.06897634      -0.00711989      -0.28317891
I        9.19583310       9.27499336       6.42664917       37       0.01934416       0.02956578      -0.09049046
I        9.24154030       6.07005460       9.52586888       38      -0.02232568       1.11466392       0.00072655
Br       6.21034347       9.34604442       9.61903101       39       0.23522674       0.01089799       0.03846382
