40
Lattice="12.700052076829822 0.0 0.0 0.0 12.700052076829724 0.0 0.0 -3.588206069080636e-14 12.700052076829843" Properties=species:S:1:pos:R:3:spacegroup_kinds:I:1:forces:R:3 spacegroup="P 1" unit_cell=conventional occupancy="_JSON {\"0\": {\"Cs\": 1.0}, \"1\": {\"Pb\": 1.0}, \"2\": {\"I\": 1.0}, \"3\": {\"I\": 1.0}, \"4\": {\"I\": 1.0}, \"5\": {\"Cs\": 1.0}, \"6\": {\"Pb\": 1.0}, \"7\": {\"I\": 1.0}, \"8\": {\"I\": 1.0}, \"9\": {\"I\": 1.0}, \"10\": {\"Cs\": 1.0}, \"11\": {\"Pb\": 1.0}, \"12\": {\"I\": 1.0}, \"13\": {\"I\": 1.0}, \"14\": {\"I\": 1.0}, \"15\": {\"Cs\": 1.0}, \"16\": {\"Pb\": 1.0}, \"17\": {\"I\": 1.0}, \"18\": {\"I\": 1.0}, \"19\": {\"I\": 1.0}, \"20\": {\"Cs\": 1.0}, \"21\": {\"Pb\": 1.0}, \"22\": {\"I\": 1.0}, \"23\": {\"I\": 1.0}, \"24\": {\"I\": 1.0}, \"25\": {\"Cs\": 1.0}, \"26\": {\"Pb\": 1.0}, \"27\": {\"I\": 1.0}, \"28\": {\"I\": 1.0}, \"29\": {\"I\": 1.0}, \"30\": {\"Cs\": 1.0}, \"31\": {\"Ge\": 1.0}, \"32\": {\"I\": 1.0}, \"33\": {\"I\": 1.0}, \"34\": {\"I\": 1.0}, \"35\": {\"Cs\": 1.0}, \"36\": {\"Pb\": 1.0}, \"37\": {\"I\": 1.0}, \"38\": {\"I\": 1.0}, \"39\": {\"I\": 1.0}}" candidate_id=47149c6db0f537f6 formula=FAGe0.13Pb0.87I3 config_index=0 rattle_stdev=0.0 method=PBE fidelity=phase2_force energy=-112.92473415987375 stress="8.896477345319493e-05 -1.5529212211437712e-10 1.5529212211437523e-10 -1.5529212211437712e-10 8.896477345319676e-05 1.552921223657333e-10 1.5529212211437523e-10 1.552921223657333e-10 8.896477345319481e-05" pbc="T T T"
Cs      12.66405670      12.66405670       0.03599538        0      -0.00737304      -0.00737304       0.00737304
Pb       3.17501302       3.17501302       3.17501302        1       0.00028863       0.00028863       0.00032205
I        3.17501302       3.17501302      12.69863292        2      -0.00000459      -0.00000459       0.03151843
I        3.17501302      12.69079573       3.17501302        3      -0.00000318       0.00546728      -0.00000422
I       12.69079573       3.17501302       3.17501302        4       0.00546728      -0.00000318      -0.00000422
Cs      12.66405670      12.66405670       6.31403066        5      -0.00737158      -0.00737158      -0.00734443
Pb       3.17501302       3.17501302       9.52503906        6       0.00030930       0.00030930      -0.00030930
I        3.17501302       3.17501302       6.35144520        7      -0.00000357      -0.00000357      -0.03152037
I        3.17501302       0.00141916       9.52503906        8      -0.00000459      -0.03151843       0.00000459
I        0.00141916       3.17501302       9.52503906        9      -0.03151843      -0.00000459       0.00000459
Cs      12.66405670       6.38602141       0.03599538       10      -0.00737158       0.00734443       0.00737158
Pb       3.17501302       9.52503906       3.17501302       11      -0.00003238      -0.00034662       0.00034662
I        3.17501302       9.52503906       0.00925634       12      -0.00000318       0.00000422      -0.00546728
I        3.17501302       6.35928238       3.17501302       13      -0.00000241      -0.00548102      -0.00000309
I       12.53148111       9.52503906       3.17501302       14       0.23562725       0.00000414      -0.00000414
Cs      12.66405670       6.38602141       6.31403066       15      -0.00737009       0.00734327      -0.00734327
Pb       3.17501302       9.52503906       9.52503906       16       0.00028863      -0.00032205      -0.00028863
I        3.17501302       9.52503906       6.34076970       17      -0.00000241       0.00000309       0.00548102
I        3.17501302       6.34860688       9.52503906       18      -0.00000357       0.03152037       0.00000357
I       12.69079573       9.52503906       9.52503906       19       0.00546728       0.00000422       0.00000318
Cs       6.38602141      12.66405670       0.03599538       20       0.00734443      -0.00737158       0.00737158
Pb       9.52503906       3.17501302       3.17501302       21      -0.00034662      -0.00003238       0.00034662
I        9.52503906       3.17501302       0.00925634       22       0.00000422      -0.00000318      -0.00546728
I        9.52503906      12.53148111       3.17501302       23       0.00000414       0.23562725      -0.00000414
I        6.35928238       3.17501302       3.17501302       24      -0.00548102      -0.00000241      -0.00000309
Cs       6.38602141      12.66405670       6.31403066       25       0.00734327      -0.00737009      -0.00734327
Pb       9.52503906       3.17501302       9.52503906       26      -0.00032205       0.00028863      -0.00028863
I        9.52503906       3.17501302       6.34076970       27       0.00000309      -0.00000241       0.00548102
I        9.52503906      12.69079573       9.52503906       28       0.00000422       0.00546728       0.00000318
I        6.34860688       3.17501302       9.52503906       29       0.03152037      -0.00000357       0.00000357
Cs       6.38602141       6.38602141       0.03599538       30       0.00734327       0.00734327       0.00737009
Ge       9.52503906       9.52503906       3.17501302       31       0.00001930       0.00001930      -0.00001930
I        9.52503906       9.52503906       0.16857097       32       0.00000414       0.00000414      -0.23562725
I        9.52503906       6.51859700       3.17501302       33       0.00000313      -0.23567718      -0.00000313
I        6.51859700       9.52503906       3.17501302       34      -0.23567718       0.00000313      -0.00000313
Cs       6.38602141       6.38602141       6.31403066       35       0.00734126       0.00734126      -0.00734126
Pb       9.52503906       9.52503906       9.52503906       36      -0.00034662      -0.00034662       0.00003238
I        9.52503906       9.52503906       6.18145507       37       0.00000313       0.00000313       0.23567718
I        9.52503906       6.35928238       9.52503906       38       0.00000309      -0.00548102       0.00000241
I        6.35928238       9.52503906       9.52503906       39      -0.00548102       0.00000309       0.00000241
40
Lattice="12.700052076829822 0.0 0.0 0.0 12.700052076829724 0.0 0.0 -3.588206069080636e-14 12.700052076829843" Properties=species:S:1:pos:R:3:spacegroup_kinds:I:1:forces:R:3 spacegroup="P 1" unit_cell=conventional occupancy="_JSON {\"0\": {\"Cs\": 1.0}, \"1\": {\"Pb\": 1.0}, \"2\": {\"I\": 1.0}, \"3\": {\"I\": 1.0}, \"4\": {\"I\": 1.0}, \"5\": {\"Cs\": 1.0}, \"6\": {\"Pb\": 1.0}, \"7\": {\"I\": 1.0}, \"8\": {\"I\": 1.0}, \"9\": {\"I\": 1.0}, \"10\": {\"Cs\": 1.0}, \"11\": {\"Pb\": 1.0}, \"12\": {\"I\": 1.0}, \"13\": {\"I\": 1.0}, \"14\": {\"I\": 1.0}, \"15\": {\"Cs\": 1.0}, \"16\": {\"Pb\": 1.0}, \"17\": {\"I\": 1.0}, \"18\": {\"I\": 1.0}, \"19\": {\"I\": 1.0}, \"20\": {\"Cs\": 1.0}, \"21\": {\"Pb\": 1.0}, \"22\": {\"I\": 1.0}, \"23\": {\"I\": 1.0}, \"24\": {\"I\": 1.0}, \"25\": {\"Cs\": 1.0}, \"26\": {\"Pb\": 1.0}, \"27\": {\"I\": 1.0}, \"28\": {\"I\": 1.0}, \"29\": {\"I\": 1.0}, \"30\": {\"Cs\": 1.0}, \"31\": {\"Ge\": 1.0}, \"32\": {\"I\": 1.0}, \"33\": {\"I\": 1.0}, \"34\": {\"I\": 1.0}, \"35\": {\"Cs\": 1.0}, \"36\": {\"Pb\": 1.0}, \"37\": {\"I\": 1.0}, \"38\": {\"I\": 1.0}, \"39\": {\"I\": 1.0}}" candidate_id=47149c6db0f537f6 formula=FAGe0.13Pb0.87I3 config_index=1 rattle_stdev=0.08 method=PBE fidelity=phase2_force energy=-112.59367389920085 stress="-0.0012803970311570747 5.3459781726270485e-05 -3.3384760173783497e-05 5.3459781726270485e-05 -0.0007680002705349222 -4.760571177685965e-05 -3.3384760173783497e-05 -4.760571177685965e-05 -0.0017187353486726353" pbc="T T T"
Cs      12.57714099      12.59237149       0.01149143        0      -0.02850101       0.02378987       0.04660063
Pb       3.06781833       3.07848617       3.12367487        1       0.26637666       0.26863838       0.24415774
I        3.27964867       3.32264985      12.76496211        2      -0.04716182      -0.02267560      -0.04290589
I        3.17314911      12.67411062       3.10168344        3       0.02713448       0.02112246      -0.00085000
I       12.60481633       3.16812154       3.26908010        4       0.52671737      -0.00793235       0.01712564
Cs      12.53324936      12.76231222       6.40014156        5       0.02269524       0.01738996      -0.05521417
Pb       3.20659485       3.14399695       9.57211120        6       0.07019079       0.05568362      -0.10706705
I        3.06034911       3.14912704       6.45168397        7       0.03187473       0.02365568      -0.24976241
I        3.11655361       0.11569797       9.60061137        8      -0.02050192      -0.56674542       0.02082996
I       -0.01970106       3.16195596       9.44791048        9       0.08927421       0.00861938       0.02354162
Cs      12.63664491       6.38993374      -0.00397518       10      -0.01002714      -0.02057933       0.03211962
Pb       2.99806066       9.54982601       3.04784092       11       0.15809324      -0.26740730      -0.01223848
I        3.23336939       9.51640696      -0.04275738       12      -0.01869227       0.01913594      -0.05697980
I        3.03956850       6.32980446       3.04778328       13       0.01255169       0.02216030       0.06251401
I       12.64992158       9.56299427       3.24812212       14      -0.08382823      -0.00176490       0.01768657
Cs      12.74089432       6.39278482       6.45140914       15       0.00638410      -0.02421052      -0.03351953
Pb       3.24316444       9.46464823       9.34202871       16       0.21472749       0.08893600       0.30338374
I        3.18375211       9.48902641       6.30773190       17       0.01245931      -0.01097784      -0.13869203
I        3.20053172       6.30531824       9.60093238       18      -0.02356239       0.39340104      -0.03447005
I       12.70291054       9.53119125       9.52028703       19       0.37858318       0.00883549       0.04056053
Cs       6.38041032      12.61876478       0.06087581       20       0.02434401       0.01959162       0.03122729
Pb       9.58297576       3.21632902       3.25709547       21      -0.43897916      -0.17918584      -0.48187907
I        9.56665127       3.10542594       0.12930155       22       0.03694192       0.01636575      -0.42872732
I        9.61835683      12.57083427       3.11643204       23      -0.01716770       0.16085984       0.11198190
I        6.41370687       3.21573277       3.10801012       24      -0.34519587      -0.00508546       0.04980902
Cs       6.43783300      12.66505986       6.43879779       25      -0.00957095      -0.00256657      -0.03375178
Pb       9.60780669       3.20202843       9.42083022       26      -0.18446925       0.25189466       0.34153538
I        9.43555551       3.27977423       6.29931234       27      -0.03139399      -0.02356265       0.44165517
I        9.49358911      12.77423321       9.53101627       28       0.01280642      -0.16310400      -0.00588697
I        6.35576184       3.17932561       9.55851482       29       0.03526994      -0.00199552      -0.00688737
Cs       6.28780301       6.29885809       0.06136533       30       0.01123326      -0.01573505       0.02849852
Ge       9.46260661       9.45654857       3.06942331       31      -0.23217338       0.15013843      -0.04693608
I        9.56134159       9.60518105       0.28166974       32      -0.00572118      -0.02824429      -0.24590977
I        9.50982443       6.52100585       3.02513968       33       0.03359041      -0.09910305       0.03926339
I        6.50925485       9.51483983       3.24718776       34       0.11721968       0.00251362      -0.02056731
Cs       6.28087164       6.37805736       6.32527465       35       0.01201025      -0.00431266      -0.01809189
Pb       9.73534353       9.66550136       9.31418723       36      -0.63144389      -0.31192273       0.12928033
I        9.42210750       9.51130128       6.32549137       37       0.08308548       0.04639821      -0.04641628
I        9.57373471       6.36180443       9.40772608       38       0.00845289       0.15831683       0.05782936
I        6.38403764       9.61641649       9.48417152       39      -0.06238270      -0.00077258       0.02836306
40
Lattice="12.700052076829822 0.0 0.0 0.0 12.700052076829724 0.0 0.0 -3.588206069080636e-14 12.700052076829843" Properties=species:S:1:pos:R:3:spacegroup_kinds:I:1:forces:R:3 spacegroup="P 1" unit_cell=conventional occupancy="_JSON {\"0\": {\"Cs\": 1.0}, \"1\": {\"Pb\": 1.0}, \"2\": {\"I\": 1.0}, \"3\": {\"I\": 1.0}, \"4\": {\"I\": 1.0}, \"5\": {\"Cs\": 1.0}, \"6\": {\"Pb\": 1.0}, \"7\": {\"I\": 1.0}, \"8\": {\"I\": 1.0}, \"9\": {\"I\": 1.0}, \"10\": {\"Cs\": 1.0}, \"11\": {\"Pb\": 1.0}, \"12\": {\"I\": 1.0}, \"13\": {\"I\": 1.0}, \"14\": {\"I\": 1.0}, \"15\": {\"Cs\": 1.0}, \"16\": {\"Pb\": 1.0}, \"17\": {\"I\": 1.0}, \"18\": {\"I\": 1.0}, \"19\": {\"I\": 1.0}, \"20\": {\"Cs\": 1.0}, \"21\": {\"Pb\": 1.0}, \"22\": {\"I\": 1.0}, \"23\": {\"I\": 1.0}, \"24\": {\"I\": 1.0}, \"25\": {\"Cs\": 1.0}, \"26\": {\"Pb\": 1.0}, \"27\": {\"I\": 1.0}, \"28\": {\"I\": 1.0}, \"29\": {\"I\": 1.0}, \"30\": {\"Cs\": 1.0}, \"31\": {\"Ge\": 1.0}, \"32\": {\"I\": 1.0}, \"33\": {\"I\": 1.0}, \"34\": {\"I\": 1.0}, \"35\": {\"Cs\": 1.0}, \"36\": {\"Pb\": 1.0}, \"37\": {\"I\": 1.0}, \"38\": {\"I\": 1.0}, \"39\": {\"I\": 1.0}}" candidate_id=47149c6db0f537f6 formula=FAGe0.13Pb0.87I3 config_index=2 rattle_stdev=0.08 method=PBE fidelity=phase2_force energy=-112.44546227797747 stress="-0.0011877670867753607 4.90075272734308e-05 4.9551405095433484e-06 4.90075272734308e-05 -0.0013268771917313467 -9.667883258882083e-05 4.9551405095433484e-06 -9.667883258882083e-05 -0.0005737728847019284" pbc="T T T"
Cs      12.65503966      12.57793158       0.17879753        0       0.00992683      -0.01599987      -0.04834252
Pb       3.05845435       3.14890736       3.07422130        1       0.69204148       0.26300066       0.12876659
I        3.20508234       3.10476123      12.67063485        2      -0.03035398       0.03158328      -0.02207260
I        3.19874584      12.78686869       3.04949340        3      -0.00154089      -0.59047766       0.03262607
I       12.83911803       3.21452996       3.16455610        4      -0.96728734       0.02449701      -0.01659109
Cs      12.63180704      12.58616372       6.27663332        5      -0.02670655      -0.02049615       0.04577105
Pb       3.11757930       3.27272448       9.46286306        6       0.36959369      -0.14618362       0.01043504
I        3.12793097       3.17040351       6.35781159        7       0.02067388      -0.08356874      -0.13804265
I        3.08035693      -0.12248023       9.59801955        8      -0.00024520       0.53298164       0.00273556
I        0.03443282       3.11935150       9.34193731        9      -0.20732748       0.00577262       0.02180673
Cs      12.60107738       6.30374008       0.04346002       10       0.01519806       0.03098848      -0.01513525
Pb       3.13267749       9.58745865       3.15894784       11       0.17962076      -0.20440138       0.06122407
I        3.13656433       9.44221809      -0.03096241       12       0.01018976      -0.05059130       0.38465647
I        3.23820424       6.28528257       3.35181584       13      -0.01798930       0.47697463      -0.04826270
I       12.41946222       9.50591127       3.19240027       14       0.63604321      -0.03782985       0.01881297
Cs      12.63586588       6.39289146       6.32256282       15      -0.01147320       0.01997233       0.01490905
Pb       3.15925052       9.63279377       9.55265298       16      -0.01142764      -0.40575137      -0.10775480
I        3.21962457       9.47741624       6.39939627       17      -0.01465774       0.05105565      -0.34858551
I        3.28151323       6.29020424       9.48617859       18      -0.00938690       0.12594433       0.03203176
I       12.77694887       9.31741046       9.53839331       19      -0.15217215      -0.01443022      -0.00406063
Cs       6.46913819      12.51937079       0.09668665       20      -0.01306590       0.02615700      -0.01394634
Pb       9.48503003       2.98746957       3.16637960       21      -0.15433628       0.04214411       0.12597938
I        9.40481604       3.21411531      -0.03499794       22       0.05925476       0.03838987       0.17710620
I        9.60963966      12.46193568       3.16900573       23       0.00983779       0.50909627      -0.01591299
I        6.35070998       3.34291878       3.14776998       24       0.30679165      -0.08567226      -0.00871556
Cs       6.34378901      12.56048735       6.33115858       25       0.03085814      -0.00475545       0.01278128
Pb       9.61514062       3.20713589       9.58628588       26      -0.32259839      -0.06349344      -0.23785271
I        9.41678886       3.22092170       6.32315873       27       0.04395787      -0.04797276      -0.06691436
I        9.57665418      12.61041819       9.67701814       28       0.03242649       0.46545140       0.01748936
I        6.36595574       3.21501065       9.47491177       29       0.09319676      -0.05442471       0.00256113
Cs       6.30579068       6.32351660       0.05233759       30      -0.01400838      -0.03328894       0.00926059
Ge       9.56792642       9.43903926       2.99758464       31      -0.28810375      -0.21997994       0.32360473
I        9.57679348       9.49925219       0.15476583       32       0.00108009      -0.03804275      -0.14893741
I        9.34196531       6.50963350       3.25143812       33       0.09303069      -0.13082054      -0.07872030
I        6.55497606       9.68999325       3.18000986       34      -0.53386246       0.00910194      -0.05579997
Cs       6.38624881       6.34973711       6.34390926       35       0.01016259      -0.00785128      -0.00699256
Pb       9.45998978       9.51691446       9.56069611       36       0.28888970       0.09871546      -0.37287101
I        9.42302877       9.53366560       6.24963402       37       0.06193198       0.05139234       0.23949451
I        9.51249089       6.45438792       9.40725799       38       0.04860140      -0.57252946       0.03750935
I        6.42856565       9.45356790       9.48112141       39      -0.24384357       0.02813609       0.05747415
40
Lattice="12.700052076829822 0.0 0.0 0.0 12.700052076829724 0.0 0.0 -3.588206069080636e-14 12.700052076829843" Properties=species:S:1:pos:R:3:spacegroup_kinds:I:1:forces:R:3 spacegroup="P 1" unit_cell=conventional occupancy="_JSON {\"0\": {\"Cs\": 1.0}, \"1\": {\"Pb\": 1.0}, \"2\": {\"I\": 1.0}, \"3\": {\"I\": 1.0}, \"4\": {\"I\": 1.0}, \"5\": {\"Cs\": 1.0}, \"6\": {\"Pb\": 1.0}, \"7\": {\"I\": 1.0}, \"8\": {\"I\": 1.0}, \"9\": {\"I\": 1.0}, \"10\": {\"Cs\": 1.0}, \"11\": {\"Pb\": 1.0}, \"12\": {\"I\": 1.0}, \"13\": {\"I\": 1.0}, \"14\": {\"I\": 1.0}, \"15\": {\"Cs\": 1.0}, \"16\": {\"Pb\": 1.0}, \"17\": {\"I\": 1.0}, \"18\": {\"I\": 1.0}, \"19\": {\"I\": 1.0}, \"20\": {\"Cs\": 1.0}, \"21\": {\"Pb\": 1.0}, \"22\": {\"I\": 1.0}, \"23\": {\"I\": 1.0}, \"24\": {\"I\": 1.0}, \"25\": {\"Cs\": 1.0}, \"26\": {\"Pb\": 1.0}, \"27\": {\"I\": 1.0}, \"28\": {\"I\": 1.0}, \"29\": {\"I\": 1.0}, \"30\": {\"Cs\": 1.0}, \"31\": {\"Ge\": 1.0}, \"32\": {\"I\": 1.0}, \"33\": {\"I\": 1.0}, \"34\": {\"I\": 1.0}, \"35\": {\"Cs\": 1.0}, \"36\": {\"Pb\": 1.0}, \"37\": {\"I\": 1.0}, \"38\": {\"I\": 1.0}, \"39\": {\"I\": 1.0}}" candidate_id=47149c6db0f537f6 formula=FAGe0.13Pb0.87I3 config_index=3 rattle_stdev=0.08 method=PBE fidelity=phase2_force energy=-112.2539522234288 stress="-0.0015052409378338394 0.00016975470023361611 3.1119928712438514e-05 0.00016975470023361611 -0.0011788463118700048 -1.4072833448991615e-06 3.1119928712438514e-05 -1.4072833448991615e-06 -0.0006169660645195738" pbc="T T T"
Cs      12.55837322      12.82539693       0.03980053        0       0.01636951       0.04527447       0.02891551
Pb       3.15599933       3.18174283       3.25177640        1      -0.26877271      -0.27999477      -0.65196137
I        3.12048514       3.21733865      12.63663946        2       0.02343637      -0.00325719      -0.04359392
I        3.28740952      12.67282129       3.07054216        3       0.02554071      -0.18099983       0.00113688
I       12.63651292       3.04533836       3.07261514        4       0.12901759       0.03106308       0.02774887
Cs      12.64611296      12.59601182       6.25357145        5      -0.04238064       0.00772983      -0.03029129
Pb       3.19606668       2.97059758       9.39141638        6      -0.03682675       0.48097668       0.44250147
I        3.11807420       2.97927097       6.24931041        7      -0.03520521      -0.03209687       0.34643895
I        3.22810282      -0.10088756       9.46180628        8      -0.02193964       0.41152547       0.01503940
I       -0.11877050       3.07984982       9.70637427        9       0.44154074       0.01998612      -0.00371638
Cs      12.62591447       6.45775454      -0.10839968       10       0.00538709      -0.06533737      -0.00531416
Pb       3.13571585       9.42907933       3.11059539       11      -0.07834342       0.31082144       0.04728322
I        3.28747851       9.50661380      -0.04783938       12      -0.01782871      -0.04012717       0.46384760
I        3.16200602       6.30497199       3.29614243       13      -0.00587613       0.20695582       0.01923797
I       12.39167528       9.57772143       3.14748372       14       1.14907307      -0.09913153       0.03824410
Cs      12.60336085       6.39978352       6.26144738       15      -0.04575932       0.00577987      -0.00113655
Pb       3.21922866       9.55564772       9.49533583       16      -0.17497399      -0.56129459       0.05215063
I        3.30126454       9.54238286       6.43769703       17       0.00434637       0.01644638      -0.58671645
I        3.23353146       6.40252656       9.47861457       18      -0.01836830      -0.30003446      -0.03339752
I       12.68284857       9.39824987       9.51906174       19      -0.11157962       0.01083810       0.00115889
Cs       6.48192612      12.64282288      -0.01614859       20      -0.01823737       0.00995099       0.01324479
Pb       9.37331613       3.05178910       3.14358716       21       0.40771694       0.12883509       0.04838620
I        9.49188059       3.23189844       0.06065838       22      -0.04884580      -0.01887287      -0.19587937
I        9.71682596      12.51789852       3.09394232       23      -0.12738107       0.11802925       0.04051684
I        6.32379789       3.24269120       3.21456174       24      -0.17139572      -0.00656471       0.02447919
Cs       6.40831247      12.70582398       6.33944000       25       0.02264422      -0.03511038      -0.00338001
Pb       9.54320997       3.14378578       9.46759765       26      -0.15396442      -0.03259731       0.02822906
I        9.64856795       3.10597741       6.31206349       27       0.00374130       0.00545768       0.10051850
I        9.53174320      12.82513350       9.43069208       28      -0.03091531      -0.92388626       0.04939392
I        6.31670871       3.14114187       9.56978600       29      -0.15481602      -0.03236633      -0.04053113
Cs       6.33984184       6.39172121       0.10537178       30       0.00652663      -0.02642596      -0.02725397
Ge       9.55823178       9.50694028       3.23546047       31      -0.16442052      -0.15684167       0.13273722
I        9.54304945       9.48985881       0.22089731       32       0.02636090      -0.02406619      -0.35242707
I        9.45334920       6.40464111       3.31441175       33       0.07731574      -0.04177023      -0.00835974
I        6.75214305       9.47114104       3.11333108       34      -0.97654309       0.05325507       0.03033655
Cs       6.47046080       6.47767846       6.32368051       35       0.02648432       0.02582053       0.01001612
Pb       9.52603853       9.46907734       9.67514299       36       0.04227258       0.02504688      -0.11542064
I        9.48898639       9.50054031       6.29447442       37       0.01605043       0.02499555       0.12663704
I        9.47275178       6.17795706       9.57346721       38      -0.01513757       0.90423408       0.00156588
I        6.31733694       9.54163824       9.61275122       39       0.29506525       0.01440905       0.00769852
