40
Lattice="11.758785215075783 0.0 0.0 0.0 11.769821476553227 0.0 0.0 -9.723881336144171e-15 11.758785215075969" Properties=species:S:1:pos:R:3:spacegroup_kinds:I:1:forces:R:3 spacegroup="P 1" unit_cell=conventional occupancy="_JSON {\"0\": {\"Cs\": 1.0}, \"1\": {\"Pb\": 1.0}, \"2\": {\"Br\": 1.0}, \"3\": {\"Br\": 1.0}, \"4\": {\"Br\": 1.0}, \"5\": {\"Cs\": 1.0}, \"6\": {\"Pb\": 1.0}, \"7\": {\"Br\": 1.0}, \"8\": {\"Br\": 1.0}, \"9\": {\"Br\": 1.0}, \"10\": {\"Cs\": 1.0}, \"11\": {\"Pb\": 1.0}, \"12\": {\"Br\": 1.0}, \"13\": {\"Br\": 1.0}, \"14\": {\"Br\": 1.0}, \"15\": {\"Cs\": 1.0}, \"16\": {\"Ge\": 1.0}, \"17\": {\"Br\": 1.0}, \"18\": {\"Br\": 1.0}, \"19\": {\"Br\": 1.0}, \"20\": {\"Cs\": 1.0}, \"21\": {\"Ge\": 1.0}, \"22\": {\"Br\": 1.0}, \"23\": {\"Br\": 1.0}, \"24\": {\"Br\": 1.0}, \"25\": {\"Cs\": 1.0}, \"26\": {\"Pb\": 1.0}, \"27\": {\"Br\": 1.0}, \"28\": {\"Br\": 1.0}, \"29\": {\"Br\": 1.0}, \"30\": {\"Cs\": 1.0}, \"31\": {\"Ge\": 1.0}, \"32\": {\"Br\": 1.0}, \"33\": {\"Br\": 1.0}, \"34\": {\"Br\": 1.0}, \"35\": {\"Cs\": 1.0}, \"36\": {\"Pb\": 1.0}, \"37\": {\"Br\": 1.0}, \"38\": {\"Br\": 1.0}, \"39\": {\"Br\": 1.0}}" candidate_id=ab36cc76be97611a formula=CsGe0.39Pb0.61Br3 config_index=0 rattle_stdev=0.0 method=PBE fidelity=phase2_force energy=-126.90695489700938 stress="0.001569376588411058 1.1553689232090505e-15 1.2839232290894017e-15 1.1553689232090505e-15 0.0008211966341759749 -1.1546898378717024e-15 1.2839232290894017e-15 -1.1546898378717024e-15 0.0015693765884110087" pbc="T T T"
Cs      11.67768347      11.69869679       0.08110175        0       0.03288932       0.01893002      -0.03288932
Pb       2.93969630       2.94245537       2.93969630        1       0.00000000       0.00000000      -0.00000000
Br       2.93969630       2.94245537       0.00558369        2       0.00000000       0.00000000       0.00512356
Br       2.93969630      11.76173324       2.93969630        3      -0.00000000      -0.01581128      -0.00000000
Br      11.62756319       2.94245537       2.93969630        4       0.00381347       0.00000000      -0.00000000
Cs      11.67768347      11.69869679       5.79829086        5       0.03288932       0.01893002       0.03288932
Pb       2.93969630       2.94245537       8.81908891        6       0.00000000       0.00000000      -0.00000000
Br       2.93969630       2.94245537       5.87380891        7      -0.00000000       0.00000000      -0.00512356
Br       2.93969630      11.60940649       8.81908891        8      -0.00000000       0.20772939       0.00000000
Br      11.75320152       2.94245537       8.81908891        9      -0.00512356       0.00000000      -0.00000000
Cs      11.67768347       5.95603543       0.08110175       10       0.03288932      -0.01893002      -0.03288932
Pb       2.93969630       8.82736611       2.93969630       11       0.00000000      -0.00000000       0.00000000
Br       2.93969630       8.82736611      11.62611598       12      -0.00000000      -0.00000000       0.22089616
Br       2.93969630       5.89299898       2.93969630       13      -0.00000000       0.01581128      -0.00000000
Br      11.63752358       8.82736611       2.93969630       14      -0.00572245      -0.00000000      -0.00000000
Cs      11.67768347       5.95603543       5.79829086       15       0.03288932      -0.01893002       0.03288932
Ge       2.93969630       8.82736611       8.81908891       16      -0.00000000      -0.00000000       0.00000000
Br       2.93969630       8.82736611       6.01206184       17      -0.00000000       0.00000000      -0.22089616
Br       2.93969630       6.04532572       8.81908891       18      -0.00000000      -0.20772939       0.00000000
Br       0.13266924       8.82736611       8.81908891       19      -0.22089616      -0.00000000       0.00000000
Cs       5.96049435      11.69869679       0.08110175       20      -0.03288932       0.01893002      -0.03288932
Ge       8.81908891       2.94245537       2.93969630       21      -0.00000000      -0.00000000       0.00000000
Br       8.81908891       2.94245537       0.13122203       22       0.00000000       0.00000000      -0.00381347
Br       8.81908891      11.75703747       2.93969630       23       0.00000000      -0.02646184      -0.00000000
Br       6.01061463       2.94245537       2.93969630       24      -0.00381347       0.00000000      -0.00000000
Cs       5.96049435      11.69869679       5.79829086       25      -0.03288932       0.01893002       0.03288932
Pb       8.81908891       2.94245537       8.81908891       26       0.00000000       0.00000000      -0.00000000
Br       8.81908891       2.94245537       5.74817058       27       0.00000000       0.00000000       0.00381347
Br       8.81908891      11.76173324       8.81908891       28       0.00000000      -0.01581128       0.00000000
Br       5.88497630       2.94245537       8.81908891       29       0.00512356       0.00000000       0.00000000
Cs       5.96049435       5.95603543       0.08110175       30      -0.03288932      -0.01893002      -0.03288932
Ge       8.81908891       8.82736611       2.93969630       31      -0.00000000       0.00000000       0.00000000
Br       8.81908891       8.82736611       0.12126164       32       0.00000000      -0.00000000       0.00572245
Br       8.81908891       5.89769474       2.93969630       33       0.00000000       0.02646184      -0.00000000
Br       6.00065424       8.82736611       2.93969630       34       0.00572245      -0.00000000       0.00000000
Cs       5.96049435       5.95603543       5.79829086       35      -0.03288932      -0.01893002       0.03288932
Pb       8.81908891       8.82736611       8.81908891       36      -0.00000000      -0.00000000      -0.00000000
Br       8.81908891       8.82736611       5.75813097       37      -0.00000000      -0.00000000      -0.00572245
Br       8.81908891       5.89299898       8.81908891       38       0.00000000       0.01581128       0.00000000
Br       5.74672337       8.82736611       8.81908891       39       0.22089616       0.00000000       0.00000000
40
Lattice="11.758785215075783 0.0 0.0 0.0 11.769821476553227 0.0 0.0 -9.723881336144171e-15 11.758785215075969" Properties=species:S:1:pos:R:3:spacegroup_kinds:I:1:forces:R:3 spacegroup="P 1" unit_cell=conventional occupancy="_JSON {\"0\": {\"Cs\": 1.0}, \"1\": {\"Pb\": 1.0}, \"2\": {\"Br\": 1.0}, \"3\": {\"Br\": 1.0}, \"4\": {\"Br\": 1.0}, \"5\": {\"Cs\": 1.0}, \"6\": {\"Pb\": 1.0}, \"7\": {\"Br\": 1.0}, \"8\": {\"Br\": 1.0}, \"9\": {\"Br\": 1.0}, \"10\": {\"Cs\": 1.0}, \"11\": {\"Pb\": 1.0}, \"12\": {\"Br\": 1.0}, \"13\": {\"Br\": 1.0}, \"14\": {\"Br\": 1.0}, \"15\": {\"Cs\": 1.0}, \"16\": {\"Ge\": 1.0}, \"17\": {\"Br\": 1.0}, \"18\": {\"Br\": 1.0}, \"19\": {\"Br\": 1.0}, \"20\": {\"Cs\": 1.0}, \"21\": {\"Ge\": 1.0}, \"22\": {\"Br\": 1.0}, \"23\": {\"Br\": 1.0}, \"24\": {\"Br\": 1.0}, \"25\": {\"Cs\": 1.0}, \"26\": {\"Pb\": 1.0}, \"27\": {\"Br\": 1.0}, \"28\": {\"Br\": 1.0}, \"29\": {\"Br\": 1.0}, \"30\": {\"Cs\": 1.0}, \"31\": {\"Ge\": 1.0}, \"32\": {\"Br\": 1.0}, \"33\": {\"Br\": 1.0}, \"34\": {\"Br\": 1.0}, \"35\": {\"Cs\": 1.0}, \"36\": {\"Pb\": 1.0}, \"37\": {\"Br\": 1.0}, \"38\": {\"Br\": 1.0}, \"39\": {\"Br\": 1.0}}" candidate_id=ab36cc76be97611a formula=CsGe0.39Pb0.61Br3 config_index=1 rattle_stdev=0.08 method=PBE fidelity=phase2_force energy=-126.48579699400702 stress="-0.0005947354312868187 4.7373239215894904e-05 -2.3942676693586788e-05 4.7373239215894904e-05 -0.00017764604193510426 -6.073679867970411e-05 -2.3942676693586788e-05 -6.073679867970411e-05 -0.0009881249894399557" pbc="T T T"
Cs      11.59076776      11.62701158       0.05659780        0       0.04067856       0.08072479       0.00237627
Pb       2.83250161       2.84592852       2.88835816        1       0.23548285       0.38992868       0.37354068
Br       3.04433195       3.09009220       0.07191289        2      -0.04563667      -0.02591917      -0.09223680
Br       2.93783240      11.74504812       2.86636672        3       0.01426687      -0.01258007      -0.00889516
Br      11.54158378       2.93556389       3.03376339        4       0.45719566       0.00497210       0.01781608
Cs      11.54687613      11.79695231       5.88440176        5       0.09248725       0.04786754      -0.04644372
Pb       2.97127813       2.91143930       8.86616105        6       0.07055592      -0.11723935      -0.10794045
Br       2.82503240       2.91656939       5.97404769        7       0.03537398       0.02409056      -0.28436788
Br       2.88123690      11.72368530       8.89466122        8      -0.00093246      -0.08429298      -0.03168140
Br      11.73208130       2.92939830       8.74196033        9       0.19099784       0.00134567       0.02248592
Cs      11.65027168       5.95994775       0.04113119       10       0.02693717      -0.05314740      -0.00607173
Pb       2.76274394       8.85215306       2.81252420       11       0.57990965      -0.35335996      -0.19770327
Br       2.99805267       8.81873401      11.57410226       12      -0.06404500       0.02300607       0.32090448
Br       2.80425178       5.86352105       2.81246657       13      -0.00309565       0.02841469       0.07637505
Br      11.75596405       8.86532132       3.01280541       14      -0.55882867       0.00063494       0.02536964
Cs      11.75452109       5.96279883       5.93566934       15       0.04394422      -0.05294327      -0.02059544
Ge       3.00784772       8.76697528       8.63607857       16       0.31468080       0.02876972       0.25987817
Br       2.94843540       8.79135346       5.97902405       17       0.00186554      -0.01705417      -0.11866111
Br       2.96521500       6.00203709       8.89498223       18      -0.00812921       0.19975262      -0.10951983
Br       0.14478404       8.83351830       8.81433688       19      -0.06363702       0.01931481      -0.04852948
Cs       5.95488326      11.65340486       0.10598218       20      -0.02176268       0.05874048      -0.00465325
Ge       8.87702562       2.98377137       3.02177876       21      -0.39065657      -0.20178015      -0.57677007
Br       8.86070112       2.87286829       0.25126724       22       0.06816131       0.04149097      -0.36209844
Br       8.91240668      11.79639063       2.88111533       23      -0.04918581      -0.08373873       0.15223737
Br       6.06503912       2.98317512       2.87269341       24      -0.34810411      -0.02625145       0.08467117
Cs       6.01230594      11.69969994       5.92305799       25      -0.07802963       0.04184344      -0.02981416
Pb       8.90185654       2.96947078       8.71488008       26      -0.33926849       0.32482751       0.26390243
Br       8.72960537       3.04721658       5.70671322       27       0.01286409      -0.04533493       0.44984034
Br       8.78763897      11.84517072       8.82506613       28       0.01549899      -0.20866876      -0.03304792
Br       5.89213127       2.94676796       8.85256467       29       0.02796163      -0.00387734      -0.02257779
Cs       5.86227595       5.86887210       0.10647170       30      -0.00915746      -0.02645100      -0.01401585
Ge       8.75665647       8.75887562       2.83410659       31      -0.30151877       0.03725861      -0.13794985
Br       8.85539144       8.90750810       0.23436041       32      -0.03447776      -0.06660606       0.04300646
Br       8.80387428       5.90010358       2.78982297       33       0.03821090       0.27092604       0.07036226
Br       5.99131209       8.81716688       3.01187105       34       0.37941674      -0.00612556      -0.05294148
Cs       5.85534458       5.94807137       5.80953485       35      -0.01874762      -0.04168574       0.01318336
Pb       9.02939339       8.96782841       8.60823709       36      -0.34811568      -0.46621866       0.62370489
Br       8.71615735       8.81362833       5.90216727       37       0.06712995       0.04317847      -0.52438462
Br       8.86778456       5.89552102       8.70177594       38       0.01794683       0.25128164       0.04666259
Br       5.77147863       8.91874353       8.77822138       39      -0.03372370      -0.02846221      -0.04159914
40
Lattice="11.758785215075783 0.0 0.0 0.0 11.769821476553227 0.0 0.0 -9.723881336144171e-15 11.758785215075969" Properties=species:S:1:pos:R:3:spacegroup_kinds:I:1:forces:R:3 spacegroup="P 1" unit_cell=conventional occupancy="_JSON {\"0\": {\"Cs\": 1.0}, \"1\": {\"Pb\": 1.0}, \"2\": {\"Br\": 1.0}, \"3\": {\"Br\": 1.0}, \"4\": {\"Br\": 1.0}, \"5\": {\"Cs\": 1.0}, \"6\": {\"Pb\": 1.0}, \"7\": {\"Br\": 1.0}, \"8\": {\"Br\": 1.0}, \"9\": {\"Br\": 1.0}, \"10\": {\"Cs\": 1.0}, \"11\": {\"Pb\": 1.0}, \"12\": {\"Br\": 1.0}, \"13\": {\"Br\": 1.0}, \"14\": {\"Br\": 1.0}, \"15\": {\"Cs\": 1.0}, \"16\": {\"Ge\": 1.0}, \"17\": {\"Br\": 1.0}, \"18\": {\"Br\": 1.0}, \"19\": {\"Br\": 1.0}, \"20\": {\"Cs\": 1.0}, \"21\": {\"Ge\": 1.0}, \"22\": {\"Br\": 1.0}, \"23\": {\"Br\": 1.0}, \"24\": {\"Br\": 1.0}, \"25\": {\"Cs\": 1.0}, \"26\": {\"Pb\": 1.0}, \"27\": {\"Br\": 1.0}, \"28\": {\"Br\": 1.0}, \"29\": {\"Br\": 1.0}, \"30\": {\"Cs\": 1.0}, \"31\": {\"Ge\": 1.0}, \"32\": {\"Br\": 1.0}, \"33\": {\"Br\": 1.0}, \"34\": {\"Br\": 1.0}, \"35\": {\"Cs\": 1.0}, \"36\": {\"Pb\": 1.0}, \"37\": {\"Br\": 1.0}, \"38\": {\"Br\": 1.0}, \"39\": {\"Br\": 1.0}}" candidate_id=ab36cc76be97611a formula=CsGe0.39Pb0.61Br3 config_index=2 rattle_stdev=0.08 method=PBE fidelity=phase2_force energy=-126.37585899514329 stress="0.00013804644366021787 -4.053700636459403e-06 -1.506671144599419e-05 -4.053700636459403e-06 -0.0009594245944843507 -8.438555052337393e-05 -1.506671144599419e-05 -8.438555052337393e-05 0.00032870613716212953" pbc="T T T"
Cs      11.66866643      11.61257167       0.22390390        0       0.06087593       0.03993896      -0.13563156
Pb       2.82313764       2.91634971       2.83890459        1       0.46553710       0.38836286       0.26842066
Br       2.96976562       2.87220358      -0.02241437        2      -0.04427702       0.02762646      -0.08945054
Br       2.96342912      11.85780619       2.81417668        3      -0.00776271      -0.77140905       0.03830674
Br      11.77588549       2.98197231       2.92923939        4      -0.65843928      -0.01353686      -0.04110022
Cs      11.64543381      11.62080381       5.76089352        5       0.00698430       0.01877922       0.11047038
Pb       2.88226259       3.04016683       8.75691291        6       0.53586279       0.21822386       0.02531193
Br       2.89261425       2.93784586       5.88017530        7       0.01075991      -0.10124368      -0.16223533
Br       2.84504022      11.48550710       8.89206941        8      -0.00271120       0.47587758      -0.01113651
Br      11.78621518       2.88679385       8.63598716        9      -0.21005292      -0.00238102       0.01101051
Cs      11.61470415       5.87375409       0.08856640       10       0.06793224       0.00260462      -0.04710047
Pb       2.89736077       8.88978570       2.92363113       11       0.25944697      -0.31563152       0.05678958
Br       2.90124762       8.74454514      11.58589723       12       0.01706623      -0.00470446       0.62012266
Br       3.00288752       5.81899917       3.11649913       13      -0.02553060       0.62866613      -0.07124000
Br      11.52550468       8.80823832       2.95708356       14       0.43515857      -0.02862620      -0.01390859
Cs      11.64949265       5.96290547       5.80682302       15       0.02996503      -0.01154274       0.05186926
Ge       2.92393381       8.93512082       8.84670283       16      -0.15993105      -0.31846625      -0.11502095
Br       2.98430786       8.77974329       6.07068842       17      -0.04420635       0.11341359      -0.56267215
Br       3.04619652       5.98692309       8.78022845       18      -0.03820805      -0.45814504       0.03898235
Br       0.21882237       8.61973751       8.83244317       19      -0.21748940       0.06319785      -0.00334417
Cs       6.04361113      11.55401088       0.14179302       20      -0.07551707       0.09978964      -0.08987138
Ge       8.77907989       2.75491192       2.93106289       21      -0.41810713       0.14322056       0.22410461
Br       8.69886590       2.98155766       0.08696774       22       0.11171379      -0.00649579       0.09411820
Br       8.90368951      11.68749205       2.93368902       23      -0.03135297       0.34634362      -0.03378820
Br       6.00204224       3.11036113       2.91245327       24       0.45323133      -0.22689416      -0.01302613
Cs       5.91826195      11.59512744       5.81541878       25      -0.00085103       0.03570275       0.07177408
Pb       8.90919048       2.97457824       8.88033574       26      -0.50998273      -0.09363216      -0.15347387
Br       8.71083871       2.98836405       5.73055961       27       0.08607946      -0.12345052      -0.15413963
Br       8.87070403      11.68135569       8.97106800       28       0.03840343       0.59273145       0.01996272
Br       5.90232517       2.98245300       8.76896162       29       0.10909826      -0.05925294      -0.00028177
Cs       5.88026362       5.89353061       0.09744397       30      -0.06253906      -0.05413127      -0.04494671
Ge       8.86197627       8.74136631       2.76226792       31      -0.35708685      -0.31505710       0.44918098
Br       8.87084333       8.80157924       0.10745650       32       0.01155252      -0.05301589       0.18701149
Br       8.63601517       5.88873123       3.01612141       33       0.18930769       0.27078276      -0.15303792
Br       6.03703330       8.99232030       2.94469314       34      -0.38083728      -0.02932904      -0.07749366
Cs       5.96072175       5.91975112       5.82816946       35      -0.04958988      -0.02109632       0.04471727
Pb       8.75403963       8.81924151       8.85474597       36       0.05312112       0.08862324      -0.49697431
Br       8.71707862       8.83599265       5.82630992       37       0.09026547       0.06043850       0.01090420
Br       8.80654074       5.98810452       8.70130784       38       0.06433636      -0.68865313       0.05150193
Br       5.81600664       8.75589495       8.77517126       39       0.19724827       0.08474856       0.09616142
40
Lattice="11.758785215075783 0.0 0.0 0.0 11.769821476553227 0.0 0.0 -9.723881336144171e-15 11.758785215075969" Properties=species:S:1:pos:R:3:spacegroup_kinds:I:1:forces:R:3 spacegroup="P 1" unit_cell=conventional occupancy="_JSON {\"0\": {\"Cs\": 1.0}, \"1\": {\"Pb\": 1.0}, \"2\": {\"Br\": 1.0}, \"3\": {\"Br\": 1.0}, \"4\": {\"Br\": 1.0}, \"5\": {\"Cs\": 1.0}, \"6\": {\"Pb\": 1.0}, \"7\": {\"Br\": 1.0}, \"8\": {\"Br\": 1.0}, \"9\": {\"Br\": 1.0}, \"10\": {\"Cs\": 1.0}, \"11\": {\"Pb\": 1.0}, \"12\": {\"Br\": 1.0}, \"13\": {\"Br\": 1.0}, \"14\": {\"Br\": 1.0}, \"15\": {\"Cs\": 1.0}, \"16\": {\"Ge\": 1.0}, \"17\": {\"Br\": 1.0}, \"18\": {\"Br\": 1.0}, \"19\": {\"Br\": 1.0}, \"20\": {\"Cs\": 1.0}, \"21\": {\"Ge\": 1.0}, \"22\": {\"Br\": 1.0}, \"23\": {\"Br\": 1.0}, \"24\": {\"Br\": 1.0}, \"25\": {\"Cs\": 1.0}, \"26\": {\"Pb\": 1.0}, \"27\": {\"Br\": 1.0}, \"28\": {\"Br\": 1.0}, \"29\": {\"Br\": 1.0}, \"30\": {\"Cs\": 1.0}, \"31\": {\"Ge\": 1.0}, \"32\": {\"Br\": 1.0}, \"33\": {\"Br\": 1.0}, \"34\": {\"Br\": 1.0}, \"35\": {\"Cs\": 1.0}, \"36\": {\"Pb\": 1.0}, \"37\": {\"Br\": 1.0}, \"38\": {\"Br\": 1.0}, \"39\": {\"Br\": 1.0}}" candidate_id=ab36cc76be97611a formula=CsGe0.39Pb0.61Br3 config_index=3 rattle_stdev=0.08 method=PBE fidelity=phase2_force energy=-126.04961248651746 stress="-0.00035139157143522547 0.00013446980235720316 1.7688632503540897e-05 0.00013446980235720316 -0.0013554520202595335 -5.173159938485467e-05 1.7688632503540897e-05 -5.173159938485467e-05 0.00014819940268811032" pbc="T T T"
Cs      11.57199999      11.86003702       0.08490690        0       0.09361086       0.05963472      -0.02757010
Pb       2.92068261       2.94918518       3.01645968        1      -0.27984574      -0.34830021      -0.93513565
Br       2.88516842       2.98478100      -0.05640976        2       0.03492077      -0.00246205      -0.08344139
Br       3.05209280      11.74375880       2.83522545        3       0.02942281      -0.25813671       0.01516666
Br      11.57328037       2.81278071       2.83729842        4       0.23668588       0.07934300       0.06402478
Cs      11.65973973      11.63065190       5.73783165        5       0.00032060       0.04862245       0.03146750
Pb       2.96074997       2.73803993       8.68546624        6      -0.07248007       0.27854738       0.60864229
Br       2.88275749       2.74671332       5.77167413        7      -0.03208407      -0.05031451       0.49380791
Br       2.99278611      11.50709977       8.75585613        8      -0.03820895       0.76682721       0.00946730
Br      11.63301186       2.84729217       9.00042412        9       0.61621837       0.01632869      -0.00318092
Cs      11.63954124       6.02776855      -0.06329331       10       0.06826226      -0.11810410      -0.02364595
Pb       2.90039913       8.73140638       2.87527868       11       0.00089109       0.42177919      -0.09034011
Br       3.05216179       8.80894085      11.56902026       12      -0.07005635      -0.04080410       0.77305003
Br       2.92668930       5.83868858       3.06082572       13      -0.00913721       0.29528159       0.03249874
Br      11.49771775       8.88004848       2.91216700       14       1.00594570      -0.10190029       0.02387272
Cs      11.61698762       5.96979753       5.74570758       15      -0.00800817      -0.03754136       0.04761790
Ge       2.98391194       8.85797477       8.78938568       16      -0.04782854      -0.62876858      -0.01474336
Br       3.06594782       8.84470991       6.10898917       17      -0.02480245       0.00654194      -0.68360927
Br       2.99821475       6.09924541       8.77266442       18      -0.01285164      -0.40959108      -0.04175147
Br       0.12472207       8.70057692       8.81311160       19      -0.43253139       0.04665597       0.01474956
Cs       6.05639906      11.67746297       0.02895778       20      -0.08148799       0.04800104      -0.01161630
Ge       8.66736598       2.81923145       2.90827045       21       0.41594948       0.21949896      -0.03663759
Br       8.78593044       2.99934079       0.18262406       22      -0.09884054      -0.05217137      -0.07971864
Br       9.01087582      11.74345489       2.85862561       23      -0.25052752      -0.13615078       0.05848026
Br       5.97513014       3.01013354       2.97924503       24      -0.09953688      -0.07870131       0.03032282
Cs       5.98278541      11.74046406       5.82370020       25      -0.00543873      -0.01861441       0.02082221
Pb       8.83725982       2.91122813       8.76164750       26      -0.23772609      -0.01039412      -0.06777430
Br       8.94261780       2.87341976       5.71946437       27      -0.05598862      -0.02148228       0.16176610
Br       8.82579306      11.89607100       8.72474193       28      -0.02956329      -1.20414463       0.06320377
Br       5.85307813       2.90858422       8.86383586       29      -0.23476767      -0.04586259      -0.04752697
Cs       5.91431478       5.96173522       0.15047816       30      -0.02865506      -0.07690950      -0.08777790
Ge       8.85228163       8.80926733       3.00014375       31      -0.19628348      -0.11783642       0.09842408
Br       8.83709930       8.79218586       0.17358798       32       0.02806872      -0.00648679      -0.05785381
Br       8.74739905       5.78373885       3.07909503       33       0.08338918       0.17520086      -0.05653433
Br       6.23420029       8.77346809       2.87801436       34      -0.84447584       0.05534415       0.03810263
Cs       6.04493374       6.04769247       5.80794071       35      -0.03245423      -0.02486679       0.06930124
Pb       8.82008838       8.77140439       8.96919284       36       0.10297344       0.03834694      -0.26272786
Br       8.78303624       8.80286736       5.87115032       37       0.02801771       0.02614325      -0.05270644
Br       8.76680163       5.71167365       8.86751707       38      -0.00634807       1.18108874       0.01686086
Br       5.70477793       8.84396529       8.90680108       39       0.47571069       0.01453332      -0.01050062
