Cs Sn I  Cs Sn I  Cs Sn I  Cs Sn I  Cs Sn I  Cs Sn I  Cs Sn I  Cs Sn I 
 1.0000000000000000
    13.4249879262515535    0.0000000000000000    0.0000000000000000
     0.0000000000000000   13.4249879262515535    0.0000000000000000
     0.0000000000000000    0.0000000000000000   13.4249879262515535
 Cs  Sn  I   Cs  Sn  I   Cs  Sn  I   Cs  Sn  I   Cs  Sn  I   Cs  Sn  I   Cs  Sn  I   Cs  Sn  I  
   1   1   3   1   1   3   1   1   3   1   1   3   1   1   3   1   1   3   1   1   3   1   1   3
Cartesian
  0.0000000000000000  0.0000000000000000  0.0000000000000000
  3.3562469815628884  3.3562469815628884  3.3562469815628884
  3.3562469815628884  3.3562469815628884  0.0000000000000000
  3.3562469815628884  0.0000000000000000  3.3562469815628884
  0.0000000000000000  3.3562469815628884  3.3562469815628884
  0.0000000000000000  0.0000000000000000  6.7124939631257758
  3.3562469815628884  3.3562469815628884 10.0687409446886651
  3.3562469815628884  3.3562469815628884  6.7124939631257758
  3.3562469815628884  0.0000000000000000 10.0687409446886651
  0.0000000000000000  3.3562469815628884 10.0687409446886651
  0.0000000000000000  6.7124939631257758  0.0000000000000000
  3.3562469815628884 10.0687409446886651  3.3562469815628884
  3.3562469815628884 10.0687409446886651  0.0000000000000000
  3.3562469815628884  6.7124939631257758  3.3562469815628884
  0.0000000000000000 10.0687409446886651  3.3562469815628884
  0.0000000000000000  6.7124939631257758  6.7124939631257758
  3.3562469815628884 10.0687409446886651 10.0687409446886651
  3.3562469815628884 10.0687409446886651  6.7124939631257758
  3.3562469815628884  6.7124939631257758 10.0687409446886651
  0.0000000000000000 10.0687409446886651 10.0687409446886651
  6.7124939631257758  0.0000000000000000  0.0000000000000000
 10.0687409446886651  3.3562469815628884  3.3562469815628884
 10.0687409446886651  3.3562469815628884  0.0000000000000000
 10.0687409446886651  0.0000000000000000  3.3562469815628884
  6.7124939631257758  3.3562469815628884  3.3562469815628884
  6.7124939631257758  0.0000000000000000  6.7124939631257758
 10.0687409446886651  3.3562469815628884 10.0687409446886651
 10.0687409446886651  3.3562469815628884  6.7124939631257758
 10.0687409446886651  0.0000000000000000 10.0687409446886651
  6.7124939631257758  3.3562469815628884 10.0687409446886651
  6.7124939631257758  6.7124939631257758  0.0000000000000000
 10.0687409446886651 10.0687409446886651  3.3562469815628884
 10.0687409446886651 10.0687409446886651  0.0000000000000000
 10.0687409446886651  6.7124939631257758  3.3562469815628884
  6.7124939631257758 10.0687409446886651  3.3562469815628884
  6.7124939631257758  6.7124939631257758  6.7124939631257758
 10.0687409446886651 10.0687409446886651 10.0687409446886651
 10.0687409446886651 10.0687409446886651  6.7124939631257758
 10.0687409446886651  6.7124939631257758 10.0687409446886651
  6.7124939631257758 10.0687409446886651 10.0687409446886651
