40
Lattice="12.620927395228078 0.0 0.0 0.0 12.619060176696808 0.0 0.0 6.802055613771894e-14 12.619060176696964" Properties=species:S:1:pos:R:3:spacegroup_kinds:I:1:forces:R:3 spacegroup="P 1" unit_cell=conventional occupancy="_JSON {\"0\": {\"Cs\": 1.0}, \"1\": {\"Sn\": 1.0}, \"2\": {\"I\": 1.0}, \"3\": {\"I\": 1.0}, \"4\": {\"I\": 1.0}, \"5\": {\"Cs\": 1.0}, \"6\": {\"Pb\": 1.0}, \"7\": {\"I\": 1.0}, \"8\": {\"I\": 1.0}, \"9\": {\"I\": 1.0}, \"10\": {\"Cs\": 1.0}, \"11\": {\"Sn\": 1.0}, \"12\": {\"I\": 1.0}, \"13\": {\"I\": 1.0}, \"14\": {\"I\": 1.0}, \"15\": {\"Cs\": 1.0}, \"16\": {\"Sn\": 1.0}, \"17\": {\"I\": 1.0}, \"18\": {\"I\": 1.0}, \"19\": {\"I\": 1.0}, \"20\": {\"Cs\": 1.0}, \"21\": {\"Sn\": 1.0}, \"22\": {\"I\": 1.0}, \"23\": {\"I\": 1.0}, \"24\": {\"I\": 1.0}, \"25\": {\"Cs\": 1.0}, \"26\": {\"Pb\": 1.0}, \"27\": {\"I\": 1.0}, \"28\": {\"I\": 1.0}, \"29\": {\"I\": 1.0}, \"30\": {\"Cs\": 1.0}, \"31\": {\"Sn\": 1.0}, \"32\": {\"I\": 1.0}, \"33\": {\"I\": 1.0}, \"34\": {\"I\": 1.0}, \"35\": {\"Cs\": 1.0}, \"36\": {\"Sn\": 1.0}, \"37\": {\"I\": 1.0}, \"38\": {\"I\": 1.0}, \"39\": {\"I\": 1.0}}" candidate_id=06db828a179ff946 formula=FAPb0.25Sn0.75I3 config_index=0 rattle_stdev=0.0 method=PBE fidelity=phase2_force energy=-112.54817172565413 stress="0.00036580131989363097 0.0 0.0 0.0 0.00024482967505793323 2.4410665794731415e-11 0.0 2.4410665794731415e-11 0.0002448296750579273" pbc="T T T"
Cs      12.62092740      12.59140897       0.02765120        0       0.00000000      -0.00151863       0.00151863
Sn       3.15523185       3.15476504       3.15476504        1       0.00020794       0.00020478       0.00020666
I        3.15523185       3.15476504       0.07762271        2      -0.00000147      -0.00000236      -0.23987171
I        3.15523185      12.61016975       3.15476504        3      -0.00000310       0.01266137      -0.00000230
I       12.62092740       3.15476504       3.15476504        4      -0.00000000      -0.00000304      -0.00000228
Cs      12.62092740      12.59140897       6.28187888        5       0.00000000      -0.00151878      -0.00150987
Pb       3.15523185       3.15476504       9.46429513        6       0.00030230       0.00014094      -0.00014094
I        3.15523185       3.15476504       6.23190738        7      -0.00000029      -0.00000141       0.23994435
I        3.15523185      12.54143747       9.46429513        8      -0.00000147       0.23987171       0.00000236
I       12.62092740       3.15476504       9.46429513        9       0.00000000      -0.00000127       0.00000127
Cs      12.62092740       6.33718129       0.02765120       10       0.00000000       0.00150987       0.00151878
Sn       3.15523185       9.46429513       3.15476504       11       0.00020676      -0.00021069       0.00021069
I        3.15523185       9.46429513       0.00889043       12      -0.00000310       0.00000230      -0.01266137
I        3.15523185       6.31842052       3.15476504       13      -0.00000170      -0.01266284      -0.00000189
I       12.62092740       9.46429513       3.15476504       14       0.00000000       0.00000302      -0.00000302
Cs      12.62092740       6.33718129       6.28187888       15       0.00000000       0.00150948      -0.00150948
Sn       3.15523185       9.46429513       9.46429513       16       0.00020794      -0.00020666      -0.00020478
I        3.15523185       9.46429513       6.30063966       17      -0.00000170       0.00000189       0.01266284
I        3.15523185       6.38715280       9.46429513       18      -0.00000029      -0.23994435       0.00000141
I       12.62092740       9.46429513       9.46429513       19      -0.00000000       0.00000228       0.00000304
Cs       6.31046370      12.59140897       0.02765120       20       0.00000000      -0.00151668       0.00151668
Sn       9.46569555       3.15476504       3.15476504       21      -0.00020794       0.00020478       0.00020666
I        9.46569555       3.15476504       0.07762271       22       0.00000147      -0.00000236      -0.23987171
I        9.46569555      12.61016975       3.15476504       23       0.00000310       0.01266137      -0.00000230
I        6.31046370       3.15476504       3.15476504       24      -0.00000000      -0.00000182      -0.00000129
Cs       6.31046370      12.59140897       6.28187888       25       0.00000000      -0.00151703      -0.00150744
Pb       9.46569555       3.15476504       9.46429513       26      -0.00030230       0.00014094      -0.00014094
I        9.46569555       3.15476504       6.23190738       27       0.00000029      -0.00000141       0.23994435
I        9.46569555      12.54143747       9.46429513       28       0.00000147       0.23987171       0.00000236
I        6.31046370       3.15476504       9.46429513       29       0.00000000      -0.00000019       0.00000019
Cs       6.31046370       6.33718129       0.02765120       30       0.00000000       0.00150744       0.00151703
Sn       9.46569555       9.46429513       3.15476504       31      -0.00020676      -0.00021069       0.00021069
I        9.46569555       9.46429513       0.00889043       32       0.00000310       0.00000230      -0.01266137
I        9.46569555       6.31842052       3.15476504       33       0.00000170      -0.01266284      -0.00000189
I        6.31046370       9.46429513       3.15476504       34       0.00000000       0.00000161      -0.00000161
Cs       6.31046370       6.33718129       6.28187888       35       0.00000000       0.00150737      -0.00150737
Sn       9.46569555       9.46429513       9.46429513       36      -0.00020794      -0.00020666      -0.00020478
I        9.46569555       9.46429513       6.30063966       37       0.00000170       0.00000189       0.01266284
I        9.46569555       6.38715280       9.46429513       38       0.00000029      -0.23994435       0.00000141
I        6.31046370       9.46429513       9.46429513       39       0.00000000       0.00000129       0.00000182
40
Lattice="12.620927395228078 0.0 0.0 0.0 12.619060176696808 0.0 0.0 6.802055613771894e-14 12.619060176696964" Properties=species:S:1:pos:R:3:spacegroup_kinds:I:1:forces:R:3 spacegroup="P 1" unit_cell=conventional occupancy="_JSON {\"0\": {\"Cs\": 1.0}, \"1\": {\"Sn\": 1.0}, \"2\": {\"I\": 1.0}, \"3\": {\"I\": 1.0}, \"4\": {\"I\": 1.0}, \"5\": {\"Cs\": 1.0}, \"6\": {\"Pb\": 1.0}, \"7\": {\"I\": 1.0}, \"8\": {\"I\": 1.0}, \"9\": {\"I\": 1.0}, \"10\": {\"Cs\": 1.0}, \"11\": {\"Sn\": 1.0}, \"12\": {\"I\": 1.0}, \"13\": {\"I\": 1.0}, \"14\": {\"I\": 1.0}, \"15\": {\"Cs\": 1.0}, \"16\": {\"Sn\": 1.0}, \"17\": {\"I\": 1.0}, \"18\": {\"I\": 1.0}, \"19\": {\"I\": 1.0}, \"20\": {\"Cs\": 1.0}, \"21\": {\"Sn\": 1.0}, \"22\": {\"I\": 1.0}, \"23\": {\"I\": 1.0}, \"24\": {\"I\": 1.0}, \"25\": {\"Cs\": 1.0}, \"26\": {\"Pb\": 1.0}, \"27\": {\"I\": 1.0}, \"28\": {\"I\": 1.0}, \"29\": {\"I\": 1.0}, \"30\": {\"Cs\": 1.0}, \"31\": {\"Sn\": 1.0}, \"32\": {\"I\": 1.0}, \"33\": {\"I\": 1.0}, \"34\": {\"I\": 1.0}, \"35\": {\"Cs\": 1.0}, \"36\": {\"Sn\": 1.0}, \"37\": {\"I\": 1.0}, \"38\": {\"I\": 1.0}, \"39\": {\"I\": 1.0}}" candidate_id=06db828a179ff946 formula=FAPb0.25Sn0.75I3 config_index=1 rattle_stdev=0.08 method=PBE fidelity=phase2_force energy=-112.12624032828089 stress="-0.0012777489937987835 2.173908606188547e-05 1.7683961019237133e-05 2.173908606188547e-05 -0.00045409181853505045 -5.900299806264192e-05 1.7683961019237133e-05 -5.900299806264192e-05 -0.001949213394753807" pbc="T T T"
Cs      12.53401169      12.51972376       0.00314725        0      -0.01700434       0.02572815       0.02724940
Sn       3.04803716       3.05823820       3.10342690        1       0.21695078       0.21972063       0.28708169
I        3.25986750       3.30240188       0.14395191        2      -0.06285541      -0.04215797      -0.32196581
I        3.15336794      12.59348463       3.08143546        3       0.00013937       0.05059376      -0.00619075
I       12.53494799       3.14787356       3.24883213        4       0.42301857      -0.00302842       0.00115155
Cs      12.49012006      12.68966449       6.36798979        5       0.04190258       0.03019837      -0.04007101
Pb       3.18681368       3.12374898       9.51136727        6       0.05151409      -0.02831047      -0.15763248
I        3.04056794       3.12887907       6.33214615        7       0.04387276       0.02232752       0.04662107
I        3.09677244      12.65571627       9.53986744        8      -0.01453951      -0.22148655       0.00846910
I       12.59980717       3.14170798       9.38716655        9       0.14659823       0.00846013       0.02763416
Cs      12.59351561       6.34109361      -0.01231936       10      -0.00856745      -0.02040074       0.01916594
Sn       2.97827949       9.48908208       3.02759294       11       0.59205312      -0.24256776      -0.11545699
I        3.21358822       9.45566303      -0.04312329       12      -0.05576547       0.02014661       0.04211466
I        3.01978733       6.28894259       3.02753531       13       0.00240736       0.03298798       0.07489811
I       12.73936786       9.50225035       3.22787415       14      -0.64664157       0.01112707       0.02140320
Cs      12.69776502       6.34394470       6.41925736       15       0.01892194      -0.03606751      -0.02450693
Sn       3.22338327       9.40390431       9.28128479       16       0.25109244       0.13836277       0.18845041
I        3.16397094       9.42828248       6.26760186       17       0.00312292      -0.01294815      -0.00064901
I        3.18075055       6.34386416       9.54018845       18      -0.02013807       0.10790737      -0.03944546
I       12.63304220       9.47044733       9.45954310       19       0.21771986       0.02317497      -0.01611225
Cs       6.30485260      12.54611705       0.05253163       20       0.01516386       0.01296882       0.02410477
Sn       9.52363225       3.19608105       3.23684750       21      -0.35101822      -0.21537374      -0.52639824
I        9.50730775       3.08517796       0.19766792       22       0.04137662       0.01754762      -0.59672643
I        9.55901332      12.64952291       3.09618407       23      -0.01308543      -0.08533308       0.11166208
I        6.36488819       3.19548479       3.08776215       24      -0.26870531      -0.01534966       0.06552749
Cs       6.36227529      12.59241213       6.40664601       25      -0.03226413       0.00757142      -0.03010783
Pb       9.54846318       3.18178046       9.36008630       26      -0.22473179       0.24231006       0.24677635
I        9.37621200       3.25952625       6.19045002       27      -0.02315453      -0.02483728       0.72045079
I        9.43424560      12.62487495       9.47027235       28       0.02555701       0.11081764      -0.02763680
I        6.31761866       3.15907763       9.49777089       29       0.01174293      -0.00107565      -0.00285655
Cs       6.21224529       6.25001797       0.05302115       30       0.01684765      -0.00049780       0.02916337
Sn       9.40326310       9.39580465       3.04917533       31      -0.20484160       0.19605646       0.07059936
I        9.50199808       9.54443712       0.12198920       32       0.00074700      -0.02163469      -0.16510066
I        9.45048092       6.32082936       3.00489171       33       0.03159363       0.09707292       0.02423231
I        6.30112154       9.45409591       3.22693979       34       0.28785804      -0.00572033      -0.01288659
Cs       6.20531392       6.32921723       6.29312287       35      -0.00558836      -0.01454544      -0.01914942
Sn       9.67600002       9.60475744       9.25344331       36      -0.40360006      -0.34200875       0.64648530
I        9.36276399       9.45055736       6.44467596       37       0.05559521       0.04756517      -0.65160281
I        9.51439120       6.38967484       9.34698216       38       0.01276399      -0.07569642       0.05608297
I        6.33521896       9.55567256       9.42342760       39      -0.15514622      -0.01598034       0.01375060
40
Lattice="12.620927395228078 0.0 0.0 0.0 12.619060176696808 0.0 0.0 6.802055613771894e-14 12.619060176696964" Properties=species:S:1:pos:R:3:spacegroup_kinds:I:1:forces:R:3 spacegroup="P 1" unit_cell=conventional occupancy="_JSON {\"0\": {\"Cs\": 1.0}, \"1\": {\"Sn\": 1.0}, \"2\": {\"I\": 1.0}, \"3\": {\"I\": 1.0}, \"4\": {\"I\": 1.0}, \"5\": {\"Cs\": 1.0}, \"6\": {\"Pb\": 1.0}, \"7\": {\"I\": 1.0}, \"8\": {\"I\": 1.0}, \"9\": {\"I\": 1.0}, \"10\": {\"Cs\": 1.0}, \"11\": {\"Sn\": 1.0}, \"12\": {\"I\": 1.0}, \"13\": {\"I\": 1.0}, \"14\": {\"I\": 1.0}, \"15\": {\"Cs\": 1.0}, \"16\": {\"Sn\": 1.0}, \"17\": {\"I\": 1.0}, \"18\": {\"I\": 1.0}, \"19\": {\"I\": 1.0}, \"20\": {\"Cs\": 1.0}, \"21\": {\"Sn\": 1.0}, \"22\": {\"I\": 1.0}, \"23\": {\"I\": 1.0}, \"24\": {\"I\": 1.0}, \"25\": {\"Cs\": 1.0}, \"26\": {\"Pb\": 1.0}, \"27\": {\"I\": 1.0}, \"28\": {\"I\": 1.0}, \"29\": {\"I\": 1.0}, \"30\": {\"Cs\": 1.0}, \"31\": {\"Sn\": 1.0}, \"32\": {\"I\": 1.0}, \"33\": {\"I\": 1.0}, \"34\": {\"I\": 1.0}, \"35\": {\"Cs\": 1.0}, \"36\": {\"Sn\": 1.0}, \"37\": {\"I\": 1.0}, \"38\": {\"I\": 1.0}, \"39\": {\"I\": 1.0}}" candidate_id=06db828a179ff946 formula=FAPb0.25Sn0.75I3 config_index=2 rattle_stdev=0.08 method=PBE fidelity=phase2_force energy=-112.06084862627323 stress="-0.0007201601199223975 4.121019792689157e-05 9.957030207503994e-06 4.121019792689157e-05 -0.001385921028038896 -1.3883581257958106e-05 9.957030207503994e-06 -1.3883581257958106e-05 -0.0005304746312548617" pbc="T T T"
Cs      12.61191035      12.50528385       0.17045336        0       0.01899619      -0.00769006      -0.04928380
Sn       3.03867318       3.12865938       3.05397333        1       0.53191564       0.22823743       0.20018974
I        3.18530117       3.08451325       0.04962465        2      -0.03908572       0.04162635      -0.28836732
I        3.17896467      12.70624270       3.02924543        3      -0.02342855      -0.48193004       0.04661725
I       12.76924969       3.19428199       3.14430813        4      -0.73103198       0.00965420      -0.03513159
Cs      12.58867774      12.51351599       6.24448154        5      -0.01030559      -0.01406392       0.04207981
Pb       3.09779813       3.25247651       9.40211913        6       0.40596816       0.03782549      -0.04800022
I        3.10814980       3.15015554       6.23827377        7       0.01997585      -0.08983009       0.16012541
I        3.06057576      12.41753807       9.53727563        8      -0.00395832       0.77990863       0.00118594
I       12.65394105       3.09910352       9.28119338        9      -0.17131965      -0.00388683       0.01777009
Cs      12.55794807       6.25489996       0.03511585       10       0.02488093       0.02436691      -0.01448821
Sn       3.11289632       9.52671472       3.13869987       11       0.20780923      -0.17781653       0.04795943
I        3.11678316       9.38147416      -0.03132832       12       0.01325776      -0.02836687       0.31486116
I        3.21842306       6.24442071       3.33156787       13      -0.03760271       0.39346113      -0.08480403
I       12.50890850       9.44516734       3.17215230       14       0.45430791      -0.00946281       0.01751453
Cs      12.59273657       6.34405133       6.29041104       15       0.00412470       0.01364592       0.01256013
Sn       3.13946935       9.57204984       9.49190905       16      -0.08656964      -0.55572650      -0.10051866
I        3.19984340       9.41667232       6.35926623       17      -0.02698887       0.07717315      -0.27049488
I        3.26173206       6.32875016       9.42543467       18      -0.02305393      -0.24125260       0.03208163
I       12.70708053       9.25666654       9.47764939       19      -0.05057039       0.02950340      -0.00932329
Cs       6.39358047      12.44672306       0.08834248       20      -0.02174749       0.03610738      -0.02080273
Sn       9.42568652       2.96722159       3.14613163       21      -0.24605085       0.27844664       0.13104805
I        9.34547253       3.19386734       0.03336843       22       0.07310085       0.02640383      -0.11230835
I        9.55029615      12.54062432       3.14875776       23       0.00211401       0.16295202      -0.00680268
I        6.30189130       3.32267081       3.12752201       24       0.34781263      -0.14728042      -0.00746691
Cs       6.26823129      12.48783963       6.29900681       25       0.01791905       0.00747650       0.01267061
Pb       9.55579711       3.18688791       9.52554196       26      -0.37042265      -0.05350124      -0.15312852
I        9.35744535       3.20067372       6.21429641       27       0.04908573      -0.06676416       0.14240179
I        9.51731066      12.46105992       9.61627422       28       0.03366509       0.67167658       0.00465393
I        6.32781256       3.19476267       9.41416785       29       0.05769894      -0.06018024       0.00197116
Cs       6.23023296       6.27467647       0.04399342       30      -0.01767204      -0.03266086       0.00857142
Sn       9.50858291       9.37829534       2.97733666       31      -0.32914019      -0.22036459       0.43070274
I        9.51744996       9.43850827      -0.00491471       32       0.00616392      -0.04044708       0.05238270
I        9.28262180       6.30945701       3.23119015       33       0.10084585      -0.00372252      -0.06810557
I        6.34684275       9.62924933       3.15976188       34      -0.32279816       0.00971527      -0.04393334
Cs       6.31069109       6.30089699       6.31175749       35       0.00041659      -0.01383366      -0.00778245
Sn       9.40064627       9.45617053       9.49995219       36       0.12672124       0.08924609      -0.42060470
I        9.36368526       9.47292168       6.36881861       37       0.06366137       0.07030827      -0.06341664
I        9.45314738       6.48225834       9.34651406       38       0.05048741      -0.79316653       0.04696842
I        6.37974696       9.39282397       9.42037748       39      -0.10225515       0.05613810       0.07975652
