Rb Pb I  Rb Pb I  Rb Pb I  Rb Ge I  Rb Pb I  Rb Pb I  Rb Ge I  Rb Pb I 
 1.0000000000000000
    13.1285687635781532    0.0000000000000000    0.0000000000000000
     0.0000000000000000   13.1285687635781532    0.0000000000000000
     0.0000000000000000    0.0000000000000000   13.1285687635781532
 Rb  Pb  I   Rb  Pb  I   Rb  Pb  I   Rb  Ge  I   Rb  Pb  I   Rb  Pb  I   Rb  Ge  I   Rb  Pb  I  
   1   1   3   1   1   3   1   1   3   1   1   3   1   1   3   1   1   3   1   1   3   1   1   3
Cartesian
  0.0000000000000000  0.0000000000000000  0.0000000000000000
  3.2821421908945374  3.2821421908945374  3.2821421908945374
  3.2821421908945374  3.2821421908945374  0.0000000000000000
  3.2821421908945374  0.0000000000000000  3.2821421908945374
  0.0000000000000000  3.2821421908945374  3.2821421908945374
  0.0000000000000000  0.0000000000000000  6.5642843817890757
  3.2821421908945374  3.2821421908945374  9.8464265726836153
  3.2821421908945374  3.2821421908945374  6.5642843817890757
  3.2821421908945374  0.0000000000000000  9.8464265726836153
  0.0000000000000000  3.2821421908945374  9.8464265726836153
  0.0000000000000000  6.5642843817890757  0.0000000000000000
  3.2821421908945374  9.8464265726836153  3.2821421908945374
  3.2821421908945374  9.8464265726836153  0.0000000000000000
  3.2821421908945374  6.5642843817890757  3.2821421908945374
  0.0000000000000000  9.8464265726836153  3.2821421908945374
  0.0000000000000000  6.5642843817890757  6.5642843817890757
  3.2821421908945374  9.8464265726836153  9.8464265726836153
  3.2821421908945374  9.8464265726836153  6.5642843817890757
  3.2821421908945374  6.5642843817890757  9.8464265726836153
  0.0000000000000000  9.8464265726836153  9.8464265726836153
  6.5642843817890757  0.0000000000000000  0.0000000000000000
  9.8464265726836153  3.2821421908945374  3.2821421908945374
  9.8464265726836153  3.2821421908945374  0.0000000000000000
  9.8464265726836153  0.0000000000000000  3.2821421908945374
  6.5642843817890757  3.2821421908945374  3.2821421908945374
  6.5642843817890757  0.0000000000000000  6.5642843817890757
  9.8464265726836153  3.2821421908945374  9.8464265726836153
  9.8464265726836153  3.2821421908945374  6.5642843817890757
  9.8464265726836153  0.0000000000000000  9.8464265726836153
  6.5642843817890757  3.2821421908945374  9.8464265726836153
  6.5642843817890757  6.5642843817890757  0.0000000000000000
  9.8464265726836153  9.8464265726836153  3.2821421908945374
  9.8464265726836153  9.8464265726836153  0.0000000000000000
  9.8464265726836153  6.5642843817890757  3.2821421908945374
  6.5642843817890757  9.8464265726836153  3.2821421908945374
  6.5642843817890757  6.5642843817890757  6.5642843817890757
  9.8464265726836153  9.8464265726836153  9.8464265726836153
  9.8464265726836153  9.8464265726836153  6.5642843817890757
  9.8464265726836153  6.5642843817890757  9.8464265726836153
  6.5642843817890757  9.8464265726836153  9.8464265726836153
