Cs Pb Br Cs Pb Br Cs Pb Br K  Pb Br Cs Pb Br Cs Pb Br K  Pb Br Cs Pb Br
 1.0000000000000000
    12.5999357339630880    0.0000000000000000    0.0000000000000000
     0.0000000000000000   12.5999357339630880    0.0000000000000000
     0.0000000000000000    0.0000000000000000   12.5999357339630880
 Cs  Pb  Br  Cs  Pb  Br  Cs  Pb  Br  K   Pb  Br  Cs  Pb  Br  Cs  Pb  Br  K   Pb  Br  Cs  Pb  Br 
   1   1   3   1   1   3   1   1   3   1   1   3   1   1   3   1   1   3   1   1   3   1   1   3
Cartesian
  0.0000000000000000  0.0000000000000000  0.0000000000000000
  3.1499839334907711  3.1499839334907711  3.1499839334907711
  3.1499839334907711  3.1499839334907711  0.0000000000000000
  3.1499839334907711  0.0000000000000000  3.1499839334907711
  0.0000000000000000  3.1499839334907711  3.1499839334907711
  0.0000000000000000  0.0000000000000000  6.2999678669815431
  3.1499839334907711  3.1499839334907711  9.4499518004723164
  3.1499839334907711  3.1499839334907711  6.2999678669815431
  3.1499839334907711  0.0000000000000000  9.4499518004723164
  0.0000000000000000  3.1499839334907711  9.4499518004723164
  0.0000000000000000  6.2999678669815431  0.0000000000000000
  3.1499839334907711  9.4499518004723164  3.1499839334907711
  3.1499839334907711  9.4499518004723164  0.0000000000000000
  3.1499839334907711  6.2999678669815431  3.1499839334907711
  0.0000000000000000  9.4499518004723164  3.1499839334907711
  0.0000000000000000  6.2999678669815431  6.2999678669815431
  3.1499839334907711  9.4499518004723164  9.4499518004723164
  3.1499839334907711  9.4499518004723164  6.2999678669815431
  3.1499839334907711  6.2999678669815431  9.4499518004723164
  0.0000000000000000  9.4499518004723164  9.4499518004723164
  6.2999678669815431  0.0000000000000000  0.0000000000000000
  9.4499518004723164  3.1499839334907711  3.1499839334907711
  9.4499518004723164  3.1499839334907711  0.0000000000000000
  9.4499518004723164  0.0000000000000000  3.1499839334907711
  6.2999678669815431  3.1499839334907711  3.1499839334907711
  6.2999678669815431  0.0000000000000000  6.2999678669815431
  9.4499518004723164  3.1499839334907711  9.4499518004723164
  9.4499518004723164  3.1499839334907711  6.2999678669815431
  9.4499518004723164  0.0000000000000000  9.4499518004723164
  6.2999678669815431  3.1499839334907711  9.4499518004723164
  6.2999678669815431  6.2999678669815431  0.0000000000000000
  9.4499518004723164  9.4499518004723164  3.1499839334907711
  9.4499518004723164  9.4499518004723164  0.0000000000000000
  9.4499518004723164  6.2999678669815431  3.1499839334907711
  6.2999678669815431  9.4499518004723164  3.1499839334907711
  6.2999678669815431  6.2999678669815431  6.2999678669815431
  9.4499518004723164  9.4499518004723164  9.4499518004723164
  9.4499518004723164  9.4499518004723164  6.2999678669815431
  9.4499518004723164  6.2999678669815431  9.4499518004723164
  6.2999678669815431  9.4499518004723164  9.4499518004723164
