Cs Sn I  Cs Sn I  Cs Sn I  Cs Ge I  Cs Sn I  Cs Sn I  Cs Ge I  Cs Sn I 
 1.0000000000000000
    13.0700203220959050    0.0000000000000000    0.0000000000000000
     0.0000000000000000   13.0700203220959050    0.0000000000000000
     0.0000000000000000    0.0000000000000000   13.0700203220959050
 Cs  Sn  I   Cs  Sn  I   Cs  Sn  I   Cs  Ge  I   Cs  Sn  I   Cs  Sn  I   Cs  Ge  I   Cs  Sn  I  
   1   1   3   1   1   3   1   1   3   1   1   3   1   1   3   1   1   3   1   1   3   1   1   3
Cartesian
  0.0000000000000000  0.0000000000000000  0.0000000000000000
  3.2675050805239763  3.2675050805239763  3.2675050805239763
  3.2675050805239763  3.2675050805239763  0.0000000000000000
  3.2675050805239763  0.0000000000000000  3.2675050805239763
  0.0000000000000000  3.2675050805239763  3.2675050805239763
  0.0000000000000000  0.0000000000000000  6.5350101610479516
  3.2675050805239763  3.2675050805239763  9.8025152415719266
  3.2675050805239763  3.2675050805239763  6.5350101610479516
  3.2675050805239763  0.0000000000000000  9.8025152415719266
  0.0000000000000000  3.2675050805239763  9.8025152415719266
  0.0000000000000000  6.5350101610479516  0.0000000000000000
  3.2675050805239763  9.8025152415719266  3.2675050805239763
  3.2675050805239763  9.8025152415719266  0.0000000000000000
  3.2675050805239763  6.5350101610479516  3.2675050805239763
  0.0000000000000000  9.8025152415719266  3.2675050805239763
  0.0000000000000000  6.5350101610479516  6.5350101610479516
  3.2675050805239763  9.8025152415719266  9.8025152415719266
  3.2675050805239763  9.8025152415719266  6.5350101610479516
  3.2675050805239763  6.5350101610479516  9.8025152415719266
  0.0000000000000000  9.8025152415719266  9.8025152415719266
  6.5350101610479516  0.0000000000000000  0.0000000000000000
  9.8025152415719266  3.2675050805239763  3.2675050805239763
  9.8025152415719266  3.2675050805239763  0.0000000000000000
  9.8025152415719266  0.0000000000000000  3.2675050805239763
  6.5350101610479516  3.2675050805239763  3.2675050805239763
  6.5350101610479516  0.0000000000000000  6.5350101610479516
  9.8025152415719266  3.2675050805239763  9.8025152415719266
  9.8025152415719266  3.2675050805239763  6.5350101610479516
  9.8025152415719266  0.0000000000000000  9.8025152415719266
  6.5350101610479516  3.2675050805239763  9.8025152415719266
  6.5350101610479516  6.5350101610479516  0.0000000000000000
  9.8025152415719266  9.8025152415719266  3.2675050805239763
  9.8025152415719266  9.8025152415719266  0.0000000000000000
  9.8025152415719266  6.5350101610479516  3.2675050805239763
  6.5350101610479516  9.8025152415719266  3.2675050805239763
  6.5350101610479516  6.5350101610479516  6.5350101610479516
  9.8025152415719266  9.8025152415719266  9.8025152415719266
  9.8025152415719266  9.8025152415719266  6.5350101610479516
  9.8025152415719266  6.5350101610479516  9.8025152415719266
  6.5350101610479516  9.8025152415719266  9.8025152415719266
