Cs Sn Br Cs Sn Br Cs Sn Br Cs Ge Br Cs Ge Br Cs Sn Br Cs Ge Br Cs Sn Br
 1.0000000000000000
    11.9742876539692329    0.0000000000000000    0.0000000000000000
     0.0000000000000000   11.9742876539692329    0.0000000000000000
     0.0000000000000000    0.0000000000000000   11.9742876539692329
 Cs  Sn  Br  Cs  Sn  Br  Cs  Sn  Br  Cs  Ge  Br  Cs  Ge  Br  Cs  Sn  Br  Cs  Ge  Br  Cs  Sn  Br 
   1   1   3   1   1   3   1   1   3   1   1   3   1   1   3   1   1   3   1   1   3   1   1   3
Cartesian
  0.0000000000000000  0.0000000000000000  0.0000000000000000
  2.9935719134923078  2.9935719134923078  2.9935719134923078
  2.9935719134923078  2.9935719134923078  0.0000000000000000
  2.9935719134923078  0.0000000000000000  2.9935719134923078
  0.0000000000000000  2.9935719134923078  2.9935719134923078
  0.0000000000000000  0.0000000000000000  5.9871438269846156
  2.9935719134923078  2.9935719134923078  8.9807157404769242
  2.9935719134923078  2.9935719134923078  5.9871438269846156
  2.9935719134923078  0.0000000000000000  8.9807157404769242
  0.0000000000000000  2.9935719134923078  8.9807157404769242
  0.0000000000000000  5.9871438269846156  0.0000000000000000
  2.9935719134923078  8.9807157404769242  2.9935719134923078
  2.9935719134923078  8.9807157404769242  0.0000000000000000
  2.9935719134923078  5.9871438269846156  2.9935719134923078
  0.0000000000000000  8.9807157404769242  2.9935719134923078
  0.0000000000000000  5.9871438269846156  5.9871438269846156
  2.9935719134923078  8.9807157404769242  8.9807157404769242
  2.9935719134923078  8.9807157404769242  5.9871438269846156
  2.9935719134923078  5.9871438269846156  8.9807157404769242
  0.0000000000000000  8.9807157404769242  8.9807157404769242
  5.9871438269846156  0.0000000000000000  0.0000000000000000
  8.9807157404769242  2.9935719134923078  2.9935719134923078
  8.9807157404769242  2.9935719134923078  0.0000000000000000
  8.9807157404769242  0.0000000000000000  2.9935719134923078
  5.9871438269846156  2.9935719134923078  2.9935719134923078
  5.9871438269846156  0.0000000000000000  5.9871438269846156
  8.9807157404769242  2.9935719134923078  8.9807157404769242
  8.9807157404769242  2.9935719134923078  5.9871438269846156
  8.9807157404769242  0.0000000000000000  8.9807157404769242
  5.9871438269846156  2.9935719134923078  8.9807157404769242
  5.9871438269846156  5.9871438269846156  0.0000000000000000
  8.9807157404769242  8.9807157404769242  2.9935719134923078
  8.9807157404769242  8.9807157404769242  0.0000000000000000
  8.9807157404769242  5.9871438269846156  2.9935719134923078
  5.9871438269846156  8.9807157404769242  2.9935719134923078
  5.9871438269846156  5.9871438269846156  5.9871438269846156
  8.9807157404769242  8.9807157404769242  8.9807157404769242
  8.9807157404769242  8.9807157404769242  5.9871438269846156
  8.9807157404769242  5.9871438269846156  8.9807157404769242
  5.9871438269846156  8.9807157404769242  8.9807157404769242
