40
Lattice="12.565198092667 0.0 0.0 0.0 12.565198092666973 0.0 0.0 -3.829108576683249e-14 12.565198092667108" Properties=species:S:1:pos:R:3:spacegroup_kinds:I:1:forces:R:3 spacegroup="P 1" unit_cell=conventional candidate_id=afb22267695ea19d formula=Cs0.54MA0.46SnI3 config_index=0 rattle_stdev=0.0 method=PBE fidelity=phase2_force energy=-112.42586401525817 stress="0.0005309393176833541 -3.5366147258194207e-32 0.0 -3.5366147258194207e-32 0.0005309393176833557 1.6179802976811973e-18 0.0 1.6179802976811973e-18 0.0005309393176833447" pbc="T T T"
Cs       0.00000000       0.00000000       0.00000000        0       0.00000000      -0.00000000      -0.00000000
Sn       3.14129952       3.14129952       3.14129952        1       0.00023474       0.00023474       0.00023474
I        3.14129952       3.14129952       0.00000000        2       0.00000341       0.00000341      -0.00000000
I        3.14129952      -0.00000000       3.14129952        3       0.00000341      -0.00000000       0.00000341
I        0.00000000       3.14129952       3.14129952        4      -0.00000000       0.00000341       0.00000341
Cs       0.00000000      -0.00000000       6.28259905        5       0.00000000      -0.00000000       0.00000000
Sn       3.14129952       3.14129952       9.42389857        6       0.00023474       0.00023474      -0.00023474
I        3.14129952       3.14129952       6.28259905        7       0.00001536       0.00001536       0.00000000
I        3.14129952      -0.00000000       9.42389857        8       0.00000341       0.00000000      -0.00000341
I        0.00000000       3.14129952       9.42389857        9      -0.00000000       0.00000341      -0.00000341
Cs       0.00000000       6.28259905       0.00000000       10      -0.00000000       0.00000000       0.00000000
Sn       3.14129952       9.42389857       3.14129952       11       0.00023474      -0.00023474       0.00023474
I        3.14129952       9.42389857       0.00000000       12       0.00000341      -0.00000341      -0.00000000
I        3.14129952       6.28259905       3.14129952       13       0.00001536      -0.00000000       0.00001536
I        0.00000000       9.42389857       3.14129952       14       0.00000000      -0.00000341       0.00000341
Cs       0.00000000       6.28259905       6.28259905       15       0.00000000       0.00000000       0.00000000
Sn       3.14129952       9.42389857       9.42389857       16       0.00023474      -0.00023474      -0.00023474
I        3.14129952       9.42389857       6.28259905       17       0.00001536      -0.00001536      -0.00000000
I        3.14129952       6.28259905       9.42389857       18       0.00001536       0.00000000      -0.00001536
I        0.00000000       9.42389857       9.42389857       19       0.00000000      -0.00000341      -0.00000341
Cs       6.28259905       0.00000000       0.00000000       20       0.00000000       0.00000000       0.00000000
Sn       9.42389857       3.14129952       3.14129952       21      -0.00023474       0.00023474       0.00023474
I        9.42389857       3.14129952       0.00000000       22      -0.00000341       0.00000341      -0.00000000
I        9.42389857      -0.00000000       3.14129952       23      -0.00000341      -0.00000000       0.00000341
I        6.28259905       3.14129952       3.14129952       24      -0.00000000       0.00001536       0.00001536
Cs       6.28259905      -0.00000000       6.28259905       25       0.00000000       0.00000000       0.00000000
Sn       9.42389857       3.14129952       9.42389857       26      -0.00023474       0.00023474      -0.00023474
I        9.42389857       3.14129952       6.28259905       27      -0.00001536       0.00001536       0.00000000
I        9.42389857      -0.00000000       9.42389857       28      -0.00000341       0.00000000      -0.00000341
I        6.28259905       3.14129952       9.42389857       29       0.00000000       0.00001536      -0.00001536
Cs       6.28259905       6.28259905       0.00000000       30       0.00000000      -0.00000000      -0.00000000
Sn       9.42389857       9.42389857       3.14129952       31      -0.00023474      -0.00023474       0.00023474
I        9.42389857       9.42389857       0.00000000       32      -0.00000341      -0.00000341       0.00000000
I        9.42389857       6.28259905       3.14129952       33      -0.00001536      -0.00000000       0.00001536
I        6.28259905       9.42389857       3.14129952       34      -0.00000000      -0.00001536       0.00001536
Cs       6.28259905       6.28259905       6.28259905       35       0.00000000       0.00000000      -0.00000000
Sn       9.42389857       9.42389857       9.42389857       36      -0.00023474      -0.00023474      -0.00023474
I        9.42389857       9.42389857       6.28259905       37      -0.00001536      -0.00001536       0.00000000
I        9.42389857       6.28259905       9.42389857       38      -0.00001536       0.00000000      -0.00001536
I        6.28259905       9.42389857       9.42389857       39       0.00000000      -0.00001536      -0.00001536
40
Lattice="12.565198092667 0.0 0.0 0.0 12.565198092666973 0.0 0.0 -3.829108576683249e-14 12.565198092667108" Properties=species:S:1:pos:R:3:spacegroup_kinds:I:1:forces:R:3 spacegroup="P 1" unit_cell=conventional candidate_id=afb22267695ea19d formula=Cs0.54MA0.46SnI3 config_index=1 rattle_stdev=0.08 method=PBE fidelity=phase2_force energy=-111.96808209337523 stress="-0.0011881578839586058 1.517747176936938e-05 -1.5237148094130926e-06 1.517747176936938e-05 -0.0005012545051055491 -7.868962623556515e-05 -1.5237148094130926e-06 -7.868962623556515e-05 -0.0016433785585056558" pbc="T T T"
Cs      -0.08691571      -0.07168521      -0.02450395        0      -0.01747561       0.03376388       0.02605523
Sn       3.03410483       3.04477268       3.08996138        1       0.24667576       0.25435233       0.15718370
I        3.24593517       3.28893636       0.06632920        2      -0.08366657      -0.07042862      -0.00737224
I        3.13943562      -0.01668512       3.06796994        3       0.00296191       0.02803470      -0.00374658
I       -0.08597941       3.13440804       3.23536661        4       0.44322434      -0.00231357       0.00471995
Cs      -0.13080734       0.09825552       6.36870995        5       0.03925917       0.03140582      -0.03820932
Sn       3.17288135       3.11028346       9.47097071        6       0.09795146      -0.01339870      -0.16673455
I        3.02663562       3.11541355       6.38283782        7       0.05360114       0.01790254      -0.13037047
I        3.08284012       0.11427881       9.49947088        8      -0.00700170      -0.39736483       0.00698360
I       -0.02112022       3.12824246       9.34676999        9       0.04715289       0.01220219       0.03727649
Cs      -0.02741179       6.28651137      -0.03997056       10      -0.00802896      -0.02822546       0.01489310
Sn       2.96434716       9.44868552       3.01412742       11       0.63452751      -0.24943408      -0.12384538
I        3.19965589       9.41526647      -0.05201372       12      -0.05580213       0.02346130       0.04834152
I        3.00585500       6.25312112       3.01406979       13       0.00422041       0.04114545       0.07339758
I        0.11844047       9.46185379       3.21440863       14      -0.69695965       0.01243805       0.02803278
Cs       0.07683762       6.28936245       6.41997752       15       0.01925164      -0.03907413      -0.02339295
Sn       3.20945094       9.36350774       9.24088822       16       0.25091498       0.04395527       0.23139507
I        3.15003862       9.38788592       6.24956125       17       0.00361863      -0.01017924      -0.03933344
I        3.16681822       6.23931041       9.49979189       18      -0.01966552       0.37284184      -0.06154461
I        0.01211480       9.43005076       9.41914654       19       0.23857061       0.02104463      -0.01484792
Cs       6.27698795      -0.04529192       0.02488043       20       0.01729577       0.01969882       0.02236151
Sn       9.48183527       3.18261553       3.22338198       21      -0.38351294      -0.22483880      -0.47055773
I        9.46551078       3.07171244       0.12004521       22       0.04379717       0.03039130      -0.33438336
I        9.51721634       0.03935316       3.08271855       23      -0.01464016      -0.10149690       0.10947767
I        6.33702353       3.18201927       3.07429663       24      -0.28231512      -0.01744580       0.06599999
Cs       6.33441064       0.00100316       6.40736617       25      -0.03113182       0.01486662      -0.02981224
Sn       9.50666620       3.16831494       9.31968974       26      -0.12982084       0.25148319       0.27652900
I        9.33441503       3.24606073       6.24114169       27      -0.00844035      -0.03713130       0.39718296
I        9.39244863       0.08343748       9.42987579       28       0.03976295      -0.17092534      -0.04669770
I        6.28975401       3.14561211       9.45737433       29      -0.05421666      -0.00488771      -0.01497912
Cs       6.18438064       6.19543572       0.02536995       30       0.02213091      -0.00107390       0.02353832
Sn       9.36146613       9.35540809       3.03570981       31      -0.20229504       0.19959454       0.07135595
I        9.46020110       9.50404056       0.11309877       32      -0.00053191      -0.02179716      -0.16805525
I        9.40868394       6.28500789       2.99142619       33       0.03175324       0.11604994       0.02240677
I        6.27325689       9.41369934       3.21347427       34       0.28623629      -0.00539064      -0.00882029
Cs       6.17744927       6.27463499       6.29384303       35      -0.00695229      -0.01864111      -0.01460330
Sn       9.63420304       9.56436088       9.21304674       36      -0.43878849      -0.24119001       0.74930641
I        9.32096701       9.41016079       6.42663534       37       0.04873658       0.03604450      -0.74799709
I        9.47259422       6.28512109       9.30658560       38       0.01637664       0.10660111       0.05846294
I        6.30735431       9.51527600       9.38303104       39      -0.14695765      -0.01394648       0.01785033
40
Lattice="12.565198092667 0.0 0.0 0.0 12.565198092666973 0.0 0.0 -3.829108576683249e-14 12.565198092667108" Properties=species:S:1:pos:R:3:spacegroup_kinds:I:1:forces:R:3 spacegroup="P 1" unit_cell=conventional candidate_id=afb22267695ea19d formula=Cs0.54MA0.46SnI3 config_index=2 rattle_stdev=0.08 method=PBE fidelity=phase2_force energy=-111.99203479532515 stress="-0.0006201750968123334 3.661884493779055e-05 8.797174360318688e-06 3.661884493779055e-05 -0.0007674462934757933 -6.136479812217627e-07 8.797174360318688e-06 -6.136479812217627e-07 -0.00037906345902814163" pbc="T T T"
Cs      -0.00901704      -0.08612512       0.14280215        0       0.02288039      -0.00371993      -0.05956801
Sn       3.02474086       3.11519386       3.04050780        1       0.57629509       0.24441158       0.08835239
I        3.17136884       3.07104773      -0.02799806        2      -0.05375149       0.05053023       0.00706743
I        3.16503234       0.09607295       3.01577990        3      -0.01978654      -0.52264835       0.04695700
I        0.14832230       3.18081647       3.13084261        4      -0.77435766       0.01157620      -0.03019085
Cs      -0.03224966      -0.07789298       6.24520170        5      -0.01071000      -0.01104055       0.05055744
Sn       3.08386581       3.23901099       9.36172257        6       0.33607299      -0.00803337      -0.05682764
I        3.09421747       3.13669001       6.28896544        7       0.02143272      -0.08243706      -0.02937984
I        3.04664344      -0.12389940       9.49687906        8       0.01021245       0.34981091      -0.00964058
I        0.03301366       3.08563800       9.24079682        9      -0.13458984       0.02682588       0.05597366
Cs      -0.06297932       6.20031771       0.00746465       10       0.02253178       0.01951080      -0.01934839
Sn       3.09896399       9.48631816       3.12523435       11       0.21031846      -0.18013654       0.04870574
I        3.10285084       9.34107760      -0.04021875       12       0.01516451      -0.03532154       0.34347983
I        3.20449074       6.20859924       3.31810235       13      -0.03604315       0.42203195      -0.07630397
I       -0.11201889       9.40477078       3.15868678       14       0.47985874      -0.00877597       0.02149300
Cs      -0.02819082       6.28946909       6.29113120       15      -0.00277956       0.01087676       0.01102671
Sn       3.12553703       9.53165328       9.45151249       16      -0.09139067      -0.27591751      -0.10243151
I        3.18591108       9.37627576       6.34122562       17      -0.02558629       0.06975872      -0.29423216
I        3.24779974       6.22419641       9.38503811       18      -0.03864645      -0.06577417       0.03273179
I        0.08615314       9.21626998       9.43725282       19      -0.06110452       0.02116477      -0.01085414
Cs       6.36571582      -0.14468591       0.06069128       20      -0.02747758       0.04097383      -0.02773635
Sn       9.38388954       2.95375607       3.13266611       21      -0.25019768       0.32569396       0.15422114
I        9.30367556       3.18040182      -0.04425428       22       0.08169475       0.02418598       0.12058766
I        9.50849917      -0.06954543       3.13529224       23       0.00154500       0.13610578      -0.00526359
I        6.27402665       3.30920528       3.11405649       24       0.35240255      -0.15456832      -0.00768626
Cs       6.24036664      -0.10356935       6.29972697       25       0.01800079       0.01517416       0.02011134
Sn       9.51400014       3.17342239       9.48514539       26      -0.33698848      -0.06105387      -0.20292058
I        9.31564837       3.18720820       6.26498808       27       0.05391551      -0.08433752      -0.09518745
I        9.47551369      -0.08037754       9.57587765       28       0.02412859       0.39157966      -0.00607724
I        6.29994791       3.18129715       9.37377128       29       0.05500308      -0.06097651       0.00785538
Cs       6.20236831       6.22009423       0.01634222       30      -0.01343430      -0.03409883       0.00555560
Sn       9.46678593       9.33789877       2.96387114       31      -0.34476857      -0.22869872       0.43691079
I        9.47565299       9.39811171      -0.01380513       32       0.00657032      -0.03776016       0.07544443
I        9.24082483       6.27363554       3.21772463       33       0.10269400      -0.00257283      -0.06619150
I        6.31897810       9.58885277       3.14629636       34      -0.33500519       0.01456780      -0.04249869
Cs       6.28282644       6.24631474       6.31247765       35       0.00693140      -0.01600452      -0.01026780
Sn       9.35884929       9.41577397       9.45955563       36       0.15662514       0.07507208      -0.43758217
I        9.32188828       9.43252511       6.35077800       37       0.06468407       0.06731591      -0.08689470
I        9.41135040       6.37770459       9.30611750       38       0.05005637      -0.48830985       0.06545931
I        6.35188231       9.35242741       9.37998092       39      -0.11584921       0.04565784       0.08230273
40
Lattice="12.565198092667 0.0 0.0 0.0 12.565198092666973 0.0 0.0 -3.829108576683249e-14 12.565198092667108" Properties=species:S:1:pos:R:3:spacegroup_kinds:I:1:forces:R:3 spacegroup="P 1" unit_cell=conventional candidate_id=afb22267695ea19d formula=Cs0.54MA0.46SnI3 config_index=3 rattle_stdev=0.08 method=PBE fidelity=phase2_force energy=-111.78896010746237 stress="-0.0007532332188067751 7.51931506120749e-05 3.182105358029684e-05 7.51931506120749e-05 -0.0008519387558627887 5.166950156681579e-05 3.182105358029684e-05 5.166950156681579e-05 -0.0002672335241561328" pbc="T T T"
Cs      -0.10568348       0.16134023       0.00380516        0       0.03622683       0.03260698       0.02246408
Sn       3.12228583       3.14802934       3.21806290        1      -0.25592447      -0.28120833      -0.56571221
I        3.08677164       3.18362516      -0.06199346        2       0.03330550      -0.01614423      -0.09733443
I        3.25369602      -0.01797444       3.03682867        3       0.01353729      -0.14688983       0.00724649
I       -0.05428282       3.01162486       3.03890164        4       0.14491622       0.06022747       0.04477755
Cs      -0.01794374      -0.06804488       6.22213984        5      -0.02299179       0.01045130      -0.01608540
Sn       3.16235319       2.93688408       9.29027590        6       0.04813031       0.39457013       0.45463380
I        3.08436071       2.94555747       6.18046426        7      -0.02805494      -0.00659501       0.30229028
I        3.19438933      -0.10230672       9.36066579        8      -0.03097700       0.44649807       0.02106303
I       -0.12018966       3.04613633       9.60523378        9       0.32662645       0.03330297      -0.04993215
Cs      -0.03814223       6.35433217      -0.14439506       10       0.02638600      -0.06904664      -0.00676861
Sn       3.10200235       9.32793884       3.07688190       11       0.01838012       0.28001062      -0.01054922
I        3.25376501       9.40547332      -0.05709572       12      -0.04715607      -0.04122495       0.45939966
I        3.12829252       6.22828865       3.26242894       13      -0.01953030       0.19315898       0.00797448
I       -0.13980583       9.47658094       3.11377022       14       0.99547903      -0.06470503       0.01303793
Cs      -0.06069585       6.29636115       6.23001577       15      -0.02279825      -0.00398500       0.01377345
Sn       3.18551516       9.45450723       9.39419534       16      -0.10861677      -0.56144826       0.01178985
I        3.26755104       9.44124237       6.37952638       17      -0.01290622       0.01372767      -0.46391859
I        3.19981797       6.33651873       9.37747408       18      -0.01956954      -0.23061161      -0.03724026
I       -0.00794717       9.29710938       9.41792126       19      -0.13317748       0.02681879       0.00985436
Cs       6.37850376      -0.02123382      -0.05214397       20      -0.03542799       0.01791789       0.01076334
Sn       9.27217564       3.01807560       3.10987366       21       0.32991629       0.27479582      -0.00261368
I        9.39074010       3.19818495       0.05140203       22      -0.06249021      -0.03628885      -0.11661908
I        9.61568547      -0.01358259       3.06022883       23      -0.10989182      -0.23133142       0.01834646
I        6.24711455       3.20897770       3.18084824       24      -0.10414220      -0.04506366       0.02188350
Cs       6.30489011       0.04176727       6.30800838       25       0.01247706      -0.03298377      -0.00303577
Sn       9.44206948       3.11007228       9.36645716       26      -0.06842798      -0.05894652       0.00978916
I        9.54742746       3.07226391       6.25389284       27      -0.01683336      -0.00100722       0.13099803
I        9.43060272       0.13433776       9.32955159       28      -0.02901598      -0.79096267       0.06980780
I        6.25070088       3.10742838       9.46864552       29      -0.22391026      -0.04144781      -0.06314369
Cs       6.23641947       6.28829884       0.06937641       30      -0.01143221      -0.03031686      -0.03384608
Sn       9.45709129       9.40579979       3.20174697       31      -0.15450379      -0.18949450       0.17363380
I        9.44190896       9.38871833       0.05232634       32       0.02341897      -0.00304618       0.01917780
I        9.35220871       6.16864315       3.28069825       33       0.06995323       0.21472969      -0.00899528
I        6.51614510       9.37000055       3.07961758       34      -0.87597928       0.03037275       0.00981864
Cs       6.36703843       6.37425609       6.29224889       35       0.00764522       0.01688301       0.02075012
Sn       9.42489804       9.36793685       9.57400250       36       0.07170835      -0.00341214      -0.26343489
I        9.38784590       9.39939983       6.39561840       37       0.00807766       0.01309279      -0.10982027
I        9.37161129       6.10127372       9.47232673       38      -0.00571341       0.81399937      -0.00400716
I        6.24065361       9.44049775       9.51161074       39       0.23022440       0.01120344       0.00060999
