Cs Sn I  Cs Sn I  Cs Sn I  Cs Ge I  Cs Ge I  Cs Sn I  Cs Ge I  Cs Sn I 
 1.0000000000000000
    12.8576054450274668    0.0000000000000000    0.0000000000000000
     0.0000000000000000   12.8576054450274668    0.0000000000000000
     0.0000000000000000    0.0000000000000000   12.8576054450274668
 Cs  Sn  I   Cs  Sn  I   Cs  Sn  I   Cs  Ge  I   Cs  Ge  I   Cs  Sn  I   Cs  Ge  I   Cs  Sn  I  
   1   1   3   1   1   3   1   1   3   1   1   3   1   1   3   1   1   3   1   1   3   1   1   3
Cartesian
  0.0000000000000000  0.0000000000000000  0.0000000000000000
  3.2144013612568658  3.2144013612568658  3.2144013612568658
  3.2144013612568658  3.2144013612568658  0.0000000000000000
  3.2144013612568658  0.0000000000000000  3.2144013612568658
  0.0000000000000000  3.2144013612568658  3.2144013612568658
  0.0000000000000000  0.0000000000000000  6.4288027225137325
  3.2144013612568658  3.2144013612568658  9.6432040837706001
  3.2144013612568658  3.2144013612568658  6.4288027225137325
  3.2144013612568658  0.0000000000000000  9.6432040837706001
  0.0000000000000000  3.2144013612568658  9.6432040837706001
  0.0000000000000000  6.4288027225137325  0.0000000000000000
  3.2144013612568658  9.6432040837706001  3.2144013612568658
  3.2144013612568658  9.6432040837706001  0.0000000000000000
  3.2144013612568658  6.4288027225137325  3.2144013612568658
  0.0000000000000000  9.6432040837706001  3.2144013612568658
  0.0000000000000000  6.4288027225137325  6.4288027225137325
  3.2144013612568658  9.6432040837706001  9.6432040837706001
  3.2144013612568658  9.6432040837706001  6.4288027225137325
  3.2144013612568658  6.4288027225137325  9.6432040837706001
  0.0000000000000000  9.6432040837706001  9.6432040837706001
  6.4288027225137325  0.0000000000000000  0.0000000000000000
  9.6432040837706001  3.2144013612568658  3.2144013612568658
  9.6432040837706001  3.2144013612568658  0.0000000000000000
  9.6432040837706001  0.0000000000000000  3.2144013612568658
  6.4288027225137325  3.2144013612568658  3.2144013612568658
  6.4288027225137325  0.0000000000000000  6.4288027225137325
  9.6432040837706001  3.2144013612568658  9.6432040837706001
  9.6432040837706001  3.2144013612568658  6.4288027225137325
  9.6432040837706001  0.0000000000000000  9.6432040837706001
  6.4288027225137325  3.2144013612568658  9.6432040837706001
  6.4288027225137325  6.4288027225137325  0.0000000000000000
  9.6432040837706001  9.6432040837706001  3.2144013612568658
  9.6432040837706001  9.6432040837706001  0.0000000000000000
  9.6432040837706001  6.4288027225137325  3.2144013612568658
  6.4288027225137325  9.6432040837706001  3.2144013612568658
  6.4288027225137325  6.4288027225137325  6.4288027225137325
  9.6432040837706001  9.6432040837706001  9.6432040837706001
  9.6432040837706001  9.6432040837706001  6.4288027225137325
  9.6432040837706001  6.4288027225137325  9.6432040837706001
  6.4288027225137325  9.6432040837706001  9.6432040837706001
