40
Lattice="12.773253120293841 0.0 0.0 0.0 12.773253120293841 0.0 0.0 -3.892511102041948e-14 12.773253120293791" Properties=species:S:1:pos:R:3:spacegroup_kinds:I:1:forces:R:3 spacegroup="P 1" unit_cell=conventional candidate_id=f7b6194aaa88d7cb formula=FA0.88K0.12PbI3 config_index=0 rattle_stdev=0.0 method=PBE fidelity=phase2_force energy=-113.09539504547953 stress="0.00013993717619811206 0.0 0.0 0.0 0.00013993717619811217 4.264434492996801e-19 0.0 4.264434492996801e-19 0.0001401447087965851" pbc="T T T"
Cs      12.77325312      12.77325312      12.77325312        0      -0.00000000      -0.00000000       0.00000000
Pb       3.19957923       3.19957923       3.18704733        1      -0.00062665      -0.00062665       0.00132101
I        3.24169853       3.24169853      12.77325312        2      -0.00947948      -0.00947948       0.00000000
I        3.20692213      12.77325312       3.17970443        3       0.00219900       0.00000000      -0.00220380
I       12.77325312       3.20692213       3.17970443        4       0.00000000       0.00219900      -0.00220380
Cs      12.77325312      12.77325312       6.38662656        5       0.00000000       0.00000000       0.00000000
Pb       3.19957923       3.19957923       9.58620579        6      -0.00062665      -0.00062665      -0.00132101
I        3.20692213       3.20692213       6.38662656        7       0.00220459       0.00220459       0.00000000
I        3.20692213      12.77325312       9.59354869        8       0.00219900      -0.00000000       0.00220380
I       12.77325312       3.20692213       9.59354869        9       0.00000000       0.00219900       0.00220380
Cs      12.77325312       6.38662656      12.77325312       10       0.00000000      -0.00000000       0.00000000
Pb       3.19957923       9.57367389       3.18704733       11      -0.00062665       0.00062665       0.00132101
I        3.24169853       9.53155459      12.77325312       12      -0.00947948       0.00947948       0.00000000
I        3.24169853       6.38662656       3.14492803       13      -0.00948296      -0.00000000       0.00947855
I       12.77325312       9.56633099       3.17970443       14       0.00000000      -0.00219900      -0.00220380
Cs      12.77325312       6.38662656       6.38662656       15      -0.00000000       0.00000000       0.00000000
Pb       3.19957923       9.57367389       9.58620579       16      -0.00062665       0.00062665      -0.00132101
I        3.20692213       9.56633099       6.38662656       17       0.00220459      -0.00220459       0.00000000
I        3.24169853       6.38662656       9.62832509       18      -0.00948296       0.00000000      -0.00947855
I       12.77325312       9.56633099       9.59354869       19      -0.00000000      -0.00219900       0.00220380
Cs       6.38662656      12.77325312      12.77325312       20       0.00000000       0.00000000       0.00000000
Pb       9.57367389       3.19957923       3.18704733       21       0.00062665      -0.00062665       0.00132101
I        9.53155459       3.24169853      12.77325312       22       0.00947948      -0.00947948       0.00000000
I        9.56633099      12.77325312       3.17970443       23      -0.00219900       0.00000000      -0.00220380
I        6.38662656       3.24169853       3.14492803       24      -0.00000000      -0.00948296       0.00947855
Cs       6.38662656      12.77325312       6.38662656       25       0.00000000       0.00000000       0.00000000
Pb       9.57367389       3.19957923       9.58620579       26       0.00062665      -0.00062665      -0.00132101
I        9.56633099       3.20692213       6.38662656       27      -0.00220459       0.00220459       0.00000000
I        9.56633099      12.77325312       9.59354869       28      -0.00219900      -0.00000000       0.00220380
I        6.38662656       3.24169853       9.62832509       29       0.00000000      -0.00948296      -0.00947855
K        6.38662656       6.38662656       0.00000000       30      -0.00000000      -0.00000000       0.00000000
Pb       9.57367389       9.57367389       3.18704733       31       0.00062665       0.00062665       0.00132101
I        9.53155459       9.53155459      12.77325312       32       0.00947948       0.00947948       0.00000000
I        9.53155459       6.38662656       3.14492803       33       0.00948296      -0.00000000       0.00947855
I        6.38662656       9.53155459       3.14492803       34       0.00000000       0.00948296       0.00947855
Cs       6.38662656       6.38662656       6.38662656       35       0.00000000       0.00000000       0.00000000
Pb       9.57367389       9.57367389       9.58620579       36       0.00062665       0.00062665      -0.00132101
I        9.56633099       9.56633099       6.38662656       37      -0.00220459      -0.00220459       0.00000000
I        9.53155459       6.38662656       9.62832509       38       0.00948296       0.00000000      -0.00947855
I        6.38662656       9.53155459       9.62832509       39       0.00000000       0.00948296      -0.00947855
40
Lattice="12.773253120293841 0.0 0.0 0.0 12.773253120293841 0.0 0.0 -3.892511102041948e-14 12.773253120293791" Properties=species:S:1:pos:R:3:spacegroup_kinds:I:1:forces:R:3 spacegroup="P 1" unit_cell=conventional candidate_id=f7b6194aaa88d7cb formula=FA0.88K0.12PbI3 config_index=1 rattle_stdev=0.08 method=PBE fidelity=phase2_force energy=-112.5583960591664 stress="-0.0014186260894161185 5.438622913509321e-05 2.406150273745746e-05 5.438622913509321e-05 -0.0006313863162290742 -7.574067290962759e-05 2.406150273745746e-05 -7.574067290962759e-05 -0.0019937114572765695" pbc="T T T"
Cs      12.68633741      12.70156791      12.74874917        0      -0.03361208       0.02706952       0.03240121
Pb       3.09238454       3.10305238       3.13570919        1       0.25884413       0.24908913       0.21025066
I        3.34633418       3.38933536      12.83958232        2      -0.03773419      -0.02840904      -0.06314552
I        3.20505823      12.75656800       3.10637485        3       0.01619668       0.02479292      -0.01049910
I       12.68727371       3.20003065       3.27377151        4       0.47791516      -0.00310683       0.01359276
Cs      12.64244578      12.87150864       6.47273746        5       0.02734160       0.04150979      -0.03649715
Pb       3.23116106       3.16856316       9.63327793        6       0.07839476       0.02958729      -0.10723704
I        3.09225823       3.18103616       6.48686534        7       0.03825115       0.02096873      -0.19898112
I        3.14846272      12.88753193       9.66912100        8      -0.01025864      -0.48298015       0.01446619
I       12.75213290       3.19386507       9.51642011        9       0.09173701       0.00823812       0.02255939
Cs      12.74584133       6.39053888      12.73328256       10      -0.00918265      -0.03055671       0.02480013
Pb       3.02262687       9.59846084       3.05987523       11       0.73032982      -0.24050241      -0.07703469
I        3.30005490       9.52292249      12.72123940       12      -0.03192985       0.02672668      -0.03683243
I        3.10625401       6.35714864       3.01769829       13       0.00112506       0.02874416       0.07282908
I       12.89169359       9.60428621       3.25281353       14      -0.82506249       0.01190942       0.04623582
Cs      12.85009074       6.39338997       6.52400504       15       0.02067575      -0.04043594      -0.01453127
Pb       3.26773065       9.51328307       9.40319544       16       0.21476288       0.07090404       0.28285024
I        3.21566123       9.53031834       6.35358876       17       0.00731193      -0.01704482      -0.10629451
I        3.26721723       6.34333792       9.70421841       18      -0.01953913       0.36040936      -0.04686487
I       12.78536792       9.57248318       9.58879666       19       0.31284453       0.00828207       0.00744047
Cs       6.38101546      12.72796120      12.79813355       20       0.01722490       0.01969779       0.02919015
Pb       9.63161060       3.24089523       3.26912979       21      -0.39567424      -0.20559605      -0.40686362
I        9.57316680       3.17211145      12.89329833       22       0.05270872       0.00307034      -0.41672159
I        9.65964876      12.81260628       3.12112345       23      -0.00314709      -0.14125679       0.08821346
I        6.44105105       3.28241828       3.07792513       24      -0.32385019      -0.00978760       0.05977150
Cs       6.43843815      12.77425628       6.51139369       25      -0.01932653       0.00969015      -0.01837614
Pb       9.65644152       3.22659464       9.48199696       26      -0.17647965       0.23162660       0.31674384
I        9.47684745       3.31168334       6.34516920       27      -0.02864027      -0.02650189       0.39599900
I        9.53488105      12.85669060       9.59952591       28       0.01849973      -0.16736064      -0.03368028
I        6.39378152       3.24601112       9.66180085       29       0.00505424      -0.00910404      -0.01515822
K        6.28840816       6.29946324       0.02536995       30      -0.03737281      -0.05693301       0.04720211
Pb       9.51124145       9.50518341       3.08145762       31      -0.13730364       0.21170363       0.22270080
I        9.56785712       9.61169658      12.88635189       32       0.02895083       0.02033833      -0.35258153
I        9.51633996       6.38903540       2.99505469       33       0.02893622       0.09993926       0.01042533
I        6.37728440       9.52135536       3.21710277       34       0.18780629       0.00946974       0.02840644
Cs       6.28147679       6.37866250       6.39787055       35      -0.00462202      -0.01884295      -0.01620054
Pb       9.78397837       9.71413620       9.37535396       36      -0.46898005      -0.22205783       0.84490715
I        9.46339943       9.55259321       6.53066286       37      -0.00361914       0.01777984      -0.88334838
I        9.58025024       6.38914860       9.51101212       38       0.02674773       0.14443343       0.03878338
I        6.41138182       9.62293202       9.58745756       39      -0.07343095       0.01636303       0.00032014
40
Lattice="12.773253120293841 0.0 0.0 0.0 12.773253120293841 0.0 0.0 -3.892511102041948e-14 12.773253120293791" Properties=species:S:1:pos:R:3:spacegroup_kinds:I:1:forces:R:3 spacegroup="P 1" unit_cell=conventional candidate_id=f7b6194aaa88d7cb formula=FA0.88K0.12PbI3 config_index=2 rattle_stdev=0.08 method=PBE fidelity=phase2_force energy=-112.61172554165448 stress="-0.0009137865266915164 -1.1126760366662071e-06 2.4710271714971197e-05 -1.1126760366662071e-06 -0.00109063664383709 -3.069578449569874e-05 2.4710271714971197e-05 -3.069578449569874e-05 -0.0005819603004513919" pbc="T T T"
Cs      12.76423608      12.68712800      12.91605527        0       0.02087620      -0.00927617      -0.05174230
Pb       3.08302056       3.17347357       3.08625561        1       0.64210269       0.23061651       0.13201048
I        3.27176785       3.17144674      12.74525506        2      -0.04174255       0.03497468      -0.03916656
I        3.23065495      12.86932607       3.05418481        3      -0.00987160      -0.56289480       0.03317462
I       12.92157542       3.24643908       3.16924751        4      -0.90878483       0.01849417      -0.02254089
Cs      12.74100346      12.69536014       6.34922922        5      -0.00737879      -0.00987009       0.05185853
Pb       3.14214551       3.29729069       9.52402979        6       0.33558354      -0.10167555      -0.02216367
I        3.15984008       3.20231262       6.39299295        7       0.01571115      -0.07807341      -0.07878158
I        3.11226605      12.64935372       9.66652918        8       0.00465351       0.49009431      -0.00586069
I       12.80626678       3.15126061       9.41044694        9      -0.14849628       0.02011420       0.02730197
Cs      12.71027380       6.30434523      12.78071777       10       0.01928794       0.01767270      -0.02553776
Pb       3.15724370       9.63609348       3.17098216       11       0.19068026      -0.18768169       0.05728919
I        3.20324984       9.44873362      12.73303437       12       0.01298689      -0.04501196       0.38459700
I        3.30488975       6.31262675       3.32173086       13      -0.03557844       0.47140835      -0.03950543
I       12.66123423       9.54720320       3.19709168       14       0.53877356       0.00161003       0.02881315
Cs      12.74506230       6.39349660       6.39515872       15      -0.00026152       0.00942110       0.02349571
Pb       3.18381673       9.68142860       9.61381971       16      -0.02674082      -0.34035310      -0.12620283
I        3.25153368       9.51870818       6.44525314       17      -0.01729014       0.06126827      -0.33476139
I        3.34819874       6.32822393       9.58946463       18      -0.02216000       0.05040670       0.02779831
I       12.85940626       9.35870240       9.60690295       19      -0.13923836      -0.01283415      -0.01082883
Cs       6.46974333      12.62856721      12.83394440       20      -0.02178728       0.02471027      -0.02685609
Pb       9.53366487       3.01203578       3.17841392       21      -0.18080754       0.33570381       0.12989108
I        9.41133158       3.28080082      12.72899884       22       0.06723524       0.03313121       0.17855273
I        9.65093159      12.70370769       3.17369714       23       0.01692480       0.10378917      -0.00582764
I        6.37805416       3.40960429       3.11768500       24       0.30346340      -0.12318528      -0.00654838
Cs       6.34439415      12.66968377       6.40375448       25       0.01307390      -0.00104463       0.02427762
Pb       9.66377546       3.23170210       9.64745261       26      -0.30448439      -0.05684910      -0.22594955
I        9.45808079       3.25283081       6.36901559       27       0.04161591      -0.06894907      -0.07932480
I        9.61794611      12.69287558       9.74552778       28       0.02495981       0.41689175       0.01150804
I        6.40397543       3.28169616       9.57819780       29       0.05292944      -0.06282464      -0.01291064
K        6.30639582       6.32412174       0.01634222       30      -0.02704933      -0.06729163       0.00659289
Pb       9.61656125       9.48767409       3.00961895       31      -0.35195524      -0.20838745       0.48505868
I        9.58330901       9.50576773      12.75944799       32       0.01777234      -0.01996374       0.02023881
I        9.34848085       6.37766305       3.22135314       33       0.09085672      -0.07408009      -0.04180707
I        6.42300561       9.69650879       3.14992487       34      -0.34741608       0.05817117      -0.01856499
Cs       6.38685396       6.35034225       6.41650516       35       0.00673008      -0.02021361       0.00031654
Pb       9.50862461       9.56554929       9.62186285       36       0.24197832       0.10531463      -0.40220320
I        9.46432070       9.57495753       6.45480551       37       0.05078932       0.06520087      -0.15967526
I        9.51900642       6.48173210       9.51054402       38       0.06601358      -0.53236325       0.03341606
I        6.45590983       9.46008343       9.58440744       39      -0.20923742       0.04380266       0.05966632
40
Lattice="12.773253120293841 0.0 0.0 0.0 12.773253120293841 0.0 0.0 -3.892511102041948e-14 12.773253120293791" Properties=species:S:1:pos:R:3:spacegroup_kinds:I:1:forces:R:3 spacegroup="P 1" unit_cell=conventional candidate_id=f7b6194aaa88d7cb formula=FA0.88K0.12PbI3 config_index=3 rattle_stdev=0.08 method=PBE fidelity=phase2_force energy=-112.44404979482539 stress="-0.0010715008171738132 8.226492715089758e-05 3.2878234877796756e-05 8.226492715089758e-05 -0.0011293194112288742 4.912421666146642e-05 3.2878234877796756e-05 4.912421666146642e-05 -0.0005747216242314545" pbc="T T T"
Cs      12.66756964      12.93459335      12.77705828        0       0.01340129       0.05931851       0.02558035
Pb       3.18056554       3.20630904       3.26381071        1      -0.26440651      -0.27621316      -0.59982883
I        3.18717065       3.28402416      12.71125966        2       0.01224804      -0.01244146      -0.07061474
I        3.31931863      12.75527868       3.07523357        3       0.01921285      -0.17017663       0.00283588
I       12.71897030       3.07724747       3.07730655        4       0.12572339       0.04334168       0.02955044
Cs      12.75530938      12.70520824       6.32616735        5      -0.03197644       0.02173770      -0.01932182
Pb       3.22063289       2.99516379       9.45258312        6      -0.01315951       0.42548801       0.41827328
I        3.14998332       3.01118008       6.28449177        7      -0.03104057      -0.02344024       0.35570638
I        3.26001194      12.67094640       9.53031591        8      -0.01870844       0.43121110       0.01304935
I       12.65306346       3.11175893       9.77488390        9       0.42547158       0.02027599      -0.01708656
Cs      12.73511089       6.45835968      12.62885806       10       0.01341292      -0.06640336      -0.01568863
Pb       3.16028206       9.47771416       3.12262971       11       0.01661329       0.26494199       0.00821463
I        3.35416402       9.51312934      12.71615740       12      -0.03226681      -0.04565535       0.47567433
I        3.22869153       6.33231617       3.26605745       13      -0.02543928       0.22648256       0.02326703
I       12.63344729       9.61901336       3.15217513       14       1.01754650      -0.05365095       0.00576626
Cs      12.71255727       6.40038866       6.33404328       15      -0.03371032      -0.00833299       0.00431021
Pb       3.24379487       9.60428255       9.55650256       16      -0.17880014      -0.52196119       0.03920472
I        3.33317365       9.58367479       6.48355389       17      -0.00567470       0.01129829      -0.54197533
I        3.30021698       6.44054625       9.58190060       18      -0.03235270      -0.29416332      -0.04679232
I       12.76530595       9.43954180       9.58757138       19      -0.10837015       0.00602070       0.01004098
Cs       6.48253127      12.75201930      12.72110915       20      -0.02338052       0.02230928       0.00616687
Pb       9.42195096       3.07635531       3.15562147       21       0.33672274       0.24709267       0.02312191
I        9.49839612       3.29858395      12.82465515       22      -0.04110263      -0.03449173      -0.15551379
I        9.75811789      12.75967053       3.09863373       23      -0.06396529      -0.24851111       0.00178915
I        6.35114207       3.30937671       3.18447675       24      -0.14613976      -0.02767203       0.02224061
Cs       6.40891762      12.81502039       6.41203590       25       0.01380174      -0.01693057       0.00456924
Pb       9.59184480       3.16835199       9.52876438       26      -0.11396116      -0.04057632       0.01506743
I        9.68985988       3.13788652       6.35792035       27       0.00158784       0.00014735       0.09230423
I        9.57303514      12.90759088       9.49920171       28      -0.02929086      -0.85438370       0.05885882
I        6.35472839       3.20782739       9.67307204       29      -0.19534339      -0.05009703      -0.05864042
K        6.34044698       6.39232635       0.06937641       30      -0.01193845      -0.02083117      -0.01935155
Pb       9.60686661       9.55557511       3.24749478       31      -0.09782178      -0.18220120       0.20219819
I        9.54956498       9.49637435      12.82557946       32       0.03452047      -0.00386682       0.02478498
I        9.45986473       6.27267067       3.28432676       33       0.08116406       0.23132464       0.02294712
I        6.62017261       9.47765657       3.08324609       34      -0.99055462       0.01371731      -0.00813492
Cs       6.47106594       6.47828360       6.39627641       35       0.01821050       0.01335250       0.01824899
Pb       9.57467336       9.51771217       9.73630972       36       0.04874267       0.00023169      -0.25681541
I        9.53027832       9.54183225       6.49964591       37       0.00536173       0.00544432      -0.09931385
I        9.47926731       6.20530123       9.67675325       38      -0.00458517       0.87213026      -0.00170298
I        6.34468112       9.54815377       9.71603726       39       0.28920621       0.02001656       0.00460454
