Cs Sn I  Cs Sn I  Cs Sn Br I  Cs Sn I  Br I  Cs Sn I  Br Cs Sn I  Cs Sn I  Br Cs Sn I  Br
 1.0000000000000000
    13.2558479841917318    0.0000000000000000    0.0000000000000000
     0.0000000000000000   13.2558479841917318    0.0000000000000000
     0.0000000000000000    0.0000000000000000   13.2558479841917318
 Cs  Sn  I   Cs  Sn  I   Cs  Sn  Br  I   Cs  Sn  I   Br  I   Cs  Sn  I   Br  Cs  Sn  I   Cs  Sn  I   Br  Cs  Sn  I   Br 
   1   1   3   1   1   3   1   1   2   1   1   1   1   1   1   1   1   2   1   1   1   3   1   1   1   2   1   1   2   1
Cartesian
  0.0000000000000000  0.0000000000000000  0.0000000000000000
  3.3139619960479330  3.3139619960479330  3.3139619960479330
  3.3139619960479330  3.3139619960479330  0.0000000000000000
  3.3139619960479330  0.0000000000000000  3.3139619960479330
  0.0000000000000000  3.3139619960479330  3.3139619960479330
  0.0000000000000000  0.0000000000000000  6.6279239920958650
  3.3139619960479330  3.3139619960479330  9.9418859881437989
  3.3139619960479330  3.3139619960479330  6.6279239920958650
  3.3139619960479330  0.0000000000000000  9.9418859881437989
  0.0000000000000000  3.3139619960479330  9.9418859881437989
  0.0000000000000000  6.6279239920958650  0.0000000000000000
  3.3139619960479330  9.9418859881437989  3.3139619960479330
  3.3139619960479330  9.9418859881437989  0.0000000000000000
  3.3139619960479330  6.6279239920958650  3.3139619960479330
  0.0000000000000000  9.9418859881437989  3.3139619960479330
  0.0000000000000000  6.6279239920958650  6.6279239920958650
  3.3139619960479330  9.9418859881437989  9.9418859881437989
  3.3139619960479330  9.9418859881437989  6.6279239920958650
  3.3139619960479330  6.6279239920958650  9.9418859881437989
  0.0000000000000000  9.9418859881437989  9.9418859881437989
  6.6279239920958650  0.0000000000000000  0.0000000000000000
  9.9418859881437989  3.3139619960479330  3.3139619960479330
  9.9418859881437989  3.3139619960479330  0.0000000000000000
  9.9418859881437989  0.0000000000000000  3.3139619960479330
  6.6279239920958650  3.3139619960479330  3.3139619960479330
  6.6279239920958650  0.0000000000000000  6.6279239920958650
  9.9418859881437989  3.3139619960479330  9.9418859881437989
  9.9418859881437989  3.3139619960479330  6.6279239920958650
  9.9418859881437989  0.0000000000000000  9.9418859881437989
  6.6279239920958650  3.3139619960479330  9.9418859881437989
  6.6279239920958650  6.6279239920958650  0.0000000000000000
  9.9418859881437989  9.9418859881437989  3.3139619960479330
  9.9418859881437989  9.9418859881437989  0.0000000000000000
  9.9418859881437989  6.6279239920958650  3.3139619960479330
  6.6279239920958650  9.9418859881437989  3.3139619960479330
  6.6279239920958650  6.6279239920958650  6.6279239920958650
  9.9418859881437989  9.9418859881437989  9.9418859881437989
  9.9418859881437989  9.9418859881437989  6.6279239920958650
  9.9418859881437989  6.6279239920958650  9.9418859881437989
  6.6279239920958650  9.9418859881437989  9.9418859881437989
