Rb Pb I  Rb Pb I  Rb Ge I  Rb Ge I  Rb Ge I  Rb Pb I  Rb Ge I  Rb Ge I 
 1.0000000000000000
    12.4009558857371953    0.0000000000000000    0.0000000000000000
     0.0000000000000000   12.4009558857371953    0.0000000000000000
     0.0000000000000000    0.0000000000000000   12.4009558857371953
 Rb  Pb  I   Rb  Pb  I   Rb  Ge  I   Rb  Ge  I   Rb  Ge  I   Rb  Pb  I   Rb  Ge  I   Rb  Ge  I  
   1   1   3   1   1   3   1   1   3   1   1   3   1   1   3   1   1   3   1   1   3   1   1   3
Cartesian
  0.0000000000000000  0.0000000000000000  0.0000000000000000
  3.1002389714342988  3.1002389714342988  3.1002389714342988
  3.1002389714342988  3.1002389714342988  0.0000000000000000
  3.1002389714342988  0.0000000000000000  3.1002389714342988
  0.0000000000000000  3.1002389714342988  3.1002389714342988
  0.0000000000000000  0.0000000000000000  6.2004779428685968
  3.1002389714342988  3.1002389714342988  9.3007169143028960
  3.1002389714342988  3.1002389714342988  6.2004779428685968
  3.1002389714342988  0.0000000000000000  9.3007169143028960
  0.0000000000000000  3.1002389714342988  9.3007169143028960
  0.0000000000000000  6.2004779428685968  0.0000000000000000
  3.1002389714342988  9.3007169143028960  3.1002389714342988
  3.1002389714342988  9.3007169143028960  0.0000000000000000
  3.1002389714342988  6.2004779428685968  3.1002389714342988
  0.0000000000000000  9.3007169143028960  3.1002389714342988
  0.0000000000000000  6.2004779428685968  6.2004779428685968
  3.1002389714342988  9.3007169143028960  9.3007169143028960
  3.1002389714342988  9.3007169143028960  6.2004779428685968
  3.1002389714342988  6.2004779428685968  9.3007169143028960
  0.0000000000000000  9.3007169143028960  9.3007169143028960
  6.2004779428685968  0.0000000000000000  0.0000000000000000
  9.3007169143028960  3.1002389714342988  3.1002389714342988
  9.3007169143028960  3.1002389714342988  0.0000000000000000
  9.3007169143028960  0.0000000000000000  3.1002389714342988
  6.2004779428685968  3.1002389714342988  3.1002389714342988
  6.2004779428685968  0.0000000000000000  6.2004779428685968
  9.3007169143028960  3.1002389714342988  9.3007169143028960
  9.3007169143028960  3.1002389714342988  6.2004779428685968
  9.3007169143028960  0.0000000000000000  9.3007169143028960
  6.2004779428685968  3.1002389714342988  9.3007169143028960
  6.2004779428685968  6.2004779428685968  0.0000000000000000
  9.3007169143028960  9.3007169143028960  3.1002389714342988
  9.3007169143028960  9.3007169143028960  0.0000000000000000
  9.3007169143028960  6.2004779428685968  3.1002389714342988
  6.2004779428685968  9.3007169143028960  3.1002389714342988
  6.2004779428685968  6.2004779428685968  6.2004779428685968
  9.3007169143028960  9.3007169143028960  9.3007169143028960
  9.3007169143028960  9.3007169143028960  6.2004779428685968
  9.3007169143028960  6.2004779428685968  9.3007169143028960
  6.2004779428685968  9.3007169143028960  9.3007169143028960
