Cs Pb I  Cs Pb I  Cs Pb I  Cs Ge I  Cs Pb I  Cs Pb I  Cs Ge I  Cs Pb I 
 1.0000000000000000
    13.0384833596549861    0.0000000000000000    0.0000000000000000
     0.0000000000000000   13.0384833596549861    0.0000000000000000
     0.0000000000000000    0.0000000000000000   13.0384833596549861
 Cs  Pb  I   Cs  Pb  I   Cs  Pb  I   Cs  Ge  I   Cs  Pb  I   Cs  Pb  I   Cs  Ge  I   Cs  Pb  I  
   1   1   3   1   1   3   1   1   3   1   1   3   1   1   3   1   1   3   1   1   3   1   1   3
Cartesian
  0.0000000000000000  0.0000000000000000  0.0000000000000000
  3.2596208399137465  3.2596208399137465  3.2596208399137465
  3.2596208399137465  3.2596208399137465  0.0000000000000000
  3.2596208399137465  0.0000000000000000  3.2596208399137465
  0.0000000000000000  3.2596208399137465  3.2596208399137465
  0.0000000000000000  0.0000000000000000  6.5192416798274921
  3.2596208399137465  3.2596208399137465  9.7788625197412387
  3.2596208399137465  3.2596208399137465  6.5192416798274921
  3.2596208399137465  0.0000000000000000  9.7788625197412387
  0.0000000000000000  3.2596208399137465  9.7788625197412387
  0.0000000000000000  6.5192416798274921  0.0000000000000000
  3.2596208399137465  9.7788625197412387  3.2596208399137465
  3.2596208399137465  9.7788625197412387  0.0000000000000000
  3.2596208399137465  6.5192416798274921  3.2596208399137465
  0.0000000000000000  9.7788625197412387  3.2596208399137465
  0.0000000000000000  6.5192416798274921  6.5192416798274921
  3.2596208399137465  9.7788625197412387  9.7788625197412387
  3.2596208399137465  9.7788625197412387  6.5192416798274921
  3.2596208399137465  6.5192416798274921  9.7788625197412387
  0.0000000000000000  9.7788625197412387  9.7788625197412387
  6.5192416798274921  0.0000000000000000  0.0000000000000000
  9.7788625197412387  3.2596208399137465  3.2596208399137465
  9.7788625197412387  3.2596208399137465  0.0000000000000000
  9.7788625197412387  0.0000000000000000  3.2596208399137465
  6.5192416798274921  3.2596208399137465  3.2596208399137465
  6.5192416798274921  0.0000000000000000  6.5192416798274921
  9.7788625197412387  3.2596208399137465  9.7788625197412387
  9.7788625197412387  3.2596208399137465  6.5192416798274921
  9.7788625197412387  0.0000000000000000  9.7788625197412387
  6.5192416798274921  3.2596208399137465  9.7788625197412387
  6.5192416798274921  6.5192416798274921  0.0000000000000000
  9.7788625197412387  9.7788625197412387  3.2596208399137465
  9.7788625197412387  9.7788625197412387  0.0000000000000000
  9.7788625197412387  6.5192416798274921  3.2596208399137465
  6.5192416798274921  9.7788625197412387  3.2596208399137465
  6.5192416798274921  6.5192416798274921  6.5192416798274921
  9.7788625197412387  9.7788625197412387  9.7788625197412387
  9.7788625197412387  9.7788625197412387  6.5192416798274921
  9.7788625197412387  6.5192416798274921  9.7788625197412387
  6.5192416798274921  9.7788625197412387  9.7788625197412387
