Cs Pb I  Cs Pb I  Cs Ge I  Cs Ge I  Cs Ge I  Cs Pb I  Cs Ge I  Cs Ge I 
 1.0000000000000000
    12.3671561815964779    0.0000000000000000    0.0000000000000000
     0.0000000000000000   12.3671561815964779    0.0000000000000000
     0.0000000000000000    0.0000000000000000   12.3671561815964779
 Cs  Pb  I   Cs  Pb  I   Cs  Ge  I   Cs  Ge  I   Cs  Ge  I   Cs  Pb  I   Cs  Ge  I   Cs  Ge  I  
   1   1   3   1   1   3   1   1   3   1   1   3   1   1   3   1   1   3   1   1   3   1   1   3
Cartesian
  0.0000000000000000  0.0000000000000000  0.0000000000000000
  3.0917890453991195  3.0917890453991195  3.0917890453991195
  3.0917890453991195  3.0917890453991195  0.0000000000000000
  3.0917890453991195  0.0000000000000000  3.0917890453991195
  0.0000000000000000  3.0917890453991195  3.0917890453991195
  0.0000000000000000  0.0000000000000000  6.1835780907982381
  3.0917890453991195  3.0917890453991195  9.2753671361973584
  3.0917890453991195  3.0917890453991195  6.1835780907982381
  3.0917890453991195  0.0000000000000000  9.2753671361973584
  0.0000000000000000  3.0917890453991195  9.2753671361973584
  0.0000000000000000  6.1835780907982381  0.0000000000000000
  3.0917890453991195  9.2753671361973584  3.0917890453991195
  3.0917890453991195  9.2753671361973584  0.0000000000000000
  3.0917890453991195  6.1835780907982381  3.0917890453991195
  0.0000000000000000  9.2753671361973584  3.0917890453991195
  0.0000000000000000  6.1835780907982381  6.1835780907982381
  3.0917890453991195  9.2753671361973584  9.2753671361973584
  3.0917890453991195  9.2753671361973584  6.1835780907982381
  3.0917890453991195  6.1835780907982381  9.2753671361973584
  0.0000000000000000  9.2753671361973584  9.2753671361973584
  6.1835780907982381  0.0000000000000000  0.0000000000000000
  9.2753671361973584  3.0917890453991195  3.0917890453991195
  9.2753671361973584  3.0917890453991195  0.0000000000000000
  9.2753671361973584  0.0000000000000000  3.0917890453991195
  6.1835780907982381  3.0917890453991195  3.0917890453991195
  6.1835780907982381  0.0000000000000000  6.1835780907982381
  9.2753671361973584  3.0917890453991195  9.2753671361973584
  9.2753671361973584  3.0917890453991195  6.1835780907982381
  9.2753671361973584  0.0000000000000000  9.2753671361973584
  6.1835780907982381  3.0917890453991195  9.2753671361973584
  6.1835780907982381  6.1835780907982381  0.0000000000000000
  9.2753671361973584  9.2753671361973584  3.0917890453991195
  9.2753671361973584  9.2753671361973584  0.0000000000000000
  9.2753671361973584  6.1835780907982381  3.0917890453991195
  6.1835780907982381  9.2753671361973584  3.0917890453991195
  6.1835780907982381  6.1835780907982381  6.1835780907982381
  9.2753671361973584  9.2753671361973584  9.2753671361973584
  9.2753671361973584  9.2753671361973584  6.1835780907982381
  9.2753671361973584  6.1835780907982381  9.2753671361973584
  6.1835780907982381  9.2753671361973584  9.2753671361973584
