Cs Pb Cl Cs Pb Cl Cs Pb Cl Cs Pb Cl Cs Pb Cl Cs Pb Cl K  Pb Cl Cs Pb Cl
 1.0000000000000000
    12.0000263408044230    0.0000000000000000    0.0000000000000000
     0.0000000000000000   12.0000263408044230    0.0000000000000000
     0.0000000000000000    0.0000000000000000   12.0000263408044230
 Cs  Pb  Cl  Cs  Pb  Cl  Cs  Pb  Cl  Cs  Pb  Cl  Cs  Pb  Cl  Cs  Pb  Cl  K   Pb  Cl  Cs  Pb  Cl 
   1   1   3   1   1   3   1   1   3   1   1   3   1   1   3   1   1   3   1   1   3   1   1   3
Cartesian
  0.0000000000000000  0.0000000000000000  0.0000000000000000
  3.0000065852011057  3.0000065852011057  3.0000065852011057
  3.0000065852011057  3.0000065852011057  0.0000000000000000
  3.0000065852011057  0.0000000000000000  3.0000065852011057
  0.0000000000000000  3.0000065852011057  3.0000065852011057
  0.0000000000000000  0.0000000000000000  6.0000131704022106
  3.0000065852011057  3.0000065852011057  9.0000197556033168
  3.0000065852011057  3.0000065852011057  6.0000131704022106
  3.0000065852011057  0.0000000000000000  9.0000197556033168
  0.0000000000000000  3.0000065852011057  9.0000197556033168
  0.0000000000000000  6.0000131704022106  0.0000000000000000
  3.0000065852011057  9.0000197556033168  3.0000065852011057
  3.0000065852011057  9.0000197556033168  0.0000000000000000
  3.0000065852011057  6.0000131704022106  3.0000065852011057
  0.0000000000000000  9.0000197556033168  3.0000065852011057
  0.0000000000000000  6.0000131704022106  6.0000131704022106
  3.0000065852011057  9.0000197556033168  9.0000197556033168
  3.0000065852011057  9.0000197556033168  6.0000131704022106
  3.0000065852011057  6.0000131704022106  9.0000197556033168
  0.0000000000000000  9.0000197556033168  9.0000197556033168
  6.0000131704022106  0.0000000000000000  0.0000000000000000
  9.0000197556033168  3.0000065852011057  3.0000065852011057
  9.0000197556033168  3.0000065852011057  0.0000000000000000
  9.0000197556033168  0.0000000000000000  3.0000065852011057
  6.0000131704022106  3.0000065852011057  3.0000065852011057
  6.0000131704022106  0.0000000000000000  6.0000131704022106
  9.0000197556033168  3.0000065852011057  9.0000197556033168
  9.0000197556033168  3.0000065852011057  6.0000131704022106
  9.0000197556033168  0.0000000000000000  9.0000197556033168
  6.0000131704022106  3.0000065852011057  9.0000197556033168
  6.0000131704022106  6.0000131704022106  0.0000000000000000
  9.0000197556033168  9.0000197556033168  3.0000065852011057
  9.0000197556033168  9.0000197556033168  0.0000000000000000
  9.0000197556033168  6.0000131704022106  3.0000065852011057
  6.0000131704022106  9.0000197556033168  3.0000065852011057
  6.0000131704022106  6.0000131704022106  6.0000131704022106
  9.0000197556033168  9.0000197556033168  9.0000197556033168
  9.0000197556033168  9.0000197556033168  6.0000131704022106
  9.0000197556033168  6.0000131704022106  9.0000197556033168
  6.0000131704022106  9.0000197556033168  9.0000197556033168
