Cs Pb I  Cs Pb I  Cs Sn I  Cs Sn I  Cs Sn I  Cs Pb I  Cs Sn I  Cs Pb I 
 1.0000000000000000
    13.5423676519285205    0.0000000000000000    0.0000000000000000
     0.0000000000000000   13.5423676519285205    0.0000000000000000
     0.0000000000000000    0.0000000000000000   13.5423676519285205
 Cs  Pb  I   Cs  Pb  I   Cs  Sn  I   Cs  Sn  I   Cs  Sn  I   Cs  Pb  I   Cs  Sn  I   Cs  Pb  I  
   1   1   3   1   1   3   1   1   3   1   1   3   1   1   3   1   1   3   1   1   3   1   1   3
Cartesian
  0.0000000000000000  0.0000000000000000  0.0000000000000000
  3.3855919129821301  3.3855919129821301  3.3855919129821301
  3.3855919129821301  3.3855919129821301  0.0000000000000000
  3.3855919129821301  0.0000000000000000  3.3855919129821301
  0.0000000000000000  3.3855919129821301  3.3855919129821301
  0.0000000000000000  0.0000000000000000  6.7711838259642594
  3.3855919129821301  3.3855919129821301 10.1567757389463900
  3.3855919129821301  3.3855919129821301  6.7711838259642594
  3.3855919129821301  0.0000000000000000 10.1567757389463900
  0.0000000000000000  3.3855919129821301 10.1567757389463900
  0.0000000000000000  6.7711838259642594  0.0000000000000000
  3.3855919129821301 10.1567757389463900  3.3855919129821301
  3.3855919129821301 10.1567757389463900  0.0000000000000000
  3.3855919129821301  6.7711838259642594  3.3855919129821301
  0.0000000000000000 10.1567757389463900  3.3855919129821301
  0.0000000000000000  6.7711838259642594  6.7711838259642594
  3.3855919129821301 10.1567757389463900 10.1567757389463900
  3.3855919129821301 10.1567757389463900  6.7711838259642594
  3.3855919129821301  6.7711838259642594 10.1567757389463900
  0.0000000000000000 10.1567757389463900 10.1567757389463900
  6.7711838259642594  0.0000000000000000  0.0000000000000000
 10.1567757389463900  3.3855919129821301  3.3855919129821301
 10.1567757389463900  3.3855919129821301  0.0000000000000000
 10.1567757389463900  0.0000000000000000  3.3855919129821301
  6.7711838259642594  3.3855919129821301  3.3855919129821301
  6.7711838259642594  0.0000000000000000  6.7711838259642594
 10.1567757389463900  3.3855919129821301 10.1567757389463900
 10.1567757389463900  3.3855919129821301  6.7711838259642594
 10.1567757389463900  0.0000000000000000 10.1567757389463900
  6.7711838259642594  3.3855919129821301 10.1567757389463900
  6.7711838259642594  6.7711838259642594  0.0000000000000000
 10.1567757389463900 10.1567757389463900  3.3855919129821301
 10.1567757389463900 10.1567757389463900  0.0000000000000000
 10.1567757389463900  6.7711838259642594  3.3855919129821301
  6.7711838259642594 10.1567757389463900  3.3855919129821301
  6.7711838259642594  6.7711838259642594  6.7711838259642594
 10.1567757389463900 10.1567757389463900 10.1567757389463900
 10.1567757389463900 10.1567757389463900  6.7711838259642594
 10.1567757389463900  6.7711838259642594 10.1567757389463900
  6.7711838259642594 10.1567757389463900 10.1567757389463900
