Cs Pb I  Cs Pb I  Cs Pb Cl I  Cs Pb I  Cs Pb I  Cs Pb I  Cs Pb I  Cs Pb I 
 1.0000000000000000
    13.4784451989092560    0.0000000000000000    0.0000000000000000
     0.0000000000000000   13.4784451989092560    0.0000000000000000
     0.0000000000000000    0.0000000000000000   13.4784451989092560
 Cs  Pb  I   Cs  Pb  I   Cs  Pb  Cl  I   Cs  Pb  I   Cs  Pb  I   Cs  Pb  I   Cs  Pb  I   Cs  Pb  I  
   1   1   3   1   1   3   1   1   1   2   1   1   3   1   1   3   1   1   3   1   1   3   1   1   3
Cartesian
  0.0000000000000000  0.0000000000000000  0.0000000000000000
  3.3696112997273140  3.3696112997273140  3.3696112997273140
  3.3696112997273140  3.3696112997273140  0.0000000000000000
  3.3696112997273140  0.0000000000000000  3.3696112997273140
  0.0000000000000000  3.3696112997273140  3.3696112997273140
  0.0000000000000000  0.0000000000000000  6.7392225994546271
  3.3696112997273140  3.3696112997273140 10.1088338991819420
  3.3696112997273140  3.3696112997273140  6.7392225994546271
  3.3696112997273140  0.0000000000000000 10.1088338991819420
  0.0000000000000000  3.3696112997273140 10.1088338991819420
  0.0000000000000000  6.7392225994546271  0.0000000000000000
  3.3696112997273140 10.1088338991819420  3.3696112997273140
  3.3696112997273140 10.1088338991819420  0.0000000000000000
  3.3696112997273140  6.7392225994546271  3.3696112997273140
  0.0000000000000000 10.1088338991819420  3.3696112997273140
  0.0000000000000000  6.7392225994546271  6.7392225994546271
  3.3696112997273140 10.1088338991819420 10.1088338991819420
  3.3696112997273140 10.1088338991819420  6.7392225994546271
  3.3696112997273140  6.7392225994546271 10.1088338991819420
  0.0000000000000000 10.1088338991819420 10.1088338991819420
  6.7392225994546271  0.0000000000000000  0.0000000000000000
 10.1088338991819420  3.3696112997273140  3.3696112997273140
 10.1088338991819420  3.3696112997273140  0.0000000000000000
 10.1088338991819420  0.0000000000000000  3.3696112997273140
  6.7392225994546271  3.3696112997273140  3.3696112997273140
  6.7392225994546271  0.0000000000000000  6.7392225994546271
 10.1088338991819420  3.3696112997273140 10.1088338991819420
 10.1088338991819420  3.3696112997273140  6.7392225994546271
 10.1088338991819420  0.0000000000000000 10.1088338991819420
  6.7392225994546271  3.3696112997273140 10.1088338991819420
  6.7392225994546271  6.7392225994546271  0.0000000000000000
 10.1088338991819420 10.1088338991819420  3.3696112997273140
 10.1088338991819420 10.1088338991819420  0.0000000000000000
 10.1088338991819420  6.7392225994546271  3.3696112997273140
  6.7392225994546271 10.1088338991819420  3.3696112997273140
  6.7392225994546271  6.7392225994546271  6.7392225994546271
 10.1088338991819420 10.1088338991819420 10.1088338991819420
 10.1088338991819420 10.1088338991819420  6.7392225994546271
 10.1088338991819420  6.7392225994546271 10.1088338991819420
  6.7392225994546271 10.1088338991819420 10.1088338991819420
