Cs Sn I  Cs Sn I  Cs Ge I  Cs Ge I  Cs Ge I  Cs Sn I  Cs Ge I  Cs Sn I 
 1.0000000000000000
    12.5381346012873855    0.0000000000000000    0.0000000000000000
     0.0000000000000000   12.5381346012873855    0.0000000000000000
     0.0000000000000000    0.0000000000000000   12.5381346012873855
 Cs  Sn  I   Cs  Sn  I   Cs  Ge  I   Cs  Ge  I   Cs  Ge  I   Cs  Sn  I   Cs  Ge  I   Cs  Sn  I  
   1   1   3   1   1   3   1   1   3   1   1   3   1   1   3   1   1   3   1   1   3   1   1   3
Cartesian
  0.0000000000000000  0.0000000000000000  0.0000000000000000
  3.1345336503218464  3.1345336503218464  3.1345336503218464
  3.1345336503218464  3.1345336503218464  0.0000000000000000
  3.1345336503218464  0.0000000000000000  3.1345336503218464
  0.0000000000000000  3.1345336503218464  3.1345336503218464
  0.0000000000000000  0.0000000000000000  6.2690673006436919
  3.1345336503218464  3.1345336503218464  9.4036009509655401
  3.1345336503218464  3.1345336503218464  6.2690673006436919
  3.1345336503218464  0.0000000000000000  9.4036009509655401
  0.0000000000000000  3.1345336503218464  9.4036009509655401
  0.0000000000000000  6.2690673006436919  0.0000000000000000
  3.1345336503218464  9.4036009509655401  3.1345336503218464
  3.1345336503218464  9.4036009509655401  0.0000000000000000
  3.1345336503218464  6.2690673006436919  3.1345336503218464
  0.0000000000000000  9.4036009509655401  3.1345336503218464
  0.0000000000000000  6.2690673006436919  6.2690673006436919
  3.1345336503218464  9.4036009509655401  9.4036009509655401
  3.1345336503218464  9.4036009509655401  6.2690673006436919
  3.1345336503218464  6.2690673006436919  9.4036009509655401
  0.0000000000000000  9.4036009509655401  9.4036009509655401
  6.2690673006436919  0.0000000000000000  0.0000000000000000
  9.4036009509655401  3.1345336503218464  3.1345336503218464
  9.4036009509655401  3.1345336503218464  0.0000000000000000
  9.4036009509655401  0.0000000000000000  3.1345336503218464
  6.2690673006436919  3.1345336503218464  3.1345336503218464
  6.2690673006436919  0.0000000000000000  6.2690673006436919
  9.4036009509655401  3.1345336503218464  9.4036009509655401
  9.4036009509655401  3.1345336503218464  6.2690673006436919
  9.4036009509655401  0.0000000000000000  9.4036009509655401
  6.2690673006436919  3.1345336503218464  9.4036009509655401
  6.2690673006436919  6.2690673006436919  0.0000000000000000
  9.4036009509655401  9.4036009509655401  3.1345336503218464
  9.4036009509655401  9.4036009509655401  0.0000000000000000
  9.4036009509655401  6.2690673006436919  3.1345336503218464
  6.2690673006436919  9.4036009509655401  3.1345336503218464
  6.2690673006436919  6.2690673006436919  6.2690673006436919
  9.4036009509655401  9.4036009509655401  9.4036009509655401
  9.4036009509655401  9.4036009509655401  6.2690673006436919
  9.4036009509655401  6.2690673006436919  9.4036009509655401
  6.2690673006436919  9.4036009509655401  9.4036009509655401
