K  Pb I  K  Pb I  K  Ge I  K  Ge I  K  Ge I  K  Pb I  K  Ge I  K  Ge I 
 1.0000000000000000
    12.4442308207458119    0.0000000000000000    0.0000000000000000
     0.0000000000000000   12.4442308207458119    0.0000000000000000
     0.0000000000000000    0.0000000000000000   12.4442308207458119
 K   Pb  I   K   Pb  I   K   Ge  I   K   Ge  I   K   Ge  I   K   Pb  I   K   Ge  I   K   Ge  I  
   1   1   3   1   1   3   1   1   3   1   1   3   1   1   3   1   1   3   1   1   3   1   1   3
Cartesian
  0.0000000000000000  0.0000000000000000  0.0000000000000000
  3.1110577051864530  3.1110577051864530  3.1110577051864530
  3.1110577051864530  3.1110577051864530  0.0000000000000000
  3.1110577051864530  0.0000000000000000  3.1110577051864530
  0.0000000000000000  3.1110577051864530  3.1110577051864530
  0.0000000000000000  0.0000000000000000  6.2221154103729051
  3.1110577051864530  3.1110577051864530  9.3331731155593580
  3.1110577051864530  3.1110577051864530  6.2221154103729051
  3.1110577051864530  0.0000000000000000  9.3331731155593580
  0.0000000000000000  3.1110577051864530  9.3331731155593580
  0.0000000000000000  6.2221154103729051  0.0000000000000000
  3.1110577051864530  9.3331731155593580  3.1110577051864530
  3.1110577051864530  9.3331731155593580  0.0000000000000000
  3.1110577051864530  6.2221154103729051  3.1110577051864530
  0.0000000000000000  9.3331731155593580  3.1110577051864530
  0.0000000000000000  6.2221154103729051  6.2221154103729051
  3.1110577051864530  9.3331731155593580  9.3331731155593580
  3.1110577051864530  9.3331731155593580  6.2221154103729051
  3.1110577051864530  6.2221154103729051  9.3331731155593580
  0.0000000000000000  9.3331731155593580  9.3331731155593580
  6.2221154103729051  0.0000000000000000  0.0000000000000000
  9.3331731155593580  3.1110577051864530  3.1110577051864530
  9.3331731155593580  3.1110577051864530  0.0000000000000000
  9.3331731155593580  0.0000000000000000  3.1110577051864530
  6.2221154103729051  3.1110577051864530  3.1110577051864530
  6.2221154103729051  0.0000000000000000  6.2221154103729051
  9.3331731155593580  3.1110577051864530  9.3331731155593580
  9.3331731155593580  3.1110577051864530  6.2221154103729051
  9.3331731155593580  0.0000000000000000  9.3331731155593580
  6.2221154103729051  3.1110577051864530  9.3331731155593580
  6.2221154103729051  6.2221154103729051  0.0000000000000000
  9.3331731155593580  9.3331731155593580  3.1110577051864530
  9.3331731155593580  9.3331731155593580  0.0000000000000000
  9.3331731155593580  6.2221154103729051  3.1110577051864530
  6.2221154103729051  9.3331731155593580  3.1110577051864530
  6.2221154103729051  6.2221154103729051  6.2221154103729051
  9.3331731155593580  9.3331731155593580  9.3331731155593580
  9.3331731155593580  9.3331731155593580  6.2221154103729051
  9.3331731155593580  6.2221154103729051  9.3331731155593580
  6.2221154103729051  9.3331731155593580  9.3331731155593580
