40
Lattice="12.366665905004764 0.0 0.0 0.01619665255333709 12.317532124582883 0.0 -0.011109427365416029 0.011338556329376005 12.432501088112229" Properties=species:S:1:pos:R:3:spacegroup_kinds:I:1:forces:R:3 spacegroup="P 1" unit_cell=conventional occupancy="_JSON {\"0\": {\"Cs\": 1.0}, \"1\": {\"Sn\": 1.0}, \"2\": {\"I\": 1.0}, \"3\": {\"I\": 1.0}, \"4\": {\"I\": 1.0}, \"5\": {\"Cs\": 1.0}, \"6\": {\"Sn\": 1.0}, \"7\": {\"I\": 1.0}, \"8\": {\"I\": 1.0}, \"9\": {\"I\": 1.0}, \"10\": {\"Cs\": 1.0}, \"11\": {\"Sn\": 1.0}, \"12\": {\"Br\": 1.0}, \"13\": {\"Br\": 1.0}, \"14\": {\"I\": 1.0}, \"15\": {\"Cs\": 1.0}, \"16\": {\"Sn\": 1.0}, \"17\": {\"I\": 1.0}, \"18\": {\"Br\": 1.0}, \"19\": {\"I\": 1.0}, \"20\": {\"Cs\": 1.0}, \"21\": {\"Sn\": 1.0}, \"22\": {\"I\": 1.0}, \"23\": {\"I\": 1.0}, \"24\": {\"Br\": 1.0}, \"25\": {\"Cs\": 1.0}, \"26\": {\"Sn\": 1.0}, \"27\": {\"I\": 1.0}, \"28\": {\"I\": 1.0}, \"29\": {\"I\": 1.0}, \"30\": {\"Cs\": 1.0}, \"31\": {\"Sn\": 1.0}, \"32\": {\"I\": 1.0}, \"33\": {\"Br\": 1.0}, \"34\": {\"I\": 1.0}, \"35\": {\"Cs\": 1.0}, \"36\": {\"Sn\": 1.0}, \"37\": {\"I\": 1.0}, \"38\": {\"I\": 1.0}, \"39\": {\"Br\": 1.0}}" candidate_id=1994748bbfcb2881 formula=CsSnBr0.26I0.743 config_index=0 rattle_stdev=0.0 method=PBE fidelity=phase2_force energy=-115.77644982868878 stress="-0.0007084986312781055 -1.6693281539705558e-05 2.466312862116979e-05 -1.6693281539705558e-05 0.0003935593602544203 -1.601198400039902e-05 2.466312862116979e-05 -1.601198400039902e-05 -0.0012066864516073201" pbc="T T T"
Cs       0.05718290      12.30093048       0.04803187        0       0.00249319      -0.00301399      -0.00478682
Sn       3.20546374       3.24669059       3.09205618        1      -0.10475866      -0.04992086      -0.00788102
I        3.16609408       3.22542270       0.00426038        2      -0.00336420      -0.00899512      -0.05394896
I        3.15355227      12.28627465       3.04745575        3       0.00063645       0.01079506       0.00170491
I        0.03462746       3.21887631       3.10757974        4       0.01041096       0.00166293       0.00135774
Cs       0.01649277       0.01779053       6.15712191        5      -0.00325010       0.00255835       0.00014470
Sn       3.09479935       3.26269820       9.32136241        6      -0.00873956      -0.03663097      -0.00068906
I        3.15627477       3.22053225       6.18937783        7      -0.00037648      -0.01428074       0.06022843
I        3.18676116      12.20852250       9.42378585        8       0.01300777       0.04653550       0.01704680
I        0.00172112       3.13565587       9.31725094        9      -0.08483184      -0.01440530      -0.00282136
Cs       0.04671973       6.16814895       0.02821476       10       0.00772551       0.00036057      -0.00544521
Sn       3.10764628       9.10746873       2.93367517       11      -0.00428069       0.08112236       0.05377007
Br       3.12094463       9.11849457       0.12885150       12       0.01559116      -0.03871216      -0.00828667
Br       3.16533424       6.13775707       3.03851402       13       0.01000865      -0.01619552      -0.00057572
I        0.01947738       9.10488304       3.05741071       14      -0.09162404      -0.00100897       0.01041944
Cs       0.03231827       6.16220962       6.18838726       15       0.00294661       0.00054358       0.00809113
Sn       3.16844383       9.15084734       9.41289756       16      -0.06241213       0.06619624      -0.09803644
I        3.17888592       9.11494046       6.35699842       17       0.00891760      -0.00347522      -0.04347323
Br       3.11172881       6.06742427       9.33455360       18       0.01320636       0.00880063       0.02528702
I        0.15344168       9.15803637       9.42273175       19      -0.07417010      -0.00879158       0.01957440
Cs       6.16645739      12.30902328       0.03371248       20       0.00458187      -0.00061402      -0.00446998
Sn       9.11554889       3.20426100       3.10501973       21       0.06057162      -0.10205520       0.00103596
I        9.18871204       3.16258544       0.02957964       22       0.01072393       0.00014227      -0.15273988
I        9.17801116       0.07364850       3.10953471       23       0.00242997      -0.02162118       0.00100811
Br       6.20856509       3.22232037       3.10233713       24       0.00321923       0.03106615       0.00396328
Cs       6.16403153      12.31449206       6.18389673       25       0.00276834      -0.00399669       0.00734605
Sn       9.24938425       3.10668474       9.32351084       26      -0.00654724       0.00290720      -0.00316663
I        9.19178344       3.16122201       6.18464888       27       0.00979054       0.00127807       0.14927590
I        9.23548279      12.32117523       9.31657415       28       0.01410650       0.08780654      -0.00230446
I        6.15286498       3.16371030       9.31915523       29       0.09413472      -0.02176947      -0.00572948
Cs       6.15087595       6.16775966       0.02775906       30      -0.00447441      -0.00011105       0.00027784
Sn       9.26220398       9.07270906       3.09413765       31      -0.00944721       0.05803161      -0.00818337
I        9.20474461       9.18031008      12.42180385       32       0.01409145       0.01616954       0.02134808
Br       9.22447778       6.21597102       3.10287103       33      -0.00216344       0.01486960       0.00551635
I        6.16416999       9.08636688       3.03828343       34       0.09863219       0.00202299       0.01378833
Cs       6.16328286       6.16612775       6.17714198       35       0.00229291      -0.00118965      -0.00127918
Sn       9.09226550       9.23964136       9.32008143       36       0.06701822       0.00162538       0.00238420
I        9.23098984       9.18176251       6.20461430       37       0.01658776       0.01258343      -0.01543755
I        9.19712866       6.19020422       9.31650660       38       0.02278017      -0.09577908      -0.00542950
Br       6.31522946       9.22488221       9.33083202       39      -0.04581200      -0.00559163       0.02074617
40
Lattice="12.366665905004764 0.0 0.0 0.01619665255333709 12.317532124582883 0.0 -0.011109427365416029 0.011338556329376005 12.432501088112229" Properties=species:S:1:pos:R:3:spacegroup_kinds:I:1:forces:R:3 spacegroup="P 1" unit_cell=conventional occupancy="_JSON {\"0\": {\"Cs\": 1.0}, \"1\": {\"Sn\": 1.0}, \"2\": {\"I\": 1.0}, \"3\": {\"I\": 1.0}, \"4\": {\"I\": 1.0}, \"5\": {\"Cs\": 1.0}, \"6\": {\"Sn\": 1.0}, \"7\": {\"I\": 1.0}, \"8\": {\"I\": 1.0}, \"9\": {\"I\": 1.0}, \"10\": {\"Cs\": 1.0}, \"11\": {\"Sn\": 1.0}, \"12\": {\"Br\": 1.0}, \"13\": {\"Br\": 1.0}, \"14\": {\"I\": 1.0}, \"15\": {\"Cs\": 1.0}, \"16\": {\"Sn\": 1.0}, \"17\": {\"I\": 1.0}, \"18\": {\"Br\": 1.0}, \"19\": {\"I\": 1.0}, \"20\": {\"Cs\": 1.0}, \"21\": {\"Sn\": 1.0}, \"22\": {\"I\": 1.0}, \"23\": {\"I\": 1.0}, \"24\": {\"Br\": 1.0}, \"25\": {\"Cs\": 1.0}, \"26\": {\"Sn\": 1.0}, \"27\": {\"I\": 1.0}, \"28\": {\"I\": 1.0}, \"29\": {\"I\": 1.0}, \"30\": {\"Cs\": 1.0}, \"31\": {\"Sn\": 1.0}, \"32\": {\"I\": 1.0}, \"33\": {\"Br\": 1.0}, \"34\": {\"I\": 1.0}, \"35\": {\"Cs\": 1.0}, \"36\": {\"Sn\": 1.0}, \"37\": {\"I\": 1.0}, \"38\": {\"I\": 1.0}, \"39\": {\"Br\": 1.0}}" candidate_id=1994748bbfcb2881 formula=CsSnBr0.26I0.743 config_index=1 rattle_stdev=0.08 method=PBE fidelity=phase2_force energy=-115.22598568557696 stress="-0.0015712504581662369 -0.00010744172306173461 1.581255128558194e-05 -0.00010744172306173461 -0.00045011322021499823 -5.438512956599031e-05 1.581255128558194e-05 -5.438512956599031e-05 -0.0040334747706349235" pbc="T T T"
Cs      -0.02973281      12.22924527       0.02352792        0      -0.01640749       0.02971162       0.00991877
Sn       3.09826905       3.15016374       3.04071803        1       0.07389514       0.16056489       0.23226606
I        3.27072973       3.37305954       0.07058957        2      -0.11140761      -0.12459527      -0.10066586
I        3.15168836      12.26958954       2.97412617        3      -0.02337702       0.09152141       0.00293955
I       -0.05135195       3.21198483       3.20164683        4       0.31711911       0.00064922      -0.01151027
Cs      -0.11431456       0.11604605       6.24323282        5       0.03964070       0.03279451      -0.03574408
Sn       3.12638118       3.23168213       9.36843455        6       0.05976562      -0.27331703      -0.15128061
I        3.04161086       3.19464628       6.28961661        7       0.05266392      -0.00318775      -0.09004470
I        3.12830176      12.32280131       9.49935816        8       0.00806726      -0.26875343      -0.02998432
I       -0.01939910       3.12259881       9.24012236        9       0.02142843      -0.01440150       0.02960717
Cs       0.01930794       6.17206128      -0.01175580       10      -0.00817787      -0.02874628       0.01206089
Sn       2.93069392       9.13225568       2.80650307       11       0.94349767      -0.14889837       0.04942591
Br       3.17930099       9.10986247       0.07683778       12      -0.08031801      -0.01657981      -0.09122344
Br       3.02988972       6.10827915       2.91128428       13      -0.00200673       0.00683245       0.08117330
I        0.13791785       9.14283826       3.13051981       14      -0.96899322       0.00694629       0.05938367
Cs       0.10915589       6.16897302       6.32576574       15       0.01326173      -0.03052027      -0.00490762
Sn       3.23659525       9.09045651       9.22988721       16       0.13631668       0.23199499       0.33813908
I        3.18762501       9.07892781       6.32396063       17      -0.00994678       0.01158625      -0.26478795
Br       3.13724751       6.02413563       9.41044692       18      -0.01115558       0.40693339      -0.03124225
I        0.16555648       9.16418856       9.41797972       19      -0.07046231       0.00048196      -0.02000307
Cs       6.16084629      12.26373136       0.05859290       20       0.02010786       0.00828030       0.00186763
Sn       9.17348559       3.24557700       3.18710219       21      -0.19582500      -0.28747400      -0.58240662
I        9.23032425       3.09299836       0.14962485       22       0.04990381       0.03946827      -0.53906340
I        9.27132893       0.11300166       3.05095373       23      -0.01373504      -0.09205180       0.13639313
Br       6.26298958       3.26304011       3.03533423       24      -0.20214724       0.01681229       0.07111021
Cs       6.21584312      12.31549522       6.30866386       25      -0.04092539      -0.00281050      -0.01151827
Sn       9.33215188       3.13370015       9.21930200       26      -0.17291809       0.29881174       0.29069915
I        9.10229990       3.26598322       6.14319152       27       0.00191179      -0.04855165       0.63138380
I        9.20403285      12.40461271       9.32255137       28       0.03055747      -0.09941149      -0.03893377
I        6.16001995       3.16802289       9.35263099       29       0.05686502      -0.01230554      -0.01582983
Cs       6.05265754       6.08059633       0.05312901       30       0.08076161       0.05334046       0.03263430
Sn       9.19977154       9.00421858       2.98854794       31      -0.18678433       0.26796958       0.14241075
I        9.24104715       9.26045207      12.53490263       32       0.03034741      -0.01470844      -0.26299348
Br       9.20926315       6.21837986       2.95299769       33       0.03476761       0.02149954       0.01110966
I        6.15482784       9.07616766       3.11045818       34       0.30362915      -0.00621738       0.03184596
Cs       6.05813308       6.15816369       6.18838597       35       0.00266423      -0.03028321      -0.00965186
Sn       9.30256998       9.38010367       9.10922961       36      -0.24463369      -0.33339134       0.98071096
I        9.12805828       9.16802474       6.34865060       37       0.04509263       0.05465347      -0.95064353
I        9.24582431       6.19272627       9.19919362       38       0.02321308       0.08824549       0.08813238
Br       6.33998472       9.31625964       9.28996449       39       0.01387324       0.00735726       0.01232504
40
Lattice="12.366665905004764 0.0 0.0 0.01619665255333709 12.317532124582883 0.0 -0.011109427365416029 0.011338556329376005 12.432501088112229" Properties=species:S:1:pos:R:3:spacegroup_kinds:I:1:forces:R:3 spacegroup="P 1" unit_cell=conventional occupancy="_JSON {\"0\": {\"Cs\": 1.0}, \"1\": {\"Sn\": 1.0}, \"2\": {\"I\": 1.0}, \"3\": {\"I\": 1.0}, \"4\": {\"I\": 1.0}, \"5\": {\"Cs\": 1.0}, \"6\": {\"Sn\": 1.0}, \"7\": {\"I\": 1.0}, \"8\": {\"I\": 1.0}, \"9\": {\"I\": 1.0}, \"10\": {\"Cs\": 1.0}, \"11\": {\"Sn\": 1.0}, \"12\": {\"Br\": 1.0}, \"13\": {\"Br\": 1.0}, \"14\": {\"I\": 1.0}, \"15\": {\"Cs\": 1.0}, \"16\": {\"Sn\": 1.0}, \"17\": {\"I\": 1.0}, \"18\": {\"Br\": 1.0}, \"19\": {\"I\": 1.0}, \"20\": {\"Cs\": 1.0}, \"21\": {\"Sn\": 1.0}, \"22\": {\"I\": 1.0}, \"23\": {\"I\": 1.0}, \"24\": {\"Br\": 1.0}, \"25\": {\"Cs\": 1.0}, \"26\": {\"Sn\": 1.0}, \"27\": {\"I\": 1.0}, \"28\": {\"I\": 1.0}, \"29\": {\"I\": 1.0}, \"30\": {\"Cs\": 1.0}, \"31\": {\"Sn\": 1.0}, \"32\": {\"I\": 1.0}, \"33\": {\"Br\": 1.0}, \"34\": {\"I\": 1.0}, \"35\": {\"Cs\": 1.0}, \"36\": {\"Sn\": 1.0}, \"37\": {\"I\": 1.0}, \"38\": {\"I\": 1.0}, \"39\": {\"Br\": 1.0}}" candidate_id=1994748bbfcb2881 formula=CsSnBr0.26I0.743 config_index=2 rattle_stdev=0.08 method=PBE fidelity=phase2_force energy=-115.24045462068895 stress="-0.002921469853621408 4.6038419592750995e-05 8.466504967827227e-06 4.6038419592750995e-05 -0.002163798597123661 9.40704246144759e-05 8.466504967827227e-06 9.40704246144759e-05 -0.0024741270697423543" pbc="T T T"
Cs       0.04816586      12.21480536       0.19083403        0       0.01167665      -0.00029598      -0.06243968
Sn       3.08890507       3.22058492       2.99126446        1       0.47006156       0.11334272       0.20818356
I        3.19616340       3.15517091      -0.02373769        2      -0.05763833       0.03476258      -0.07921820
I        3.17728509      12.38234761       2.92193613        3      -0.04555380      -0.42761356       0.04612602
I        0.18294976       3.25839326       3.09712283        4      -0.69125355      -0.00522139      -0.03886302
Cs      -0.01575689      -0.06010245       6.11972457        5      -0.01639177      -0.00330907       0.03862102
Sn       3.03736563       3.36040966       9.25918641        6       0.42097510      -0.35952162      -0.05577013
I        3.10919271       3.21592274       6.19574422        7       0.01395000      -0.09285686      -0.00920585
I        3.09210508      12.08462310       9.49676634        8       0.01056621       0.72897529       0.01595756
I        0.03473478       3.07999435       9.13414919        9      -0.24080671       0.00456993       0.04244991
Cs      -0.01625959       6.08586762       0.03567941       10       0.02814695       0.01559487      -0.02445894
Sn       3.06531075       9.16988832       2.91761000       11       0.26014994      -0.07865839       0.02091560
Br       3.08249594       9.03567360       0.08863275       12       0.01293839      -0.03712523       0.28748464
Br       3.22852545       6.06375726       3.21531684       13      -0.03720771       0.37633852      -0.09730754
I       -0.09254152       9.08575525       3.07479796       14       0.46750071      -0.00466987       0.02595492
Cs       0.00412745       6.16907966       6.19691942       15      -0.00057320       0.00957643       0.01150841
Sn       3.15268133       9.25860205       9.44051148       16       0.08852767      -0.60556064      -0.05464088
I        3.22349747       9.06731765       6.41562500       17      -0.02377330       0.08156479      -0.31307643
Br       3.21822903       6.00902163       9.29569314       18      -0.03792004       0.27137516       0.04856039
I        0.23959482       8.95040777       9.43608600       19      -0.30735585       0.01714760       0.01346201
Cs       6.24957416      12.16433737       0.09440375       20      -0.02279719       0.04952041      -0.03681436
Sn       9.07553986       3.01671754       3.09638632       21      -0.20314670       0.28968315       0.14109238
I        9.06848902       3.20168773      -0.01467464       22       0.09353386       0.02439497      -0.01445335
I        9.26261176       0.00410308       3.10352742       23      -0.00518918       0.00420885      -0.01045013
Br       6.19999269       3.39022613       3.07509410       24       0.36135291      -0.15103399      -0.01461247
Cs       6.12179912      12.21092272       6.20102465       25       0.02231281       0.00726546       0.02129035
Sn       9.33948582       3.13880761       9.38475766       26      -0.38631068      -0.07258389      -0.19141881
I        9.08353324       3.20713069       6.16703791       27       0.06616499      -0.08139855       0.05042803
I        9.28709791      12.24079769       9.46855323       28       0.04361415       0.57623629      -0.00000969
I        6.17021385       3.20370793       9.26902795       29       0.12371922      -0.09903890       0.00425262
Cs       6.07064521       6.10525484       0.04410128       30      -0.01057984      -0.02003301       0.03068770
Sn       9.30509134       8.98670927       2.91670927       31      -0.43191544      -0.08977235       0.56476076
I        9.25649903       9.15452322      12.40799872       32       0.03418719      -0.04055982       0.06831643
Br       9.04140404       6.20700751       3.17929613       33       0.11145532      -0.01380053      -0.08491790
I        6.20054905       9.25132108       3.04328027       34      -0.31591133       0.02791856      -0.03260720
Cs       6.16351025       6.12984344       6.20702058       35      -0.00120478      -0.01058514      -0.04445377
Sn       9.02721622       9.23151676       9.35573849       36       0.53391562       0.12010872      -0.45287305
I        9.12897955       9.19038906       6.27279325       37       0.07814661       0.10256869      -0.17398592
I        9.18458049       6.28530976       9.19872553       38       0.10902306      -0.72075649       0.05405380
Br       6.38451273       9.15341105       9.28691437       39      -0.52557402       0.05799230       0.09626832
40
Lattice="12.366665905004764 0.0 0.0 0.01619665255333709 12.317532124582883 0.0 -0.011109427365416029 0.011338556329376005 12.432501088112229" Properties=species:S:1:pos:R:3:spacegroup_kinds:I:1:forces:R:3 spacegroup="P 1" unit_cell=conventional occupancy="_JSON {\"0\": {\"Cs\": 1.0}, \"1\": {\"Sn\": 1.0}, \"2\": {\"I\": 1.0}, \"3\": {\"I\": 1.0}, \"4\": {\"I\": 1.0}, \"5\": {\"Cs\": 1.0}, \"6\": {\"Sn\": 1.0}, \"7\": {\"I\": 1.0}, \"8\": {\"I\": 1.0}, \"9\": {\"I\": 1.0}, \"10\": {\"Cs\": 1.0}, \"11\": {\"Sn\": 1.0}, \"12\": {\"Br\": 1.0}, \"13\": {\"Br\": 1.0}, \"14\": {\"I\": 1.0}, \"15\": {\"Cs\": 1.0}, \"16\": {\"Sn\": 1.0}, \"17\": {\"I\": 1.0}, \"18\": {\"Br\": 1.0}, \"19\": {\"I\": 1.0}, \"20\": {\"Cs\": 1.0}, \"21\": {\"Sn\": 1.0}, \"22\": {\"I\": 1.0}, \"23\": {\"I\": 1.0}, \"24\": {\"Br\": 1.0}, \"25\": {\"Cs\": 1.0}, \"26\": {\"Sn\": 1.0}, \"27\": {\"I\": 1.0}, \"28\": {\"I\": 1.0}, \"29\": {\"I\": 1.0}, \"30\": {\"Cs\": 1.0}, \"31\": {\"Sn\": 1.0}, \"32\": {\"I\": 1.0}, \"33\": {\"Br\": 1.0}, \"34\": {\"I\": 1.0}, \"35\": {\"Cs\": 1.0}, \"36\": {\"Sn\": 1.0}, \"37\": {\"I\": 1.0}, \"38\": {\"I\": 1.0}, \"39\": {\"Br\": 1.0}}" candidate_id=1994748bbfcb2881 formula=CsSnBr0.26I0.743 config_index=3 rattle_stdev=0.08 method=PBE fidelity=phase2_force energy=-115.06631707115837 stress="-0.00183119429442417 0.00016806887240028827 3.1796918321220355e-05 0.00016806887240028827 -0.0007234380303183791 0.00011249013896362804 3.1796918321220355e-05 0.00011249013896362804 -0.002272779909534123" pbc="T T T"
Cs      -0.04850058      12.46227071       0.05183703        0       0.03649184       0.03661365       0.02212791
Sn       3.18645005       3.25342040       3.16881956        1      -0.32456221      -0.33766629      -0.72442924
I        3.11156620       3.26774834      -0.05773308        2       0.01772152      -0.02847253      -0.12945146
I        3.26594877      12.26830022       2.94298490        3      -0.00132870      -0.15935156       0.02630498
I       -0.01965536       3.08920165       3.00518186        4       0.17823057       0.07055183       0.05843530
Cs      -0.00145096      -0.05025435       6.09666271        5      -0.02451799       0.01576852      -0.01777531
Sn       3.11585301       3.05828276       9.18773973        6      -0.00946464       0.43541350       0.49627281
I        3.09933595       3.02479020       6.08724305        7      -0.02006076      -0.02805479       0.44139170
I        3.23985097      12.10621578       9.36055307        8      -0.02363515       0.72831627       0.03559977
I       -0.11846854       3.04049267       9.49858615        9       0.31376775       0.01693133      -0.03593732
Cs       0.00857750       6.23988208      -0.11618030       10       0.03796397      -0.09177848      -0.00480529
Sn       3.06834911       9.01150900       2.86925755       11       0.12753954       0.37952442      -0.01021601
Br       3.23341012       9.10006932       0.07175578       12      -0.03414292      -0.10384082       0.34402265
Br       3.15232724       6.08344668       3.15964343       13      -0.00905997       0.20985267       0.01656312
I       -0.12032845       9.15756541       3.02988141       14       1.00164690      -0.03210524      -0.01373387
Cs      -0.02837758       6.17597172       6.13580398       15      -0.01701101      -0.01288291       0.01684232
Sn       3.21265947       9.18145600       9.38319433       16      -0.10901177      -0.65990917       0.13451602
I        3.30513744       9.13228426       6.45392576       17      -0.01495167       0.00846702      -0.55565322
Br       3.17024726       6.12134396       9.28812911       18       0.00057006      -0.38531429      -0.04128567
I        0.14549451       9.03124717       9.41675444       19      -0.16391394       0.06301755      -0.01808802
Cs       6.26236209      12.28778946      -0.01843149       20      -0.04032260       0.00714561      -0.00043047
Sn       8.96382596       3.08103708       3.07359387       21       0.41381738       0.24060253       0.03899566
I        9.15555357       3.21947086       0.08098167       22      -0.04139773      -0.02877191      -0.30567854
I        9.36979806       0.06006592       3.02846401       23      -0.11149034      -0.31032407       0.02029376
Br       6.17308060       3.28999854       3.14188585       24      -0.16611600      -0.03006823       0.03208703
Cs       6.18632259      12.35625934       6.20930606       25       0.01585276      -0.04350520      -0.00147630
Sn       9.26755516       3.07545750       9.26606943       26      -0.08532584      -0.07398408      -0.00560386
I        9.31531233       3.09218640       6.15594267       27       0.00190639       0.00617474       0.28438237
I        9.24218694      12.45551299       9.22222717       28      -0.02453679      -0.87140020       0.05958925
I        6.12096681       3.12983916       9.36390218       29      -0.12056316      -0.05264003      -0.06356768
Cs       6.10469637       6.17345945       0.09713547       30      -0.02208769      -0.04186328      -0.05853155
Sn       9.29539670       9.05461028       3.15458510       31      -0.14894324      -0.16230003       0.20997339
I        9.22275500       9.14512984      12.47413019       32       0.05080013       0.01565731       0.07884702
Br       9.15278792       6.10201513       3.24226976       33       0.07756412       0.22196111       0.00337266
I        6.39771604       9.03246886       2.97660149       34      -1.02790088       0.05752783       0.03150780
Cs       6.24772224       6.25778479       6.18679183       35       0.00806033      -0.01643163       0.01842542
Sn       9.09326497       9.18367964       9.47018536       36       0.07268376       0.00352819      -0.29836444
I        9.19493717       9.15726377       6.31763365       37       0.03708707       0.03079570      -0.13321668
I        9.14484138       6.00887890       9.36493475       38      -0.00574634       0.93411787      -0.00546986
Br       6.27328402       9.24148139       9.41854419       39       0.15297949      -0.00986555       0.05898915
