Cs Sn I  Cs Sn I  Cs Sn I  Cs Sn I  Cs Sn I  Cs Sn I  Cs Ge I  Cs Sn I 
 1.0000000000000000
    13.3515902423643897    0.0000000000000000    0.0000000000000000
     0.0000000000000000   13.3515902423643897    0.0000000000000000
     0.0000000000000000    0.0000000000000000   13.3515902423643897
 Cs  Sn  I   Cs  Sn  I   Cs  Sn  I   Cs  Sn  I   Cs  Sn  I   Cs  Sn  I   Cs  Ge  I   Cs  Sn  I  
   1   1   3   1   1   3   1   1   3   1   1   3   1   1   3   1   1   3   1   1   3   1   1   3
Cartesian
  0.0000000000000000  0.0000000000000000  0.0000000000000000
  3.3378975605910974  3.3378975605910974  3.3378975605910974
  3.3378975605910974  3.3378975605910974  0.0000000000000000
  3.3378975605910974  0.0000000000000000  3.3378975605910974
  0.0000000000000000  3.3378975605910974  3.3378975605910974
  0.0000000000000000  0.0000000000000000  6.6757951211821940
  3.3378975605910974  3.3378975605910974 10.0136926817732927
  3.3378975605910974  3.3378975605910974  6.6757951211821940
  3.3378975605910974  0.0000000000000000 10.0136926817732927
  0.0000000000000000  3.3378975605910974 10.0136926817732927
  0.0000000000000000  6.6757951211821940  0.0000000000000000
  3.3378975605910974 10.0136926817732927  3.3378975605910974
  3.3378975605910974 10.0136926817732927  0.0000000000000000
  3.3378975605910974  6.6757951211821940  3.3378975605910974
  0.0000000000000000 10.0136926817732927  3.3378975605910974
  0.0000000000000000  6.6757951211821940  6.6757951211821940
  3.3378975605910974 10.0136926817732927 10.0136926817732927
  3.3378975605910974 10.0136926817732927  6.6757951211821940
  3.3378975605910974  6.6757951211821940 10.0136926817732927
  0.0000000000000000 10.0136926817732927 10.0136926817732927
  6.6757951211821940  0.0000000000000000  0.0000000000000000
 10.0136926817732927  3.3378975605910974  3.3378975605910974
 10.0136926817732927  3.3378975605910974  0.0000000000000000
 10.0136926817732927  0.0000000000000000  3.3378975605910974
  6.6757951211821940  3.3378975605910974  3.3378975605910974
  6.6757951211821940  0.0000000000000000  6.6757951211821940
 10.0136926817732927  3.3378975605910974 10.0136926817732927
 10.0136926817732927  3.3378975605910974  6.6757951211821940
 10.0136926817732927  0.0000000000000000 10.0136926817732927
  6.6757951211821940  3.3378975605910974 10.0136926817732927
  6.6757951211821940  6.6757951211821940  0.0000000000000000
 10.0136926817732927 10.0136926817732927  3.3378975605910974
 10.0136926817732927 10.0136926817732927  0.0000000000000000
 10.0136926817732927  6.6757951211821940  3.3378975605910974
  6.6757951211821940 10.0136926817732927  3.3378975605910974
  6.6757951211821940  6.6757951211821940  6.6757951211821940
 10.0136926817732927 10.0136926817732927 10.0136926817732927
 10.0136926817732927 10.0136926817732927  6.6757951211821940
 10.0136926817732927  6.6757951211821940 10.0136926817732927
  6.6757951211821940 10.0136926817732927 10.0136926817732927
