5
Lattice="6.254067906835049 0.0 0.0 0.0 6.254067906835035 0.0 0.0 -2.3944128629072262e-15 6.2540679068350515" Properties=species:S:1:pos:R:3:spacegroup_kinds:I:1:forces:R:3 spacegroup="P 1" unit_cell=conventional occupancy="_JSON {\"0\": {\"Cs\": 1.0}, \"1\": {\"Sn\": 1.0}, \"2\": {\"I\": 1.0}, \"3\": {\"I\": 1.0}, \"4\": {\"I\": 1.0}}" candidate_id=ca6c1497ca561780 formula=FASnI3 config_index=0 rattle_stdev=0.0 method=PBE fidelity=phase2_force energy=-14.047181758386069 stress="-0.0008154705794762607 0.0 0.0 0.0 -0.0008154705794762631 -2.5923660093348554e-19 0.0 -2.5923660093348554e-19 -0.0008154705794762595" pbc="T T T"
Cs       0.00000000      -0.00000000       0.00000000        0       0.00000000       0.00000000       0.00000000
Sn       3.12703395       3.12703395       3.12703395        1       0.00000000      -0.00000000       0.00000000
I        3.12703395       3.12703395       0.00000000        2      -0.00000000      -0.00000000      -0.00000000
I        3.12703395      -0.00000000       3.12703395        3      -0.00000000      -0.00000000       0.00000000
I        0.00000000       3.12703395       3.12703395        4       0.00000000      -0.00000000       0.00000000
5
Lattice="6.254067906835049 0.0 0.0 0.0 6.254067906835035 0.0 0.0 -2.3944128629072262e-15 6.2540679068350515" Properties=species:S:1:pos:R:3:spacegroup_kinds:I:1:forces:R:3 spacegroup="P 1" unit_cell=conventional occupancy="_JSON {\"0\": {\"Cs\": 1.0}, \"1\": {\"Sn\": 1.0}, \"2\": {\"I\": 1.0}, \"3\": {\"I\": 1.0}, \"4\": {\"I\": 1.0}}" candidate_id=ca6c1497ca561780 formula=FASnI3 config_index=1 rattle_stdev=0.08 method=PBE fidelity=phase2_force energy=-14.037413340399373 stress="-0.0012544624972494257 -0.00024714357837033493 -0.00013882421596567052 -0.00024714357837033493 -0.0017345038812794991 -0.0004315517340236929 -0.00013882421596567052 -0.0004315517340236929 -0.0010323344294140644" pbc="T T T"
Cs      -0.08691571      -0.07168521      -0.02450395        0       0.00589394       0.00784912       0.00206243
Sn       3.01983926       3.03050711       3.07569581        1       0.00658220       0.02086263       0.04656373
I        3.23166960       3.27467079       0.06632920        2      -0.05725588      -0.05100436      -0.08730431
I        3.12517005      -0.01668512       3.05370437        3      -0.02658812       0.03310567       0.03260364
I       -0.08597941       3.12014247       3.22110104        4       0.07354170      -0.00866424       0.00784586
5
Lattice="6.254067906835049 0.0 0.0 0.0 6.254067906835035 0.0 0.0 -2.3944128629072262e-15 6.2540679068350515" Properties=species:S:1:pos:R:3:spacegroup_kinds:I:1:forces:R:3 spacegroup="P 1" unit_cell=conventional occupancy="_JSON {\"0\": {\"Cs\": 1.0}, \"1\": {\"Sn\": 1.0}, \"2\": {\"I\": 1.0}, \"3\": {\"I\": 1.0}, \"4\": {\"I\": 1.0}}" candidate_id=ca6c1497ca561780 formula=FASnI3 config_index=2 rattle_stdev=0.08 method=PBE fidelity=phase2_force energy=-14.008426806517287 stress="-0.00593504125659847 4.4860527784782455e-06 -3.4533226215775424e-05 4.4860527784782455e-06 -0.0027936993507488143 0.00035070813605458966 -3.4533226215775424e-05 0.00035070813605458966 -0.0024447284648876945" pbc="T T T"
Cs      -0.00901704      -0.08612512       0.14280215        0       0.00041357       0.01104769      -0.02021478
Sn       3.01047529       3.10092829       3.02624223        1       0.37967824       0.06430026       0.03790096
I        3.15710327       3.05678216      -0.02799806        2       0.03574873       0.04625564      -0.04866219
I        3.15076677       0.09607295       3.00151433        3       0.03557028      -0.14466323       0.02575645
I        0.14832230       3.16655090       3.11657704        4      -0.44813503       0.02424923       0.00806852
5
Lattice="6.254067906835049 0.0 0.0 0.0 6.254067906835035 0.0 0.0 -2.3944128629072262e-15 6.2540679068350515" Properties=species:S:1:pos:R:3:spacegroup_kinds:I:1:forces:R:3 spacegroup="P 1" unit_cell=conventional occupancy="_JSON {\"0\": {\"Cs\": 1.0}, \"1\": {\"Sn\": 1.0}, \"2\": {\"I\": 1.0}, \"3\": {\"I\": 1.0}, \"4\": {\"I\": 1.0}}" candidate_id=ca6c1497ca561780 formula=FASnI3 config_index=3 rattle_stdev=0.08 method=PBE fidelity=phase2_force energy=-14.041059923690389 stress="-0.001060558447034232 -0.00017296755048194068 3.900182478759196e-05 -0.00017296755048194068 -0.0011018109417557929 -0.0001660177389150664 3.900182478759196e-05 -0.0001660177389150664 -0.002440277470059619" pbc="T T T"
Cs      -0.10568348       0.16134023       0.00380516        0       0.00716958      -0.01734964      -0.00774307
Sn       3.10802026       3.13376377       3.20379733        1      -0.01462379       0.00770158      -0.07174433
I        3.07250607       3.16935959      -0.06199346        2      -0.00950489      -0.00743317       0.04912101
I        3.23943045      -0.01797444       3.02256310        3      -0.04040538      -0.00850287       0.01224798
I       -0.05428282       2.99735929       3.02463607        4       0.05727368       0.02581813       0.01482570
