40
Lattice="12.76661122917321 0.0 0.0 0.0 12.766611229173318 0.0 0.0 1.7790272358567805e-14 12.766611229173296" Properties=species:S:1:pos:R:3:spacegroup_kinds:I:1:forces:R:3 spacegroup="P 1" unit_cell=conventional occupancy="_JSON {\"0\": {\"Cs\": 1.0}, \"1\": {\"Pb\": 1.0}, \"2\": {\"I\": 1.0}, \"3\": {\"I\": 1.0}, \"4\": {\"I\": 1.0}, \"5\": {\"Cs\": 1.0}, \"6\": {\"Pb\": 1.0}, \"7\": {\"I\": 1.0}, \"8\": {\"I\": 1.0}, \"9\": {\"I\": 1.0}, \"10\": {\"Cs\": 1.0}, \"11\": {\"Pb\": 1.0}, \"12\": {\"I\": 1.0}, \"13\": {\"I\": 1.0}, \"14\": {\"I\": 1.0}, \"15\": {\"Cs\": 1.0}, \"16\": {\"Pb\": 1.0}, \"17\": {\"I\": 1.0}, \"18\": {\"I\": 1.0}, \"19\": {\"I\": 1.0}, \"20\": {\"Cs\": 1.0}, \"21\": {\"Pb\": 1.0}, \"22\": {\"I\": 1.0}, \"23\": {\"I\": 1.0}, \"24\": {\"I\": 1.0}, \"25\": {\"Cs\": 1.0}, \"26\": {\"Pb\": 1.0}, \"27\": {\"I\": 1.0}, \"28\": {\"I\": 1.0}, \"29\": {\"I\": 1.0}, \"30\": {\"Cs\": 1.0}, \"31\": {\"Sn\": 1.0}, \"32\": {\"I\": 1.0}, \"33\": {\"I\": 1.0}, \"34\": {\"I\": 1.0}, \"35\": {\"Cs\": 1.0}, \"36\": {\"Pb\": 1.0}, \"37\": {\"I\": 1.0}, \"38\": {\"I\": 1.0}, \"39\": {\"I\": 1.0}}" candidate_id=b7dfd12bb2a80568 formula=MAPb0.83Sn0.17I3 config_index=0 rattle_stdev=0.0 method=PBE fidelity=phase2_force energy=-113.07825506242169 stress="0.0003135130968922667 -1.8833912685855216e-11 1.8833912685855274e-11 -1.8833912685855216e-11 0.0003135130968922619 1.8833912248974596e-11 1.8833912685855274e-11 1.8833912248974596e-11 0.00031351309689226295" pbc="T T T"
Cs      12.76548770      12.76548770       0.00112353        0      -0.00630939      -0.00630939       0.00630939
Pb       3.19165281       3.19165281       3.19165281        1       0.00032439       0.00032439       0.00035377
I        3.19165281       3.19165281       0.00213638        2      -0.00000055      -0.00000055      -0.00644743
I        3.19165281      12.75733076       3.19165281        3      -0.00000040       0.03433557      -0.00000035
I       12.75733076       3.19165281       3.19165281        4       0.03433557      -0.00000040      -0.00000035
Cs      12.76548770      12.76548770       6.38218208        5      -0.00630813      -0.00630813      -0.00630842
Pb       3.19165281       3.19165281       9.57495842        6       0.00034361       0.00034361      -0.00034361
I        3.19165281       3.19165281       6.38116924        7       0.00000113       0.00000113       0.00645058
I        3.19165281      12.76447485       9.57495842        8      -0.00000055       0.00644743       0.00000055
I       12.76447485       3.19165281       9.57495842        9       0.00644743      -0.00000055       0.00000055
Cs      12.76548770       6.38442915       0.00112353       10      -0.00630813       0.00630842       0.00630813
Pb       3.19165281       9.57495842       3.19165281       11       0.00012653      -0.00037189       0.00037189
I        3.19165281       9.57495842       0.00928047       12      -0.00000040       0.00000035      -0.03433557
I        3.19165281       6.39258608       3.19165281       13       0.00000051      -0.03435154       0.00000126
I       12.68373398       9.57495842       3.19165281       14       0.25990297       0.00000101      -0.00000101
Cs      12.76548770       6.38442915       6.38218208       15      -0.00630616       0.00630736      -0.00630736
Pb       3.19165281       9.57495842       9.57495842       16       0.00032439      -0.00035377      -0.00032439
I        3.19165281       9.57495842       6.37402515       17       0.00000051      -0.00000126       0.03435154
I        3.19165281       6.38544199       9.57495842       18       0.00000113      -0.00645058      -0.00000113
I       12.75733076       9.57495842       9.57495842       19       0.03433557       0.00000035       0.00000040
Cs       6.38442915      12.76548770       0.00112353       20       0.00630842      -0.00630813       0.00630813
Pb       9.57495842       3.19165281       3.19165281       21      -0.00037189       0.00012653       0.00037189
I        9.57495842       3.19165281       0.00928047       22       0.00000035      -0.00000040      -0.03433557
I        9.57495842      12.68373398       3.19165281       23       0.00000101       0.25990297      -0.00000101
I        6.39258608       3.19165281       3.19165281       24      -0.03435154       0.00000051       0.00000126
Cs       6.38442915      12.76548770       6.38218208       25       0.00630736      -0.00630616      -0.00630736
Pb       9.57495842       3.19165281       9.57495842       26      -0.00035377       0.00032439      -0.00032439
I        9.57495842       3.19165281       6.37402515       27      -0.00000126       0.00000051       0.03435154
I        9.57495842      12.75733076       9.57495842       28       0.00000035       0.03433557       0.00000040
I        6.38544199       3.19165281       9.57495842       29      -0.00645058       0.00000113      -0.00000113
Cs       6.38442915       6.38442915       0.00112353       30       0.00630736       0.00630736       0.00630616
Sn       9.57495842       9.57495842       3.19165281       31      -0.00017492      -0.00017492       0.00017492
I        9.57495842       9.57495842       0.08287725       32       0.00000101       0.00000101      -0.25990297
I        9.57495842       6.46618286       3.19165281       33      -0.00000034      -0.25999962       0.00000034
I        6.46618286       9.57495842       3.19165281       34      -0.25999962      -0.00000034       0.00000034
Cs       6.38442915       6.38442915       6.38218208       35       0.00630521       0.00630521      -0.00630521
Pb       9.57495842       9.57495842       9.57495842       36      -0.00037189      -0.00037189      -0.00012653
I        9.57495842       9.57495842       6.30042837       37      -0.00000034      -0.00000034       0.25999962
I        9.57495842       6.39258608       9.57495842       38      -0.00000126      -0.03435154      -0.00000051
I        6.39258608       9.57495842       9.57495842       39      -0.03435154      -0.00000126      -0.00000051
40
Lattice="12.76661122917321 0.0 0.0 0.0 12.766611229173318 0.0 0.0 1.7790272358567805e-14 12.766611229173296" Properties=species:S:1:pos:R:3:spacegroup_kinds:I:1:forces:R:3 spacegroup="P 1" unit_cell=conventional occupancy="_JSON {\"0\": {\"Cs\": 1.0}, \"1\": {\"Pb\": 1.0}, \"2\": {\"I\": 1.0}, \"3\": {\"I\": 1.0}, \"4\": {\"I\": 1.0}, \"5\": {\"Cs\": 1.0}, \"6\": {\"Pb\": 1.0}, \"7\": {\"I\": 1.0}, \"8\": {\"I\": 1.0}, \"9\": {\"I\": 1.0}, \"10\": {\"Cs\": 1.0}, \"11\": {\"Pb\": 1.0}, \"12\": {\"I\": 1.0}, \"13\": {\"I\": 1.0}, \"14\": {\"I\": 1.0}, \"15\": {\"Cs\": 1.0}, \"16\": {\"Pb\": 1.0}, \"17\": {\"I\": 1.0}, \"18\": {\"I\": 1.0}, \"19\": {\"I\": 1.0}, \"20\": {\"Cs\": 1.0}, \"21\": {\"Pb\": 1.0}, \"22\": {\"I\": 1.0}, \"23\": {\"I\": 1.0}, \"24\": {\"I\": 1.0}, \"25\": {\"Cs\": 1.0}, \"26\": {\"Pb\": 1.0}, \"27\": {\"I\": 1.0}, \"28\": {\"I\": 1.0}, \"29\": {\"I\": 1.0}, \"30\": {\"Cs\": 1.0}, \"31\": {\"Sn\": 1.0}, \"32\": {\"I\": 1.0}, \"33\": {\"I\": 1.0}, \"34\": {\"I\": 1.0}, \"35\": {\"Cs\": 1.0}, \"36\": {\"Pb\": 1.0}, \"37\": {\"I\": 1.0}, \"38\": {\"I\": 1.0}, \"39\": {\"I\": 1.0}}" candidate_id=b7dfd12bb2a80568 formula=MAPb0.83Sn0.17I3 config_index=1 rattle_stdev=0.08 method=PBE fidelity=phase2_force energy=-112.66828456221319 stress="-0.001136775600872015 3.008767031259179e-05 -3.3784768731325532e-06 3.008767031259179e-05 -0.0005080034412994298 -5.385768996060148e-05 -3.3784768731325532e-06 -5.385768996060148e-05 -0.001696224258197843" pbc="T T T"
Cs      12.67857199      12.69380249      -0.02338042        0      -0.03480433       0.01818361       0.04237493
Pb       3.08445811       3.09512596       3.14031466        1       0.24567020       0.25210447       0.22737761
I        3.29628846       3.33928964       0.06846557        2      -0.05174279      -0.02952358      -0.07240631
I        3.18978890      12.74064564       3.11832323        3       0.02021526       0.05610434      -0.00374833
I       12.67135135       3.18476133       3.28571989        4       0.52860315      -0.00645631       0.01721585
Cs      12.63468036      12.86374322       6.46829298        5       0.02091731       0.02211832      -0.04960273
Pb       3.22323464       3.16063674       9.62203056        6       0.07280274       0.04001258      -0.11115658
I        3.07698890       3.16576683       6.48140801        7       0.03313766       0.02195139      -0.19239592
I        3.13319340      12.87875366       9.65053073        8      -0.01745686      -0.48343852       0.01644849
I       12.74335463       3.17859574       9.49782984        9       0.11298437       0.00827303       0.02457437
Cs      12.73807591       6.38834147      -0.03884703       10      -0.01145637      -0.01897558       0.03051033
Pb       3.01470045       9.59974537       3.06448071       11       0.39922475      -0.25439968      -0.03719628
I        3.25000917       9.56632632      -0.04273325       12      -0.02599287       0.01845036      -0.07053317
I        3.05620829       6.36310816       3.06442307       13       0.00848610      -0.00434038       0.05907201
I       12.80217445       9.61291364       3.26476191       14      -0.31829582       0.00792253       0.02429114
Cs      12.84232532       6.39119255       6.51956056       15       0.00798359      -0.02514803      -0.02814999
Pb       3.25980422       9.51456760       9.39194808       16       0.21134754       0.08679754       0.27642392
I        3.20039190       9.53894577       6.34098735       17       0.00794506      -0.01386987      -0.08222604
I        3.21717151       6.34215336       9.65085174       18      -0.02311923       0.33768489      -0.03739640
I       12.76944556       9.58111062       9.57020639       19       0.37645754       0.00896001       0.02544001
Cs       6.37881805      12.72019577       0.02600396       20       0.02447774       0.01423030       0.03089610
Pb       9.63289513       3.23296881       3.27373526       21      -0.41426835      -0.18914557      -0.45790662
I        9.61657063       3.12206572       0.12932568       22       0.03888014       0.01734087      -0.42819657
I        9.66827619      12.72308714       3.13307183       23      -0.00712306       0.12037896       0.09383612
I        6.44701057       3.23237256       3.12464991       24      -0.34859666      -0.00644090       0.04951469
Cs       6.43624074      12.76649085       6.50694921       25      -0.00857506      -0.00344853      -0.02814021
Pb       9.65772605       3.21866822       9.47074959       26      -0.18049638       0.24132948       0.31227486
I        9.48547488       3.29641402       6.33256779       27      -0.02545809      -0.02527310       0.44853040
I        9.54350848      12.84076824       9.58093564       28       0.01878105      -0.12509755      -0.01772210
I        6.39259696       3.19596540       9.60843418       29      -0.00889589      -0.00264215      -0.00836580
Cs       6.28621074       6.29726582       0.02649348       30       0.01311025      -0.01224589       0.03492408
Sn       9.51252598       9.50646794       3.08606310       31      -0.10875887       0.24227927       0.26156894
I        9.61126095       9.65510041       0.19597602       32       0.00884980      -0.00202817      -0.50755372
I        9.55974379       6.46859171       3.04177947       33       0.02937219      -0.18237147       0.01224809
I        6.45684071       9.56475919       3.26382755       34      -0.00288934      -0.00001345      -0.00848346
Cs       6.27927937       6.37646509       6.39342607       35       0.00987110      -0.00434409      -0.01975923
Pb       9.78526290       9.71542073       9.36410660       36      -0.56573645      -0.27886971       0.43631765
I        9.47202686       9.56122065       6.44446466       37       0.05058179       0.03883276      -0.33738173
I        9.62365407       6.39510813       9.45764545       38       0.01452238       0.11392703       0.05295989
I        6.41734134       9.66633585       9.53409089       39      -0.10179552       0.00078241       0.02241074
40
Lattice="12.76661122917321 0.0 0.0 0.0 12.766611229173318 0.0 0.0 1.7790272358567805e-14 12.766611229173296" Properties=species:S:1:pos:R:3:spacegroup_kinds:I:1:forces:R:3 spacegroup="P 1" unit_cell=conventional occupancy="_JSON {\"0\": {\"Cs\": 1.0}, \"1\": {\"Pb\": 1.0}, \"2\": {\"I\": 1.0}, \"3\": {\"I\": 1.0}, \"4\": {\"I\": 1.0}, \"5\": {\"Cs\": 1.0}, \"6\": {\"Pb\": 1.0}, \"7\": {\"I\": 1.0}, \"8\": {\"I\": 1.0}, \"9\": {\"I\": 1.0}, \"10\": {\"Cs\": 1.0}, \"11\": {\"Pb\": 1.0}, \"12\": {\"I\": 1.0}, \"13\": {\"I\": 1.0}, \"14\": {\"I\": 1.0}, \"15\": {\"Cs\": 1.0}, \"16\": {\"Pb\": 1.0}, \"17\": {\"I\": 1.0}, \"18\": {\"I\": 1.0}, \"19\": {\"I\": 1.0}, \"20\": {\"Cs\": 1.0}, \"21\": {\"Pb\": 1.0}, \"22\": {\"I\": 1.0}, \"23\": {\"I\": 1.0}, \"24\": {\"I\": 1.0}, \"25\": {\"Cs\": 1.0}, \"26\": {\"Pb\": 1.0}, \"27\": {\"I\": 1.0}, \"28\": {\"I\": 1.0}, \"29\": {\"I\": 1.0}, \"30\": {\"Cs\": 1.0}, \"31\": {\"Sn\": 1.0}, \"32\": {\"I\": 1.0}, \"33\": {\"I\": 1.0}, \"34\": {\"I\": 1.0}, \"35\": {\"Cs\": 1.0}, \"36\": {\"Pb\": 1.0}, \"37\": {\"I\": 1.0}, \"38\": {\"I\": 1.0}, \"39\": {\"I\": 1.0}}" candidate_id=b7dfd12bb2a80568 formula=MAPb0.83Sn0.17I3 config_index=2 rattle_stdev=0.08 method=PBE fidelity=phase2_force energy=-112.58419595975842 stress="-0.0009137669938054802 2.1128042513984244e-05 5.868050281017716e-06 2.1128042513984244e-05 -0.0010257978641364982 -5.797895388495108e-05 5.868050281017716e-06 -5.797895388495108e-05 -0.00037436112429335943" pbc="T T T"
Cs      12.75647065      12.67936258       0.14392569        0       0.01310675      -0.01737604      -0.04418486
Pb       3.07509414       3.16554714       3.09086109        1       0.64635048       0.25035942       0.12954990
I        3.22172213       3.12140102      -0.02586168        2      -0.03233904       0.03329167      -0.05375094
I        3.21538562      12.85340371       3.06613319        3      -0.00860932      -0.52589025       0.02935457
I       12.90565306       3.23116975       3.18119589        4      -0.87222705       0.01945333      -0.02026507
Cs      12.73323804      12.68759472       6.34478474        5      -0.02416689      -0.02024497       0.04272083
Pb       3.13421909       3.28936427       9.51278242        6       0.34972733      -0.10999430      -0.00411238
I        3.14457076       3.18704330       6.38753563        7       0.01889518      -0.07923773      -0.08186228
I        3.09699672      12.64057546       9.64793892        8       0.00129453       0.51806918       0.00104777
I       12.79748851       3.13599129       9.39185667        9      -0.15520789       0.00952959       0.02724094
Cs      12.70250837       6.30214781       0.00858818       10       0.01659749       0.02983003      -0.01779752
Pb       3.14931727       9.63737801       3.17558763       11       0.18495427      -0.19448047       0.06156034
I        3.15320412       9.49213745      -0.03093828       12       0.01003130      -0.04393345       0.33354661
I        3.25484402       6.31858627       3.36845563       13      -0.01993812       0.42310694      -0.05038598
I       12.57171509       9.55583063       3.20904006       14       0.78011854      -0.01020307       0.02893032
Cs      12.73729687       6.39129919       6.39071424       15      -0.00930481       0.02086304       0.01329995
Pb       3.17589031       9.68271313       9.60257234       16      -0.02383161      -0.39394904      -0.10309035
I        3.23626436       9.52733561       6.43265172       17      -0.01569737       0.05343320      -0.29828714
I        3.29815302       6.32703936       9.53609796       18      -0.01448003       0.05815612       0.03111674
I       12.84348390       9.36732983       9.58831268       19      -0.10728260      -0.01015186      -0.00453786
Cs       6.46754592      12.62080179       0.06181481       20      -0.01485410       0.02426052      -0.01236045
Pb       9.53494940       3.00410935       3.18301939       21      -0.16523175       0.18071456       0.12696017
I        9.45473541       3.23075510      -0.03497381       22       0.06186537       0.03281670       0.13080689
I        9.65955902      12.61418855       3.18564552       23       0.01544372       0.43454365      -0.01057181
I        6.38401369       3.35955857       3.16440977       24       0.26999642      -0.09755252      -0.01136670
Cs       6.34219674      12.66191835       6.39931001       25       0.02905493      -0.00833425       0.01125127
Pb       9.66505999       3.22377567       9.63620525       26      -0.32240404      -0.05771546      -0.22269597
I        9.46670823       3.23756149       6.35641418       27       0.04525753      -0.05463638      -0.03691460
I        9.62657354      12.67695322       9.72693751       28       0.03148319       0.46237193       0.01534513
I        6.40279086       3.23165044       9.52483114       29       0.05534040      -0.05241030       0.00444112
Cs       6.30419841       6.32192433       0.01746575       30      -0.01324165      -0.03692297       0.01089891
Sn       9.61784578       9.48895862       3.01422443       31      -0.40738379      -0.18567075       0.54929815
I        9.62671284       9.54917156       0.06907211       32       0.00925018      -0.02573443      -0.29137623
I        9.39188468       6.45721935       3.26807791       33       0.07705268      -0.25805879      -0.05473269
I        6.50256192       9.73991262       3.19664964       34      -0.54563752       0.03057312      -0.04399062
Cs       6.38465654       6.34814484       6.41206068       35       0.01524832      -0.00863991      -0.01294498
Pb       9.50990914       9.56683382       9.61061548       36       0.26134620       0.09001931      -0.37970341
I        9.47294813       9.58358497       6.36860732       37       0.05660712       0.05728274       0.10629065
I        9.56241025       6.48769162       9.45717735       38       0.04937282      -0.56697205       0.04098468
I        6.46186935       9.50348726       9.53104077       39      -0.24835639       0.03056951       0.06194554
40
Lattice="12.76661122917321 0.0 0.0 0.0 12.766611229173318 0.0 0.0 1.7790272358567805e-14 12.766611229173296" Properties=species:S:1:pos:R:3:spacegroup_kinds:I:1:forces:R:3 spacegroup="P 1" unit_cell=conventional occupancy="_JSON {\"0\": {\"Cs\": 1.0}, \"1\": {\"Pb\": 1.0}, \"2\": {\"I\": 1.0}, \"3\": {\"I\": 1.0}, \"4\": {\"I\": 1.0}, \"5\": {\"Cs\": 1.0}, \"6\": {\"Pb\": 1.0}, \"7\": {\"I\": 1.0}, \"8\": {\"I\": 1.0}, \"9\": {\"I\": 1.0}, \"10\": {\"Cs\": 1.0}, \"11\": {\"Pb\": 1.0}, \"12\": {\"I\": 1.0}, \"13\": {\"I\": 1.0}, \"14\": {\"I\": 1.0}, \"15\": {\"Cs\": 1.0}, \"16\": {\"Pb\": 1.0}, \"17\": {\"I\": 1.0}, \"18\": {\"I\": 1.0}, \"19\": {\"I\": 1.0}, \"20\": {\"Cs\": 1.0}, \"21\": {\"Pb\": 1.0}, \"22\": {\"I\": 1.0}, \"23\": {\"I\": 1.0}, \"24\": {\"I\": 1.0}, \"25\": {\"Cs\": 1.0}, \"26\": {\"Pb\": 1.0}, \"27\": {\"I\": 1.0}, \"28\": {\"I\": 1.0}, \"29\": {\"I\": 1.0}, \"30\": {\"Cs\": 1.0}, \"31\": {\"Sn\": 1.0}, \"32\": {\"I\": 1.0}, \"33\": {\"I\": 1.0}, \"34\": {\"I\": 1.0}, \"35\": {\"Cs\": 1.0}, \"36\": {\"Pb\": 1.0}, \"37\": {\"I\": 1.0}, \"38\": {\"I\": 1.0}, \"39\": {\"I\": 1.0}}" candidate_id=b7dfd12bb2a80568 formula=MAPb0.83Sn0.17I3 config_index=3 rattle_stdev=0.08 method=PBE fidelity=phase2_force energy=-112.39414999636512 stress="-0.0012930602015260248 8.741539451502045e-05 2.0514897869563394e-05 8.741539451502045e-05 -0.000844397903979137 4.5555804744228165e-05 2.0514897869563394e-05 4.5555804744228165e-05 -0.0003517138531933168" pbc="T T T"
Cs      12.65980422      12.92682793       0.00492869        0       0.00794527       0.04342559       0.03019565
Pb       3.17263911       3.19838262       3.26841619        1      -0.25379911      -0.24289236      -0.61400548
I        3.13712493       3.23397844      -0.05985708        2       0.02596961      -0.00430112      -0.07923421
I        3.30404930      12.73935632       3.08718195        3       0.02311624      -0.14365803       0.00274308
I       12.70304794       3.06197814       3.08925492        4       0.14721814       0.04416633       0.03018785
Cs      12.74754396      12.69744281       6.32172287        5      -0.03900558       0.01195925      -0.02515127
Pb       3.21270647       2.98723736       9.44133575        6      -0.01697757       0.42941677       0.41546116
I        3.13471399       2.99591076       6.27903445        7      -0.03321582      -0.02370143       0.37271426
I        3.24474261      12.66216813       9.51172564        8      -0.02375026       0.44465390       0.01321751
I       12.64428519       3.09648961       9.75629363        9       0.43942237       0.02236735      -0.01749879
Cs      12.72734547       6.45616227      -0.14327153       10       0.00441544      -0.05325809      -0.00853826
Pb       3.15235564       9.47899870       3.12723518       11      -0.04856480       0.27025475       0.02048435
I        3.30411830       9.55653317      -0.04781525       12      -0.02888832      -0.04498669       0.41611615
I        3.17864580       6.33827569       3.31278222       13      -0.01766433       0.17063679       0.01738495
I       12.54392815       9.62764079       3.16412351       14       1.26568832      -0.08012839       0.01401745
Cs      12.70479185       6.39819125       6.32959880       15      -0.03999413       0.00045081      -0.00218619
Pb       3.23586844       9.60556708       9.54525519       16      -0.15550880      -0.53870069       0.05494036
I        3.31790432       9.59230222       6.47095248       17      -0.00523407       0.01193554      -0.51671831
I        3.25017125       6.43936168       9.52853393       18      -0.02012433      -0.30436874      -0.03476832
I       12.74938359       9.44816923       9.56898111       19      -0.08940824       0.00710130       0.01190412
Cs       6.48033386      12.74425388      -0.05102044       20      -0.01380400       0.01400977       0.01174888
Pb       9.42323549       3.06842889       3.16022695       21       0.35594027       0.18824805       0.02622448
I        9.54179996       3.24853823       0.06068250       22      -0.05282375      -0.02177544      -0.18696189
I        9.76674533      12.67015140       3.11058211       23      -0.10107758       0.08477160       0.01316520
I        6.35710159       3.25933098       3.23120153       24      -0.16571027      -0.01666248       0.02277594
Cs       6.40672021      12.80725497       6.40759142       25       0.02171942      -0.02361471      -0.00277122
Pb       9.59312933       3.16042557       9.51751701       26      -0.13528591      -0.02173315       0.02191725
I        9.69848732       3.12261720       6.34531894       27      -0.00103050       0.00376259       0.12068679
I        9.58166257      12.89166852       9.48061144       28      -0.02935859      -0.83296514       0.05877599
I        6.35354382       3.15778166       9.61970537       29      -0.19281657      -0.03541406      -0.04633604
Cs       6.33824957       6.39012894       0.07049994       30       0.00481409      -0.02444586      -0.02474515
Sn       9.60815114       9.55685964       3.25210026       31      -0.12349346      -0.21220954       0.17698385
I        9.59296881       9.53977818       0.13520359       32       0.02382438      -0.01711733      -0.29310734
I        9.50326856       6.35222697       3.33105154       33       0.06340119      -0.01918711      -0.00123537
I        6.69972891       9.52106040       3.12997087       34      -1.14068389       0.02964710      -0.00071418
Cs       6.46886853       6.47608619       6.39183193       35       0.02661138       0.02039348       0.01085044
Pb       9.57595789       9.51899670       9.72506235       36       0.04385262       0.00345433      -0.16245428
I        9.53890575       9.55045968       6.41344772       37       0.00802496       0.00976339       0.13238578
I        9.52267114       6.21126076       9.62338658       38      -0.00905772       0.82157421       0.00484547
I        6.35064064       9.59155760       9.66267059       39       0.25226195       0.01259405       0.01428533
