40
Lattice="12.488165936306055 0.0 0.0 0.0 12.47489294672576 0.0 0.0 -1.8645829478901273e-14 12.488165936306055" Properties=species:S:1:pos:R:3:spacegroup_kinds:I:1:forces:R:3 spacegroup="P 1" unit_cell=conventional candidate_id=f58e77497842e136 formula=MAGe0.42Pb0.58I3 config_index=0 rattle_stdev=0.0 method=PBE fidelity=phase2_force energy=-112.35829605846052 stress="-0.0005962578452592912 6.79368027869499e-11 2.8975137595678615e-10 6.79368027869499e-11 -0.0014368995713332528 -6.793680493235575e-11 2.8975137595678615e-10 -6.793680493235575e-11 -0.0005962578452592912" pbc="T T T"
Cs      12.45306642      12.43570911       0.03509951        0      -0.00477754      -0.00500361       0.00477754
Pb       3.12204148       3.11872324       3.12204148        1       0.00001161       0.00021221       0.00024805
I        3.12204148       3.11872324       0.00487663        2      -0.00000103      -0.00000127      -0.01386914
I        3.12204148      12.45911032       3.12204148        3      -0.00000078       0.06440872      -0.00000145
I       12.32039916       3.11872324       3.12204148        4       0.25815452      -0.00000260      -0.00000345
Cs      12.45306642      12.43570911       6.20898346        5      -0.00477624      -0.00500303      -0.00477231
Pb       3.12204148       3.11872324       9.36612445        6       0.00023649       0.00000843      -0.00023649
I        3.12204148       3.11872324       6.23920634        7       0.00000092       0.00000048       0.01387392
I        3.12204148      12.30601158       9.36612445        8      -0.00000331       0.30280072       0.00000331
I       12.48328931       3.11872324       9.36612445        9       0.01386914      -0.00000127       0.00000103
Cs      12.45306642       6.27663031       0.03509951       10      -0.00477743       0.00499825       0.00477743
Pb       3.12204148       9.35616971       3.12204148       11       0.00003622      -0.00025773       0.00004002
I        3.12204148       9.35616971      12.34462346       12      -0.00000282       0.00000395       0.24198352
I        3.12204148       6.25322910       3.12204148       13       0.00000056      -0.06442520       0.00000023
I       12.33851087       9.35616971       3.12204148       14       0.18848736       0.00000299      -0.00000302
Cs      12.45306642       6.27663031       6.20898346       15      -0.00477528       0.00499719      -0.00477187
Ge       3.12204148       9.35616971       9.36612445       16      -0.00001120       0.00001482       0.00001120
I        3.12204148       9.35616971       6.38762544       17      -0.00000185       0.00000204      -0.24201320
I        3.12204148       6.40632784       9.36612445       18      -0.00000146      -0.30284571       0.00000146
I        0.14354247       9.35616971       9.36612445       19      -0.24198352       0.00000395       0.00000282
Cs       6.27918248      12.43570911       0.03509951       20       0.00477231      -0.00500303       0.00477624
Ge       9.36612445       3.11872324       3.12204148       21       0.00001533      -0.00000521      -0.00001533
I        9.36612445       3.11872324       0.16776677       22       0.00000345      -0.00000260      -0.25815452
I        9.36612445      12.46933796       3.12204148       23       0.00000443      -0.01699113      -0.00000443
I        6.41184974       3.11872324       3.12204148       24      -0.25820072      -0.00000114      -0.00000141
Cs       6.27918248      12.43570911       6.20898346       25       0.00477066      -0.00499990      -0.00477066
Pb       9.36612445       3.11872324       9.36612445       26      -0.00024805       0.00021221      -0.00001161
I        9.36612445       3.11872324       6.07631619       27       0.00000141      -0.00000114       0.25820072
I        9.36612445      12.45911032       9.36612445       28       0.00000145       0.06440872       0.00000078
I        6.24895959       3.11872324       9.36612445       29      -0.01387392       0.00000048      -0.00000092
Cs       6.27918248       6.27663031       0.03509951       30       0.00477187       0.00499719       0.00477528
Ge       9.36612445       9.35616971       3.12204148       31       0.00001336       0.00000488      -0.00001336
I        9.36612445       9.35616971       0.14965507       32       0.00000302       0.00000299      -0.18848736
I        9.36612445       6.24300146       3.12204148       33       0.00000308       0.01699074      -0.00000308
I        6.39373804       9.35616971       3.12204148       34      -0.18852362       0.00000163      -0.00000228
Cs       6.27918248       6.27663031       6.20898346       35       0.00476991       0.00499458      -0.00476991
Pb       9.36612445       9.35616971       9.36612445       36      -0.00004002      -0.00025773      -0.00003622
I        9.36612445       9.35616971       6.09442790       37       0.00000228       0.00000163       0.18852362
I        9.36612445       6.25322910       9.36612445       38      -0.00000023      -0.06442520      -0.00000056
I        6.10054049       9.35616971       9.36612445       39       0.24201320       0.00000204       0.00000185
40
Lattice="12.488165936306055 0.0 0.0 0.0 12.47489294672576 0.0 0.0 -1.8645829478901273e-14 12.488165936306055" Properties=species:S:1:pos:R:3:spacegroup_kinds:I:1:forces:R:3 spacegroup="P 1" unit_cell=conventional candidate_id=f58e77497842e136 formula=MAGe0.42Pb0.58I3 config_index=1 rattle_stdev=0.08 method=PBE fidelity=phase2_force energy=-111.98101205296787 stress="-0.0022848024386186165 1.725401871358307e-05 1.2464508079824337e-05 1.725401871358307e-05 -0.00214883187072806 -4.8880943307866165e-05 1.2464508079824337e-05 -4.8880943307866165e-05 -0.0028272171592167205" pbc="T T T"
Cs      12.36615071      12.36402390       0.01059556        0      -0.00475457       0.03227538       0.03649936
Pb       3.01484679       3.02219639       3.07070334        1       0.13770625       0.32210755       0.37165669
I        3.22667713       3.26636007       0.07120582        2      -0.03337211      -0.01263158      -0.14335786
I        3.12017758      12.44242520       3.04871190        3       0.04500158       0.07118423       0.01068922
I       12.23441976       3.11183176       3.21610857        4       0.76921066       0.01134859       0.02591156
Cs      12.32225909      12.53396463       6.29509436        5       0.03369337       0.01569937      -0.06110646
Pb       3.15362331       3.08770717       9.41319659        6       0.04623324      -0.11542942      -0.09952104
I        3.00737758       3.09283726       6.33944512        7       0.03361233       0.02754494      -0.27933073
I        3.06358208      12.42029038       9.44169676        8      -0.01006396      -0.03326908      -0.00876902
I       12.46216909       3.10566617       9.28899587        9       0.21203837       0.00704590       0.04066615
Cs      12.42565464       6.28054264      -0.00487105       10      -0.01133089      -0.01757449       0.02806238
Pb       2.94508912       9.38095666       2.99486938       11       0.36685951      -0.33326149      -0.18741945
I        3.18039785       9.34753761      12.29260974       12      -0.03935994       0.02561682       0.34357659
I        2.98659696       6.22375118       2.99481175       13       0.01857665      -0.02774439       0.07965215
I       12.45695134       9.39412493       3.19515059       14      -0.32154302       0.00706728       0.04838999
Cs      12.52990404       6.28339372       6.34636193       15       0.00343174      -0.02191148      -0.04167266
Ge       3.19019290       9.29577889       9.18311411       16       0.26844724       0.03820138       0.19784038
I        3.13078058       9.32015706       6.35458765       17       0.00922264      -0.00197753      -0.21005013
I        3.14756018       6.36303921       9.44201777       18      -0.01292516       0.07862605      -0.06709907
I        0.15565728       9.36232190       9.36137242       19      -0.10068033       0.01767429       0.00729871
Cs       6.27357138      12.39041718       0.05997994       20       0.01558676       0.02493861       0.02720383
Ge       9.42406116       3.16003924       3.20412394       21      -0.38345934      -0.19095194      -0.49677584
I        9.40773666       3.04913615       0.28781198       22       0.04816135       0.02587932      -0.60999214
I        9.45944222      12.50869112       3.06346051       23      -0.03687771      -0.06451052       0.13634570
I        6.46627423       3.15944298       3.05503859       24      -0.55487943      -0.02090945       0.05915535
Cs       6.33099407      12.43671226       6.33375058       25      -0.02618109       0.01159786      -0.04558032
Pb       9.44889208       3.14573865       9.26191562       26      -0.26900329       0.29272080       0.15325959
I        9.27664091       3.22348445       6.03485884       27      -0.01828112      -0.02662642       0.72563225
I        9.33467451      12.54254780       9.37210167       28      -0.02000973      -0.12423832       0.02406024
I        6.25611456       3.12303583       9.39960021       29       0.01494627       0.00307485       0.00001531
Cs       6.18096408       6.18946699       0.06046946       30       0.02881594       0.00062791       0.02701362
Ge       9.30369201       9.28767923       3.01645177       31      -0.22049104       0.02087104       0.02166378
I        9.40242698       9.43631170       0.26275384       32      -0.01428031      -0.02924801      -0.29314684
I        9.35090982       6.24541031       2.97216815       33       0.03796343       0.21676254       0.05558721
I        6.38439588       9.34597048       3.19421623       34       0.14332459       0.00298830      -0.01252782
Cs       6.17403270       6.26866626       6.22022744       35       0.01358875      -0.01349887      -0.02022545
Pb       9.57642893       9.49663202       9.15527263       36      -0.23783302      -0.41501762       0.39619403
I        9.26319289       9.34243193       6.23846420       37       0.05292010       0.03984440      -0.31116648
I        9.41482010       6.25575115       9.24881148       38      -0.01238496       0.17415798       0.07143842
I        6.12529575       9.44754714       9.32525692       39       0.02701417      -0.01941030       0.00170626
40
Lattice="12.488165936306055 0.0 0.0 0.0 12.47489294672576 0.0 0.0 -1.8645829478901273e-14 12.488165936306055" Properties=species:S:1:pos:R:3:spacegroup_kinds:I:1:forces:R:3 spacegroup="P 1" unit_cell=conventional candidate_id=f58e77497842e136 formula=MAGe0.42Pb0.58I3 config_index=2 rattle_stdev=0.08 method=PBE fidelity=phase2_force energy=-111.95499313507128 stress="-0.001598237677131079 -6.0354289754372465e-06 -4.610589952537043e-05 -6.0354289754372465e-06 -0.002888903629984661 -6.133112631818094e-05 -4.610589952537043e-05 -6.133112631818094e-05 -0.0015244046936437785" pbc="T T T"
Cs      12.44404938      12.34958399       0.17790167        0       0.00902926       0.00774519      -0.05572555
Pb       3.00548282       3.09261757       3.02124977        1       0.25755075       0.32677331       0.21401556
I        3.15211080       3.04847145      -0.02312144        2      -0.01422902       0.01743092      -0.10683839
I        3.14577430      12.55518327       2.99652186        3       0.01554148      -0.63196668       0.03961127
I       12.46872146       3.15824018       3.11158457        4      -0.36659362       0.01054361      -0.02991321
Cs      12.42081676      12.35781613       6.17158611        5      -0.02256405      -0.01008309       0.04260780
Pb       3.06460777       3.21643470       9.30394845        6       0.45355392       0.21437712       0.04475999
I        3.07495943       3.11411373       6.24557273        7       0.03321583      -0.10169267      -0.15728080
I        3.02738540      12.18211218       9.43910495        8       0.01045296       0.66838012      -0.00708774
I       12.51630297       3.06306172       9.18302270        9      -0.17860882      -0.01755679       0.00408924
Cs      12.39008710       6.19434898       0.04256416       10       0.02223446       0.01557521      -0.00707826
Pb       3.07970595       9.41858930       3.10597631       11       0.19689565      -0.25954292       0.02333062
I        3.08359280       9.27334874      12.30440471       12       0.03094374      -0.04020500       0.60994040
I        3.18523270       6.17922929       3.29884431       13       0.00381626       0.51365229      -0.03906180
I       12.22649197       9.33704192       3.13942874       14       0.66084762      -0.02522264       0.02914570
Cs      12.42487560       6.28350036       6.21751561       15      -0.00394198       0.01185547       0.00667801
Ge       3.10627899       9.46392442       9.39373837       16      -0.12367174      -0.32521175      -0.09610113
I        3.16665304       9.30854690       6.44625202       17      -0.02311024       0.07139426      -0.55586844
I        3.22854170       6.34792521       9.32726399       18      -0.01462989      -0.48019440       0.03257246
I        0.22969561       9.14854112       9.37947871       19      -0.28548539       0.02062626      -0.01199320
Cs       6.36229925      12.29102320       0.09579079       20      -0.01974277       0.04205105      -0.03130807
Ge       9.32611543       2.93117978       3.11340807       21      -0.26661309      -0.00901297       0.15816216
I        9.24590144       3.15782553       0.12351249       22       0.09799924       0.01611986      -0.17682298
I        9.45072505      12.39979253       3.11603420       23      -0.01689275       0.35510418      -0.01453351
I        6.40327734       3.28662900       3.09479845       24       0.14043501      -0.17170876      -0.00616298
Cs       6.23695007      12.33213976       6.22611138       25       0.02722271       0.00452533       0.02450240
Pb       9.45622602       3.15084610       9.42737128       26      -0.41043264      -0.07716120      -0.04775743
I        9.25787426       3.16463192       6.05870522       27       0.07298956      -0.08424635       0.10447895
I        9.41773957      12.37873277       9.51810354       28       0.04339785       0.63053378       0.01784322
I        6.26630846       3.15872087       9.31599717       29       0.06594344      -0.06623547      -0.00682975
Cs       6.19895174       6.21412550       0.05144173       30      -0.01507951      -0.01675664      -0.00652780
Ge       9.40901181       9.27016991       2.94461310       31      -0.34123100      -0.33154567       0.40411830
I        9.41787887       9.33038285       0.13584993       32       0.00538369      -0.03988827      -0.10206768
I        9.18305071       6.23403796       3.19846659       33       0.14161550       0.27434955      -0.10120854
I        6.43011709       9.52112391       3.12703832       34      -0.52993450      -0.00096286      -0.04813503
Cs       6.27940987       6.24034601       6.23886206       35      -0.00227685       0.00355242       0.00408209
Pb       9.30107517       9.34804511       9.40178151       36       0.03320676       0.12100551      -0.41370586
I        9.26411416       9.36479626       6.16260685       37       0.06868882       0.05620202       0.15396292
I        9.35357628       6.34833464       9.24834338       38       0.06049770      -0.74712906       0.02570085
I        6.16982376       9.28469855       9.32220680       39       0.17839228       0.05825648       0.08089585
40
Lattice="12.488165936306055 0.0 0.0 0.0 12.47489294672576 0.0 0.0 -1.8645829478901273e-14 12.488165936306055" Properties=species:S:1:pos:R:3:spacegroup_kinds:I:1:forces:R:3 spacegroup="P 1" unit_cell=conventional candidate_id=f58e77497842e136 formula=MAGe0.42Pb0.58I3 config_index=3 rattle_stdev=0.08 method=PBE fidelity=phase2_force energy=-111.4994838198303 stress="-0.002468013944325056 7.696902286595344e-05 1.8703934481719518e-05 7.696902286595344e-05 -0.0031618027970985213 -1.7650799231885042e-05 1.8703934481719518e-05 -1.7650799231885042e-05 -0.0017757576818633522" pbc="T T T"
Cs      12.34738294      12.59704934       0.03890467        0       0.03447478       0.02498980       0.02263447
Pb       3.10302779       3.12545305       3.19880486        1      -0.24808924      -0.31487208      -0.83199711
I        3.06751360       3.16104887      -0.05711683        2       0.02163084       0.01335257      -0.07249622
I        3.23443798      12.44113588       3.01757063        3       0.03390668      -0.15712560      -0.00425425
I       12.26611635       2.98904857       3.01964360        4       0.45808264       0.07630763       0.03908217
Cs      12.43512269      12.36766422       6.14852425        5      -0.03458598       0.01146674      -0.01647907
Pb       3.14309515       2.91430779       9.23250178        6      -0.07482690       0.20661595       0.49832080
I        3.06510267       2.92298119       6.13707156        7      -0.03977097      -0.03493436       0.49272505
I        3.17513129      12.20370486       9.30289168        8      -0.05797433       0.86765790       0.03249536
I       12.36309964       3.02356004       9.54745966        9       0.60693975       0.03550115       0.01096643
Cs      12.41492420       6.34836343      -0.10929555       10       0.02469284      -0.06648251       0.00578699
Pb       3.08274431       9.26020998       3.05762386       11      -0.05104458       0.38304261      -0.08355415
I        3.23450697       9.33774446      12.28752774       12      -0.06490573      -0.03297273       0.74788481
I        3.10903448       6.19891871       3.24317090       13       0.00082906       0.16137732       0.03428970
I       12.19870504       9.40885208       3.09451218       14       1.22431713      -0.08133569       0.03422076
Cs      12.39237057       6.29039242       6.15640018       15      -0.04077067      -0.00397889       0.00771589
Ge       3.16625712       9.38677837       9.33642122       16      -0.08136816      -0.58055017      -0.00743641
I        3.24829300       9.37351351       6.48455277       17      -0.01962231       0.00428908      -0.71207637
I        3.18055993       6.46024753       9.31969996       18      -0.01455197      -0.52490805      -0.02206410
I        0.13559531       9.22938052       9.36014714       19      -0.38817369       0.03889009       0.00446595
Cs       6.37508719      12.41447529      -0.01704446       20      -0.02897479       0.01770496       0.01826192
Ge       9.21440152       2.99549932       3.09061563       21       0.36922745       0.13351015       0.00246560
I        9.33296599       3.17560866       0.21916881       22      -0.07875773      -0.02211078      -0.36563405
I        9.55791136      12.45575537       3.04097079       23      -0.18732554      -0.12249197       0.04411360
I        6.37636525       3.18640141       3.16159021       24      -0.37754125      -0.05955687       0.03222752
Cs       6.30147354      12.47747638       6.23439279       25       0.02764724      -0.03362058      -0.01030850
Pb       9.38429536       3.08749600       9.30868304       26      -0.23372935      -0.02556265      -0.11747509
I        9.48965335       3.04968763       6.04760999       27      -0.02901904      -0.01764734       0.42282710
I        9.37282860      12.59344808       9.27177747       28      -0.03559071      -1.07298194       0.04546499
I        6.21706142       3.08485209       9.41087140       29      -0.19484241      -0.01488838      -0.02785149
Cs       6.23300290       6.28233010       0.10447592       30       0.00252147      -0.03154134      -0.03538657
Ge       9.39931717       9.33807093       3.18248893       31      -0.17114766      -0.11178944       0.15476165
I        9.38413484       9.32098947       0.20198141       32       0.02795557      -0.01572899      -0.27331390
I        9.29443459       6.12904557       3.26144021       33       0.08551298       0.19216438      -0.02805286
I        6.62728409       9.30227169       3.06035954       34      -1.08894725       0.04452432       0.03474640
Cs       6.36362186       6.36828735       6.21863330       35       0.01512838       0.00966381       0.01977477
Pb       9.36712393       9.30020799       9.51622838       36       0.09314377       0.04760518      -0.17056968
I        9.33007178       9.33167097       6.20744725       37       0.01953909       0.02208291       0.07212186
I        9.31383717       6.07190378       9.41455261       38      -0.01984608       1.02449129       0.01274875
I        6.05859505       9.37276889       9.45383662       39       0.51395607       0.00569735      -0.01146722
