40
Lattice="11.238601830458029 0.0 0.0 0.0 11.238601830457911 0.0 0.0 2.8138345824819592e-14 11.238601830457965" Properties=species:S:1:pos:R:3:spacegroup_kinds:I:1:forces:R:3 spacegroup="P 1" unit_cell=conventional candidate_id=206f938d1e8e4668 formula=FA0.88Rb0.12SnCl3 config_index=0 rattle_stdev=0.0 method=PBE fidelity=phase2_force energy=-139.5580453575253 stress="0.0016773855118406799 0.0 0.0 0.0 0.0016773855118407156 -4.199708676020553e-18 0.0 -4.199708676020553e-18 0.001677385511841417" pbc="T T T"
Cs       0.00000000      11.23860183       0.00000000        0       0.00000000      -0.00000000       0.00000000
Sn       2.81525420       2.81525420       2.80404672        1       0.00955907       0.00955907      -0.00955907
Cl       2.84162423       2.84162423      11.23860183        2      -0.00281341      -0.00281341       0.00000000
Cl       2.82461574      11.23860183       2.79468518        3       0.00892317      -0.00000000      -0.00892317
Cl      11.23860183       2.82461574       2.79468518        4      -0.00000000       0.00892317      -0.00892317
Cs       0.00000000      11.23860183       5.61930092        5       0.00000000      -0.00000000       0.00000000
Sn       2.81525420       2.81525420       8.43455511        6       0.00955907       0.00955907       0.00955907
Cl       2.82461574       2.82461574       5.61930092        7       0.00892317       0.00892317       0.00000000
Cl       2.82461574       0.00000000       8.44391665        8       0.00892317       0.00000000       0.00892317
Cl      11.23860183       2.82461574       8.44391665        9       0.00000000       0.00892317       0.00892317
Cs       0.00000000       5.61930092       0.00000000       10      -0.00000000       0.00000000       0.00000000
Sn       2.81525420       8.42334763       2.80404672       11       0.00955907      -0.00955907      -0.00955907
Cl       2.84162423       8.39697760      11.23860183       12      -0.00281341       0.00281341       0.00000000
Cl       2.84162423       5.61930092       2.77767668       13      -0.00281341       0.00000000       0.00281341
Cl      11.23860183       8.41398609       2.79468518       14       0.00000000      -0.00892317      -0.00892317
Cs       0.00000000       5.61930092       5.61930092       15       0.00000000       0.00000000       0.00000000
Sn       2.81525420       8.42334763       8.43455511       16       0.00955907      -0.00955907       0.00955907
Cl       2.82461574       8.41398609       5.61930092       17       0.00892317      -0.00892317       0.00000000
Cl       2.84162423       5.61930092       8.46092515       18      -0.00281341      -0.00000000      -0.00281341
Cl      11.23860183       8.41398609       8.44391665       19       0.00000000      -0.00892317       0.00892317
Cs       5.61930092      11.23860183       0.00000000       20       0.00000000      -0.00000000       0.00000000
Sn       8.42334763       2.81525420       2.80404672       21      -0.00955907       0.00955907      -0.00955907
Cl       8.39697760       2.84162423      11.23860183       22       0.00281341      -0.00281341       0.00000000
Cl       8.41398609      11.23860183       2.79468518       23      -0.00892317      -0.00000000      -0.00892317
Cl       5.61930092       2.84162423       2.77767668       24       0.00000000      -0.00281341       0.00281341
Cs       5.61930092      11.23860183       5.61930092       25      -0.00000000       0.00000000       0.00000000
Sn       8.42334763       2.81525420       8.43455511       26      -0.00955907       0.00955907       0.00955907
Cl       8.41398609       2.82461574       5.61930092       27      -0.00892317       0.00892317       0.00000000
Cl       8.41398609       0.00000000       8.44391665       28      -0.00892317       0.00000000       0.00892317
Cl       5.61930092       2.84162423       8.46092515       29       0.00000000      -0.00281341      -0.00281341
Rb       5.61930092       5.61930092       0.00000000       30      -0.00000000       0.00000000       0.00000000
Sn       8.42334763       8.42334763       2.80404672       31      -0.00955907      -0.00955907      -0.00955907
Cl       8.39697760       8.39697760      11.23860183       32       0.00281341       0.00281341       0.00000000
Cl       8.39697760       5.61930092       2.77767668       33       0.00281341       0.00000000       0.00281341
Cl       5.61930092       8.39697760       2.77767668       34       0.00000000       0.00281341       0.00281341
Cs       5.61930092       5.61930092       5.61930092       35       0.00000000       0.00000000       0.00000000
Sn       8.42334763       8.42334763       8.43455511       36      -0.00955907      -0.00955907       0.00955907
Cl       8.41398609       8.41398609       5.61930092       37      -0.00892317      -0.00892317       0.00000000
Cl       8.39697760       5.61930092       8.46092515       38       0.00281341      -0.00000000      -0.00281341
Cl       5.61930092       8.39697760       8.46092515       39       0.00000000       0.00281341      -0.00281341
40
Lattice="11.238601830458029 0.0 0.0 0.0 11.238601830457911 0.0 0.0 2.8138345824819592e-14 11.238601830457965" Properties=species:S:1:pos:R:3:spacegroup_kinds:I:1:forces:R:3 spacegroup="P 1" unit_cell=conventional candidate_id=206f938d1e8e4668 formula=FA0.88Rb0.12SnCl3 config_index=1 rattle_stdev=0.08 method=PBE fidelity=phase2_force energy=-138.92663330558446 stress="-0.0008079378977838296 0.00011097987034523906 5.9340606891638646e-05 0.00011097987034523906 0.0002737141502648334 -0.0001628588264804055 5.9340606891638646e-05 -0.0001628588264804055 -0.0013231896591426725" pbc="T T T"
Cs      -0.08691571      11.16691662      -0.02450395        0      -0.03842910       0.06016849       0.03626675
Sn       2.70805950       2.71872735       2.75270857        1       0.41800480       0.41481362       0.15933011
Cl       2.94625988       2.98926107      11.30493103        2      -0.12418333      -0.12391416       0.07482070
Cl       2.82275183      11.22191671       2.72135560        3      -0.07782180       0.03863771      -0.04288051
Cl      11.15262242       2.81772426       2.88875226        4       0.51724625      -0.02093260      -0.01094935
Cs      -0.13080734      11.33685735       5.70541182        5       0.09355337       0.04564057      -0.09143074
Sn       2.84683603       2.78423813       8.48162725        6       0.12603084       0.01093850      -0.16922930
Cl       2.70995183       2.79872977       5.71953969        7       0.04820050      -0.00204807      -0.09048631
Cl       2.76615633       0.11427881       8.51948897        8      -0.00554102      -0.41963350      -0.04053155
Cl      11.21748161       2.81155868       8.36678807        9       0.03620626      -0.00529269      -0.00359856
Cs      -0.02741179       5.62321324      -0.03997056       10      -0.01378624      -0.04723061       0.02074385
Sn       2.63830184       8.44813458       2.67687462       11       0.88543540      -0.33083373      -0.08418055
Cl       2.89998060       8.38834550      11.18658811       12      -0.12446787       0.03427524       0.01777210
Cl       2.70617971       5.58982299       2.65044694       13      -0.06178158       0.01283101       0.08612901
Cl      11.35704230       8.45194131       2.86779428       14      -0.71133701       0.01346920      -0.01133097
Cs       0.07683762       5.62606432       5.75667939       15       0.02480916      -0.06299613      -0.06617636
Sn       2.88340561       8.36295681       8.25154477       16       0.34073298       0.09249926       0.44699061
Cl       2.83335484       8.37797344       5.58626312       17      -0.03673982      -0.02834053      -0.01290180
Cl       2.86714293       5.57601228       8.53681847       18      -0.02561280       0.45606971      -0.13779780
Cl      11.25071663       8.42013829       8.43916462       19       0.28180976       0.02266698      -0.12854906
Cs       5.61368982      11.19330991       0.02488043       20       0.04112735       0.03370964       0.03045174
Sn       8.48128434       2.85657020       2.88612917       21      -0.55950126      -0.26400132      -0.71357169
Cl       8.43858980       2.77203715      11.35864704       22       0.11402460       0.02897335      -0.33613646
Cl       8.50730386      11.27795499       2.73610420       23      -0.00511248      -0.12823133       0.11887086
Cl       5.67372540       2.88234398       2.71067378       24      -0.34314966      -0.03596062       0.09639772
Cs       5.67111250      11.23960499       5.74406804       25      -0.05999369       0.02072944      -0.07502461
Sn       8.50611526       2.84226961       8.33034628       26      -0.29528052       0.34108604       0.44923541
Cl       8.32450255       2.92937695       5.57784356       27       0.03894328      -0.06315199       0.54044355
Cl       8.38253615       0.08343748       8.44989387       28       0.11282440      -0.16438533      -0.16668701
Cl       5.62645588       2.84593682       8.49440091       29      -0.06433614      -0.03144964      -0.07482301
Rb       5.52108251       5.53213759       0.02536995       30       0.00076811      -0.03619201       0.04318925
Sn       8.36091519       8.35485715       2.69845701       31      -0.29053053       0.23545250       0.05862709
Cl       8.43328013       8.47711958      11.35170060       32       0.02018927      -0.02285609      -0.04288251
Cl       8.38176296       5.62170976       2.62780334       33       0.04217286       0.18242218       0.00309114
Cl       5.60995876       8.38677837       2.84985142       34       0.40050631      -0.00188717      -0.04920169
Cs       5.51415114       5.61133686       5.63054490       35       0.01247791      -0.02991556      -0.04395650
Sn       8.63365211       8.56380994       8.22370329       36      -0.74259562      -0.42040852       0.96722678
Cl       8.31105453       8.40024832       5.76333721       37       0.10752135       0.06585747      -0.64971055
Cl       8.44567325       5.62182296       8.34361218       38       0.09941623       0.13302260      -0.01622535
Cl       5.64405618       8.48835502       8.42005762       39      -0.17864331      -0.00470617      -0.08470034
40
Lattice="11.238601830458029 0.0 0.0 0.0 11.238601830457911 0.0 0.0 2.8138345824819592e-14 11.238601830457965" Properties=species:S:1:pos:R:3:spacegroup_kinds:I:1:forces:R:3 spacegroup="P 1" unit_cell=conventional candidate_id=206f938d1e8e4668 formula=FA0.88Rb0.12SnCl3 config_index=2 rattle_stdev=0.08 method=PBE fidelity=phase2_force energy=-138.90780533875017 stress="3.172503972826403e-05 3.0499544806625603e-06 3.117052132803091e-05 3.0499544806625603e-06 -0.00011078889287269811 4.498442392069084e-06 3.117052132803091e-05 4.498442392069084e-06 0.00043074339031921703" pbc="T T T"
Cs      -0.00901704      11.15247671       0.14280215        0       0.03960202       0.00073675      -0.13410200
Sn       2.69869553       2.78914853       2.70325500        1       0.84326334       0.36592960       0.21770562
Cl       2.87169355       2.77137244      11.21060377        2      -0.14215810       0.08200865       0.02331205
Cl       2.84834856      11.33467478       2.66916556        3      -0.07942075      -0.64390428       0.03830011
Cl      11.38692413       2.86413268       2.78422826        4      -0.84568331      -0.02624043      -0.07207987
Cs      -0.03224966      11.16070885       5.58190357        5      -0.02248266      -0.00950912       0.09630206
Sn       2.75782048       2.91296566       8.37237911        6       0.50287525      -0.06375204      -0.09600305
Cl       2.77753369       2.82000623       5.62566731        7      -0.03818713      -0.08578361       0.01045360
Cl       2.72995965      -0.12389940       8.51689715        8      -0.02852266       0.33236739      -0.01782011
Cl      11.27161549       2.76895422       8.26081490        9      -0.14052029       0.07425142       0.08665455
Cs      -0.06297932       5.53701958       0.00746465       10       0.04529596       0.04527503      -0.03902509
Sn       2.77291866       8.48576722       2.78798154       11       0.35247633      -0.33036437       0.11056665
Cl       2.80317555       8.31415663      11.19838308       12      -0.00929823       0.01514738       0.45649287
Cl       2.90481545       5.54530111       2.95447951       13      -0.12604214       0.53680837      -0.14179495
Cl      11.12658294       8.39485830       2.81207243       14       0.54966264       0.00247777      -0.03150706
Cs      -0.02819082       5.62617096       5.62783307       15      -0.00499284       0.02208844       0.01456259
Sn       2.79949170       8.53110234       8.46216903       16      -0.10321515      -0.46201073      -0.16179313
Cl       2.86922729       8.36636328       5.67792749       17      -0.07585043       0.16138679      -0.37760891
Cl       2.94812445       5.56089828       8.42206469       18      -0.10650792      -0.14655880       0.04856760
Cl      11.32475497       8.20635750       8.45727091       19       0.01060850       0.07847665       0.00181111
Cs       5.70241769      11.09391592       0.06069128       20      -0.06452351       0.09443494      -0.06383823
Sn       8.38333861       2.62771074       2.79541330       21      -0.42327687       0.62654260       0.24187707
Cl       8.27675458       2.88072653      11.19434755       22       0.12576725      -0.00096670       0.14367664
Cl       8.49858669      11.16905640       2.78867789       23       0.00014764       0.14941593      -0.04115124
Cl       5.61072852       3.00953000       2.75043365       24       0.51955599      -0.26696587      -0.02902237
Cs       5.57706851      11.13503248       5.63642884       25       0.03413581       0.03136371       0.03096060
Sn       8.51344920       2.84737706       8.49580194       26      -0.56621598      -0.07671297      -0.33735675
Cl       8.30573589       2.87052442       5.60168995       27       0.08705171      -0.15900048      -0.13500244
Cl       8.46560121      -0.08037754       8.59589574       28       0.01212239       0.49624176       0.00780850
Cl       5.63664978       2.88162186       8.41079786       29       0.12046948      -0.06735211       0.01579579
Rb       5.53907018       5.55679610       0.01634222       30      -0.03045514      -0.08668583       0.01354240
Sn       8.46623499       8.33734784       2.62661834       31      -0.50994818      -0.28393619       0.72566268
Cl       8.44873201       8.37119073      11.22479670       32       0.01101627      -0.04534736       0.13086758
Cl       8.21390385       5.61033741       2.85410179       33       0.18051894      -0.04894191      -0.14286247
Cl       5.65567997       8.56193179       2.78267352       34      -0.43564741       0.04146821      -0.09151657
Cs       5.61952831       5.58301661       5.64917952       35       0.00873836      -0.02130102      -0.02911380
Sn       8.35829835       8.41522303       8.47021217       36       0.20549069       0.01450912      -0.63007411
Cl       8.31197580       8.42261264       5.68747987       37       0.08358294       0.09392464      -0.08002840
Cl       8.38442943       5.71440646       8.34314408       38       0.07874135      -0.55118588       0.11448010
Cl       5.68858418       8.32550643       8.41700750       39      -0.04932532       0.11175969       0.11504134
40
Lattice="11.238601830458029 0.0 0.0 0.0 11.238601830457911 0.0 0.0 2.8138345824819592e-14 11.238601830457965" Properties=species:S:1:pos:R:3:spacegroup_kinds:I:1:forces:R:3 spacegroup="P 1" unit_cell=conventional candidate_id=206f938d1e8e4668 formula=FA0.88Rb0.12SnCl3 config_index=3 rattle_stdev=0.08 method=PBE fidelity=phase2_force energy=-138.74503106683076 stress="-0.00012852135943684835 0.0002011399540597575 9.356879416981579e-05 0.0002011399540597575 -0.000245980111071574 0.00011274912947755831 9.356879416981579e-05 0.00011274912947755831 0.0005995299396381721" pbc="T T T"
Cs      -0.10568348      11.39994206       0.00380516        0       0.06707045       0.04088197       0.03984061
Sn       2.79624050       2.82198401       2.88081010        1      -0.28806190      -0.36086064      -0.77894701
Cl       2.78709635       2.88394987      11.17660837        2       0.06233435      -0.06649334      -0.16371974
Cl       2.93701224      11.22062739       2.69021432        3       0.01057614      -0.21335984       0.05309604
Cl      11.18431901       2.69494108       2.69228729        4       0.12479706       0.07416045       0.09960041
Cs      -0.01794374      11.17055695       5.55884171        5      -0.04770198       0.02155821      -0.02205051
Sn       2.83630786       2.61083875       8.30093244        6       0.06556917       0.62657769       0.70451305
Cl       2.76767692       2.62887369       5.51716613        7       0.00630274      -0.03066567       0.30132816
Cl       2.87770554      -0.10230672       8.38068388        8       0.01608131       0.56969772      -0.01543339
Cl      11.11841217       2.72945254       8.62525187        9       0.33169765       0.00025888      -0.11629996
Cs      -0.03814223       5.69103404      -0.14439506       10       0.04544146      -0.13737944       0.01332536
Sn       2.77595703       8.32738791       2.73962909       11       0.12492425       0.38853010      -0.03456043
Cl       2.95408972       8.37855234      11.18150611       12      -0.06084630      -0.05638431       0.62097194
Cl       2.82861723       5.56499052       2.89880610       13      -0.03819618       0.29720980       0.02692295
Cl      11.09879600       8.46666846       2.76715588       14       1.13826691      -0.09019489      -0.00331022
Cs      -0.06069585       5.63306302       5.56671763       15      -0.03441315      -0.02328623       0.02275026
Sn       2.85946983       8.45395629       8.40485188       16      -0.11056224      -0.74014305       0.04376690
Cl       2.95086726       8.43132989       5.71622825       17      -0.01550743       0.02142249      -0.53969889
Cl       2.90014268       5.67322060       8.41450066       18      -0.01708141      -0.25122862      -0.09147112
Cl      11.23065466       8.28719690       8.43793934       19      -0.25102693       0.04210794       0.01082963
Cs       5.71520562      11.21736801      -0.05214397       20      -0.07176579       0.03101610       0.02779528
Sn       8.27162471       2.69203028       2.77262086       21       0.53794740       0.44273744      -0.01144773
Cl       8.36381913       2.89850966      11.29000386       22      -0.07659984      -0.08302812      -0.11091904
Cl       8.60577300      11.22501924       2.71361448       23      -0.16364664      -0.31795618       0.01207349
Cl       5.58381642       2.90930241       2.81722540       24      -0.20731827      -0.06865449       0.05448301
Cs       5.64159198      11.28036911       5.64471025       25       0.02837201      -0.06232268      -0.01428483
Sn       8.44151854       2.78402696       8.37711370       26      -0.07548995      -0.04000811       0.08242585
Cl       8.53751498       2.75558013       5.59059471       27      -0.02701224      -0.01646600       0.13961485
Cl       8.42069024       0.13433776       8.34956968       28      -0.01355681      -0.88103841       0.08439629
Cl       5.58740274       2.80775309       8.50567210       29      -0.37459324      -0.12909296      -0.12968280
Rb       5.57312134       5.62500071       0.06937641       30      -0.01601180      -0.05696252      -0.05362126
Sn       8.45654035       8.40524885       2.86449417       31      -0.18367636      -0.22833968       0.14960912
Cl       8.41498799       8.36179735      11.29092817       32       0.04056804       0.00755751       0.03197127
Cl       8.32528774       5.50534502       2.91707541       33       0.08392081       0.21423356      -0.00796335
Cl       5.85284696       8.34307958       2.71599474       34      -1.02238947       0.03745691      -0.00353342
Cs       5.70374030       5.71095796       5.62895076       35       0.00179663       0.00274255       0.03757722
Sn       8.42434711       8.36738592       8.58465904       36       0.07101584      -0.01431617      -0.39876368
Cl       8.37793342       8.38948735       5.73232026       37       0.01718731       0.01726918      -0.02416701
Cl       8.34469032       5.43797559       8.50935331       38       0.02927705       0.98750150      -0.01736302
Cl       5.57735547       8.41357678       8.54863732       39       0.25599471       0.03526836      -0.01465868
