Cs Pb I  Cs Pb I  Cs Pb I  Cs Ge I  Cs Pb I  Cs Pb I  Cs Ge I  Cs Pb I 
 1.0000000000000000
    13.1415795283519863    0.0000000000000000    0.0000000000000000
     0.0000000000000000   13.1415795283519863    0.0000000000000000
     0.0000000000000000    0.0000000000000000   13.1415795283519863
 Cs  Pb  I   Cs  Pb  I   Cs  Pb  I   Cs  Ge  I   Cs  Pb  I   Cs  Pb  I   Cs  Ge  I   Cs  Pb  I  
   1   1   3   1   1   3   1   1   3   1   1   3   1   1   3   1   1   3   1   1   3   1   1   3
Cartesian
  0.0000000000000000  0.0000000000000000  0.0000000000000000
  3.2853948820879957  3.2853948820879957  3.2853948820879957
  3.2853948820879957  3.2853948820879957  0.0000000000000000
  3.2853948820879957  0.0000000000000000  3.2853948820879957
  0.0000000000000000  3.2853948820879957  3.2853948820879957
  0.0000000000000000  0.0000000000000000  6.5707897641759923
  3.2853948820879957  3.2853948820879957  9.8561846462639906
  3.2853948820879957  3.2853948820879957  6.5707897641759923
  3.2853948820879957  0.0000000000000000  9.8561846462639906
  0.0000000000000000  3.2853948820879957  9.8561846462639906
  0.0000000000000000  6.5707897641759923  0.0000000000000000
  3.2853948820879957  9.8561846462639906  3.2853948820879957
  3.2853948820879957  9.8561846462639906  0.0000000000000000
  3.2853948820879957  6.5707897641759923  3.2853948820879957
  0.0000000000000000  9.8561846462639906  3.2853948820879957
  0.0000000000000000  6.5707897641759923  6.5707897641759923
  3.2853948820879957  9.8561846462639906  9.8561846462639906
  3.2853948820879957  9.8561846462639906  6.5707897641759923
  3.2853948820879957  6.5707897641759923  9.8561846462639906
  0.0000000000000000  9.8561846462639906  9.8561846462639906
  6.5707897641759923  0.0000000000000000  0.0000000000000000
  9.8561846462639906  3.2853948820879957  3.2853948820879957
  9.8561846462639906  3.2853948820879957  0.0000000000000000
  9.8561846462639906  0.0000000000000000  3.2853948820879957
  6.5707897641759923  3.2853948820879957  3.2853948820879957
  6.5707897641759923  0.0000000000000000  6.5707897641759923
  9.8561846462639906  3.2853948820879957  9.8561846462639906
  9.8561846462639906  3.2853948820879957  6.5707897641759923
  9.8561846462639906  0.0000000000000000  9.8561846462639906
  6.5707897641759923  3.2853948820879957  9.8561846462639906
  6.5707897641759923  6.5707897641759923  0.0000000000000000
  9.8561846462639906  9.8561846462639906  3.2853948820879957
  9.8561846462639906  9.8561846462639906  0.0000000000000000
  9.8561846462639906  6.5707897641759923  3.2853948820879957
  6.5707897641759923  9.8561846462639906  3.2853948820879957
  6.5707897641759923  6.5707897641759923  6.5707897641759923
  9.8561846462639906  9.8561846462639906  9.8561846462639906
  9.8561846462639906  9.8561846462639906  6.5707897641759923
  9.8561846462639906  6.5707897641759923  9.8561846462639906
  6.5707897641759923  9.8561846462639906  9.8561846462639906
