Cs Pb I  Cs Pb I  Cs Pb I  Cs Pb I  Cs Pb I  Cs Pb I  Cs Ge I  Cs Pb I 
 1.0000000000000000
    13.3238716565418773    0.0000000000000000    0.0000000000000000
     0.0000000000000000   13.3238716565418773    0.0000000000000000
     0.0000000000000000    0.0000000000000000   13.3238716565418773
 Cs  Pb  I   Cs  Pb  I   Cs  Pb  I   Cs  Pb  I   Cs  Pb  I   Cs  Pb  I   Cs  Ge  I   Cs  Pb  I  
   1   1   3   1   1   3   1   1   3   1   1   3   1   1   3   1   1   3   1   1   3   1   1   3
Cartesian
  0.0000000000000000  0.0000000000000000  0.0000000000000000
  3.3309679141354693  3.3309679141354693  3.3309679141354693
  3.3309679141354693  3.3309679141354693  0.0000000000000000
  3.3309679141354693  0.0000000000000000  3.3309679141354693
  0.0000000000000000  3.3309679141354693  3.3309679141354693
  0.0000000000000000  0.0000000000000000  6.6619358282709378
  3.3309679141354693  3.3309679141354693  9.9929037424064084
  3.3309679141354693  3.3309679141354693  6.6619358282709378
  3.3309679141354693  0.0000000000000000  9.9929037424064084
  0.0000000000000000  3.3309679141354693  9.9929037424064084
  0.0000000000000000  6.6619358282709378  0.0000000000000000
  3.3309679141354693  9.9929037424064084  3.3309679141354693
  3.3309679141354693  9.9929037424064084  0.0000000000000000
  3.3309679141354693  6.6619358282709378  3.3309679141354693
  0.0000000000000000  9.9929037424064084  3.3309679141354693
  0.0000000000000000  6.6619358282709378  6.6619358282709378
  3.3309679141354693  9.9929037424064084  9.9929037424064084
  3.3309679141354693  9.9929037424064084  6.6619358282709378
  3.3309679141354693  6.6619358282709378  9.9929037424064084
  0.0000000000000000  9.9929037424064084  9.9929037424064084
  6.6619358282709378  0.0000000000000000  0.0000000000000000
  9.9929037424064084  3.3309679141354693  3.3309679141354693
  9.9929037424064084  3.3309679141354693  0.0000000000000000
  9.9929037424064084  0.0000000000000000  3.3309679141354693
  6.6619358282709378  3.3309679141354693  3.3309679141354693
  6.6619358282709378  0.0000000000000000  6.6619358282709378
  9.9929037424064084  3.3309679141354693  9.9929037424064084
  9.9929037424064084  3.3309679141354693  6.6619358282709378
  9.9929037424064084  0.0000000000000000  9.9929037424064084
  6.6619358282709378  3.3309679141354693  9.9929037424064084
  6.6619358282709378  6.6619358282709378  0.0000000000000000
  9.9929037424064084  9.9929037424064084  3.3309679141354693
  9.9929037424064084  9.9929037424064084  0.0000000000000000
  9.9929037424064084  6.6619358282709378  3.3309679141354693
  6.6619358282709378  9.9929037424064084  3.3309679141354693
  6.6619358282709378  6.6619358282709378  6.6619358282709378
  9.9929037424064084  9.9929037424064084  9.9929037424064084
  9.9929037424064084  9.9929037424064084  6.6619358282709378
  9.9929037424064084  6.6619358282709378  9.9929037424064084
  6.6619358282709378  9.9929037424064084  9.9929037424064084
