Rb Sn I  Rb Sn I  Rb Sn I  Rb Ge I  Rb Ge I  Rb Sn I  Rb Ge I  Rb Sn I 
 1.0000000000000000
    12.8079665489881709    0.0000000000000000    0.0000000000000000
     0.0000000000000000   12.8079665489881709    0.0000000000000000
     0.0000000000000000    0.0000000000000000   12.8079665489881709
 Rb  Sn  I   Rb  Sn  I   Rb  Sn  I   Rb  Ge  I   Rb  Ge  I   Rb  Sn  I   Rb  Ge  I   Rb  Sn  I  
   1   1   3   1   1   3   1   1   3   1   1   3   1   1   3   1   1   3   1   1   3   1   1   3
Cartesian
  0.0000000000000000  0.0000000000000000  0.0000000000000000
  3.2019916372470427  3.2019916372470427  3.2019916372470427
  3.2019916372470427  3.2019916372470427  0.0000000000000000
  3.2019916372470427  0.0000000000000000  3.2019916372470427
  0.0000000000000000  3.2019916372470427  3.2019916372470427
  0.0000000000000000  0.0000000000000000  6.4039832744940846
  3.2019916372470427  3.2019916372470427  9.6059749117411304
  3.2019916372470427  3.2019916372470427  6.4039832744940846
  3.2019916372470427  0.0000000000000000  9.6059749117411304
  0.0000000000000000  3.2019916372470427  9.6059749117411304
  0.0000000000000000  6.4039832744940846  0.0000000000000000
  3.2019916372470427  9.6059749117411304  3.2019916372470427
  3.2019916372470427  9.6059749117411304  0.0000000000000000
  3.2019916372470427  6.4039832744940846  3.2019916372470427
  0.0000000000000000  9.6059749117411304  3.2019916372470427
  0.0000000000000000  6.4039832744940846  6.4039832744940846
  3.2019916372470427  9.6059749117411304  9.6059749117411304
  3.2019916372470427  9.6059749117411304  6.4039832744940846
  3.2019916372470427  6.4039832744940846  9.6059749117411304
  0.0000000000000000  9.6059749117411304  9.6059749117411304
  6.4039832744940846  0.0000000000000000  0.0000000000000000
  9.6059749117411304  3.2019916372470427  3.2019916372470427
  9.6059749117411304  3.2019916372470427  0.0000000000000000
  9.6059749117411304  0.0000000000000000  3.2019916372470427
  6.4039832744940846  3.2019916372470427  3.2019916372470427
  6.4039832744940846  0.0000000000000000  6.4039832744940846
  9.6059749117411304  3.2019916372470427  9.6059749117411304
  9.6059749117411304  3.2019916372470427  6.4039832744940846
  9.6059749117411304  0.0000000000000000  9.6059749117411304
  6.4039832744940846  3.2019916372470427  9.6059749117411304
  6.4039832744940846  6.4039832744940846  0.0000000000000000
  9.6059749117411304  9.6059749117411304  3.2019916372470427
  9.6059749117411304  9.6059749117411304  0.0000000000000000
  9.6059749117411304  6.4039832744940846  3.2019916372470427
  6.4039832744940846  9.6059749117411304  3.2019916372470427
  6.4039832744940846  6.4039832744940846  6.4039832744940846
  9.6059749117411304  9.6059749117411304  9.6059749117411304
  9.6059749117411304  9.6059749117411304  6.4039832744940846
  9.6059749117411304  6.4039832744940846  9.6059749117411304
  6.4039832744940846  9.6059749117411304  9.6059749117411304
