Cs Sn I  Cs Sn I  Cs Sn Br I  Cs Sn I  Br I  Cs Sn I  Br Cs Sn I  Cs Sn I  Br I  Cs Sn I 
 1.0000000000000000
    13.3578127820388293    0.0000000000000000    0.0000000000000000
     0.0000000000000000   13.3578127820388293    0.0000000000000000
     0.0000000000000000    0.0000000000000000   13.3578127820388293
 Cs  Sn  I   Cs  Sn  I   Cs  Sn  Br  I   Cs  Sn  I   Br  I   Cs  Sn  I   Br  Cs  Sn  I   Cs  Sn  I   Br  I   Cs  Sn  I  
   1   1   3   1   1   3   1   1   1   2   1   1   1   1   1   1   1   2   1   1   1   3   1   1   1   1   1   1   1   3
Cartesian
  0.0000000000000000  0.0000000000000000  0.0000000000000000
  3.3394531955097073  3.3394531955097073  3.3394531955097073
  3.3394531955097073  3.3394531955097073  0.0000000000000000
  3.3394531955097073  0.0000000000000000  3.3394531955097073
  0.0000000000000000  3.3394531955097073  3.3394531955097073
  0.0000000000000000  0.0000000000000000  6.6789063910194137
  3.3394531955097073  3.3394531955097073 10.0183595865291224
  3.3394531955097073  3.3394531955097073  6.6789063910194137
  3.3394531955097073  0.0000000000000000 10.0183595865291224
  0.0000000000000000  3.3394531955097073 10.0183595865291224
  0.0000000000000000  6.6789063910194137  0.0000000000000000
  3.3394531955097073 10.0183595865291224  3.3394531955097073
  3.3394531955097073 10.0183595865291224  0.0000000000000000
  3.3394531955097073  6.6789063910194137  3.3394531955097073
  0.0000000000000000 10.0183595865291224  3.3394531955097073
  0.0000000000000000  6.6789063910194137  6.6789063910194137
  3.3394531955097073 10.0183595865291224 10.0183595865291224
  3.3394531955097073 10.0183595865291224  6.6789063910194137
  3.3394531955097073  6.6789063910194137 10.0183595865291224
  0.0000000000000000 10.0183595865291224 10.0183595865291224
  6.6789063910194137  0.0000000000000000  0.0000000000000000
 10.0183595865291224  3.3394531955097073  3.3394531955097073
 10.0183595865291224  3.3394531955097073  0.0000000000000000
 10.0183595865291224  0.0000000000000000  3.3394531955097073
  6.6789063910194137  3.3394531955097073  3.3394531955097073
  6.6789063910194137  0.0000000000000000  6.6789063910194137
 10.0183595865291224  3.3394531955097073 10.0183595865291224
 10.0183595865291224  3.3394531955097073  6.6789063910194137
 10.0183595865291224  0.0000000000000000 10.0183595865291224
  6.6789063910194137  3.3394531955097073 10.0183595865291224
  6.6789063910194137  6.6789063910194137  0.0000000000000000
 10.0183595865291224 10.0183595865291224  3.3394531955097073
 10.0183595865291224 10.0183595865291224  0.0000000000000000
 10.0183595865291224  6.6789063910194137  3.3394531955097073
  6.6789063910194137 10.0183595865291224  3.3394531955097073
  6.6789063910194137  6.6789063910194137  6.6789063910194137
 10.0183595865291224 10.0183595865291224 10.0183595865291224
 10.0183595865291224 10.0183595865291224  6.6789063910194137
 10.0183595865291224  6.6789063910194137 10.0183595865291224
  6.6789063910194137 10.0183595865291224 10.0183595865291224
