Cs Pb I  Cs Pb I  Cs Pb I  Cs Sn I  Cs Pb I  Cs Pb I  Cs Sn I  Cs Pb I 
 1.0000000000000000
    13.5519843041526578    0.0000000000000000    0.0000000000000000
     0.0000000000000000   13.5519843041526578    0.0000000000000000
     0.0000000000000000    0.0000000000000000   13.5519843041526578
 Cs  Pb  I   Cs  Pb  I   Cs  Pb  I   Cs  Sn  I   Cs  Pb  I   Cs  Pb  I   Cs  Sn  I   Cs  Pb  I  
   1   1   3   1   1   3   1   1   3   1   1   3   1   1   3   1   1   3   1   1   3   1   1   3
Cartesian
  0.0000000000000000  0.0000000000000000  0.0000000000000000
  3.3879960760381644  3.3879960760381644  3.3879960760381644
  3.3879960760381644  3.3879960760381644  0.0000000000000000
  3.3879960760381644  0.0000000000000000  3.3879960760381644
  0.0000000000000000  3.3879960760381644  3.3879960760381644
  0.0000000000000000  0.0000000000000000  6.7759921520763280
  3.3879960760381644  3.3879960760381644 10.1639882281144942
  3.3879960760381644  3.3879960760381644  6.7759921520763280
  3.3879960760381644  0.0000000000000000 10.1639882281144942
  0.0000000000000000  3.3879960760381644 10.1639882281144942
  0.0000000000000000  6.7759921520763280  0.0000000000000000
  3.3879960760381644 10.1639882281144942  3.3879960760381644
  3.3879960760381644 10.1639882281144942  0.0000000000000000
  3.3879960760381644  6.7759921520763280  3.3879960760381644
  0.0000000000000000 10.1639882281144942  3.3879960760381644
  0.0000000000000000  6.7759921520763280  6.7759921520763280
  3.3879960760381644 10.1639882281144942 10.1639882281144942
  3.3879960760381644 10.1639882281144942  6.7759921520763280
  3.3879960760381644  6.7759921520763280 10.1639882281144942
  0.0000000000000000 10.1639882281144942 10.1639882281144942
  6.7759921520763280  0.0000000000000000  0.0000000000000000
 10.1639882281144942  3.3879960760381644  3.3879960760381644
 10.1639882281144942  3.3879960760381644  0.0000000000000000
 10.1639882281144942  0.0000000000000000  3.3879960760381644
  6.7759921520763280  3.3879960760381644  3.3879960760381644
  6.7759921520763280  0.0000000000000000  6.7759921520763280
 10.1639882281144942  3.3879960760381644 10.1639882281144942
 10.1639882281144942  3.3879960760381644  6.7759921520763280
 10.1639882281144942  0.0000000000000000 10.1639882281144942
  6.7759921520763280  3.3879960760381644 10.1639882281144942
  6.7759921520763280  6.7759921520763280  0.0000000000000000
 10.1639882281144942 10.1639882281144942  3.3879960760381644
 10.1639882281144942 10.1639882281144942  0.0000000000000000
 10.1639882281144942  6.7759921520763280  3.3879960760381644
  6.7759921520763280 10.1639882281144942  3.3879960760381644
  6.7759921520763280  6.7759921520763280  6.7759921520763280
 10.1639882281144942 10.1639882281144942 10.1639882281144942
 10.1639882281144942 10.1639882281144942  6.7759921520763280
 10.1639882281144942  6.7759921520763280 10.1639882281144942
  6.7759921520763280 10.1639882281144942 10.1639882281144942
