Cs Sn I  Cs Pb I  Cs Sn I  Cs Sn I  Cs Sn I  Cs Sn I  Cs Sn I  Cs Sn I 
 1.0000000000000000
    13.5234171901927205    0.0000000000000000    0.0000000000000000
     0.0000000000000000   13.5234171901927205    0.0000000000000000
     0.0000000000000000    0.0000000000000000   13.5234171901927205
 Cs  Sn  I   Cs  Pb  I   Cs  Sn  I   Cs  Sn  I   Cs  Sn  I   Cs  Sn  I   Cs  Sn  I   Cs  Sn  I  
   1   1   3   1   1   3   1   1   3   1   1   3   1   1   3   1   1   3   1   1   3   1   1   3
Cartesian
  0.0000000000000000  0.0000000000000000  0.0000000000000000
  3.3808542975481801  3.3808542975481801  3.3808542975481801
  3.3808542975481801  3.3808542975481801  0.0000000000000000
  3.3808542975481801  0.0000000000000000  3.3808542975481801
  0.0000000000000000  3.3808542975481801  3.3808542975481801
  0.0000000000000000  0.0000000000000000  6.7617085950963594
  3.3808542975481801  3.3808542975481801 10.1425628926445413
  3.3808542975481801  3.3808542975481801  6.7617085950963594
  3.3808542975481801  0.0000000000000000 10.1425628926445413
  0.0000000000000000  3.3808542975481801 10.1425628926445413
  0.0000000000000000  6.7617085950963594  0.0000000000000000
  3.3808542975481801 10.1425628926445413  3.3808542975481801
  3.3808542975481801 10.1425628926445413  0.0000000000000000
  3.3808542975481801  6.7617085950963594  3.3808542975481801
  0.0000000000000000 10.1425628926445413  3.3808542975481801
  0.0000000000000000  6.7617085950963594  6.7617085950963594
  3.3808542975481801 10.1425628926445413 10.1425628926445413
  3.3808542975481801 10.1425628926445413  6.7617085950963594
  3.3808542975481801  6.7617085950963594 10.1425628926445413
  0.0000000000000000 10.1425628926445413 10.1425628926445413
  6.7617085950963594  0.0000000000000000  0.0000000000000000
 10.1425628926445413  3.3808542975481801  3.3808542975481801
 10.1425628926445413  3.3808542975481801  0.0000000000000000
 10.1425628926445413  0.0000000000000000  3.3808542975481801
  6.7617085950963594  3.3808542975481801  3.3808542975481801
  6.7617085950963594  0.0000000000000000  6.7617085950963594
 10.1425628926445413  3.3808542975481801 10.1425628926445413
 10.1425628926445413  3.3808542975481801  6.7617085950963594
 10.1425628926445413  0.0000000000000000 10.1425628926445413
  6.7617085950963594  3.3808542975481801 10.1425628926445413
  6.7617085950963594  6.7617085950963594  0.0000000000000000
 10.1425628926445413 10.1425628926445413  3.3808542975481801
 10.1425628926445413 10.1425628926445413  0.0000000000000000
 10.1425628926445413  6.7617085950963594  3.3808542975481801
  6.7617085950963594 10.1425628926445413  3.3808542975481801
  6.7617085950963594  6.7617085950963594  6.7617085950963594
 10.1425628926445413 10.1425628926445413 10.1425628926445413
 10.1425628926445413 10.1425628926445413  6.7617085950963594
 10.1425628926445413  6.7617085950963594 10.1425628926445413
  6.7617085950963594 10.1425628926445413 10.1425628926445413
