40
Lattice="11.70041629762927 0.0 0.0 0.002964882067486659 11.768113299178015 0.0 -0.0006887724867564392 -0.001686341781472756 11.827355015551275" Properties=species:S:1:pos:R:3:spacegroup_kinds:I:1:forces:R:3 spacegroup="P 1" unit_cell=conventional occupancy="_JSON {\"0\": {\"Cs\": 1.0}, \"1\": {\"Pb\": 1.0}, \"2\": {\"I\": 1.0}, \"3\": {\"Br\": 1.0}, \"4\": {\"Cl\": 1.0}, \"5\": {\"Cs\": 1.0}, \"6\": {\"Pb\": 1.0}, \"7\": {\"Cl\": 1.0}, \"8\": {\"Cl\": 1.0}, \"9\": {\"Cl\": 1.0}, \"10\": {\"Cs\": 1.0}, \"11\": {\"Pb\": 1.0}, \"12\": {\"Cl\": 1.0}, \"13\": {\"Cl\": 1.0}, \"14\": {\"I\": 1.0}, \"15\": {\"Cs\": 1.0}, \"16\": {\"Pb\": 1.0}, \"17\": {\"Br\": 1.0}, \"18\": {\"Cl\": 1.0}, \"19\": {\"Br\": 1.0}, \"20\": {\"Cs\": 1.0}, \"21\": {\"Pb\": 1.0}, \"22\": {\"Cl\": 1.0}, \"23\": {\"Br\": 1.0}, \"24\": {\"Cl\": 1.0}, \"25\": {\"Cs\": 1.0}, \"26\": {\"Pb\": 1.0}, \"27\": {\"Cl\": 1.0}, \"28\": {\"I\": 1.0}, \"29\": {\"Cl\": 1.0}, \"30\": {\"Cs\": 1.0}, \"31\": {\"Pb\": 1.0}, \"32\": {\"Br\": 1.0}, \"33\": {\"Cl\": 1.0}, \"34\": {\"Cl\": 1.0}, \"35\": {\"Cs\": 1.0}, \"36\": {\"Pb\": 1.0}, \"37\": {\"Br\": 1.0}, \"38\": {\"Cl\": 1.0}, \"39\": {\"Cl\": 1.0}}" candidate_id=bcafb24636231e7f formula=MAPbBr0.25Cl0.62I0.123 config_index=0 rattle_stdev=0.0 method=PBE fidelity=phase2_force energy=-133.68871836616856 stress="0.00041986407918043 -5.8428678050881654e-05 -4.6346305443277834e-05 -5.8428678050881654e-05 0.0003571406267002065 7.757067654307715e-05 -4.6346305443277834e-05 7.757067654307715e-05 3.0849274053502033e-06" pbc="T T T"
Cs      11.69061633       0.02267318      11.82213501        0      -0.01351057      -0.04808997       0.01095643
Pb       2.94007086       3.04607204       3.11821108        1       0.00000612      -0.00240714       0.03221946
I        2.92190536       2.96208619       0.00583617        2      -0.01703735      -0.01347464      -0.03526433
Br       3.04385605       0.00765957       2.99908141        3      -0.00138062       0.03781386       0.00989976
Cl       0.01196024       3.10799705       3.15408182        4      -0.06337843      -0.00987745       0.00723836
Cs       0.10924268       0.13785261       5.92385026        5       0.01969563       0.00079209      -0.00930578
Pb       2.95815889       2.97455367       8.72122316        6      -0.01092119      -0.00825116      -0.03669242
Cl       2.91622535       2.97941208       5.91882558        7      -0.01897685      -0.02339129       0.02714891
Cl       3.01548221       0.01064739       8.76994683        8      -0.00839188      -0.00819728      -0.01064196
Cl       0.00600481       3.11239507       8.70506589        9       0.00869024      -0.01257425       0.00529125
Cs      11.56277598       5.76585581      11.69375043       10      -0.03845655       0.03380727      -0.00397995
Pb       3.10157992       8.71149324       2.86136168       11      -0.03843255       0.02469944       0.02086261
Cl       3.16844629       8.75563599       0.00125894       12       0.00534118       0.02234520      -0.09288105
Cl       3.10733525       5.88037704       3.04235971       13       0.01215704      -0.05010613       0.01601859
I       11.69813954       8.78800472       2.93289249       14       0.02483657      -0.00414369      -0.01547736
Cs       0.01167435       5.68214587       6.01267015       15      -0.00480514       0.02249022      -0.01136530
Pb       3.01264465       8.78506870       8.90206754       16       0.02123969       0.00285906       0.00264200
Br       3.10601742       8.78560802       5.90319090       17       0.01363356       0.02116234       0.08418513
Cl       2.99258421       5.86600599       8.77964526       18      -0.02108410       0.01049586      -0.01439212
Br      11.69227595       8.70221957       8.96944509       19       0.11307181      -0.00721418       0.01715738
Cs       5.80154647      11.70895118       0.05664601       20      -0.00234246      -0.08484381       0.01823908
Pb       8.75005615       3.04736493       2.99143698       21      -0.00339137       0.02978620       0.00705266
Cl       8.78732257       3.17166962      11.81219765       22       0.01810943      -0.00784903       0.03404015
Br       8.65048621       0.01009602       2.94310735       23      -0.00675618       0.12995092      -0.01005912
Cl       5.84716459       3.06979390       3.16584722       24       0.06309975      -0.03503614       0.01521258
Cs       5.72473323       0.12159959       5.87655871       25      -0.00333031      -0.01717323      -0.01017027
Pb       8.75803522       3.10575229       8.84280651       26       0.01873656      -0.00106951      -0.00113325
Cl       8.78530358       3.17379649       5.91581358       27       0.01465360      -0.00142649      -0.04048801
I        8.74891207      11.75845834       8.87009904       28       0.00148200       0.09409532       0.00398654
Cl       5.85768135       3.10101254       8.68628053       29      -0.01403129      -0.00511139      -0.01033220
Cs       5.92050597       5.85585654      11.77957562       30       0.00995896       0.05647977       0.01048777
Pb       8.59349243       8.71762234       2.97365701       31       0.04300972       0.03139592      -0.01823384
Br       8.63680020       8.68294554       0.00301224       32      -0.00084853      -0.00376807      -0.00737605
Cl       8.58468045       5.89390069       2.93096163       33      -0.00657580      -0.14444501      -0.01509608
Cl       5.84813037       8.76137948       2.87145671       34      -0.01858519       0.02736179      -0.03422302
Cs       5.81727911       5.72447224       5.93710505       35       0.00669809       0.03706669      -0.01662426
Pb       8.66885069       8.64161195       8.86133453       36       0.01878077       0.01225629       0.02020980
Br       8.60274096       8.66570269       5.91914974       37      -0.02783222      -0.02576842       0.00868511
Cl       8.73955181       5.87198846       8.90049273       38       0.02192260      -0.07277264       0.02150589
Cl       5.85764859       8.62457392       8.97266206       39      -0.11679940      -0.01077993       0.01601888
40
Lattice="11.70041629762927 0.0 0.0 0.002964882067486659 11.768113299178015 0.0 -0.0006887724867564392 -0.001686341781472756 11.827355015551275" Properties=species:S:1:pos:R:3:spacegroup_kinds:I:1:forces:R:3 spacegroup="P 1" unit_cell=conventional occupancy="_JSON {\"0\": {\"Cs\": 1.0}, \"1\": {\"Pb\": 1.0}, \"2\": {\"I\": 1.0}, \"3\": {\"Br\": 1.0}, \"4\": {\"Cl\": 1.0}, \"5\": {\"Cs\": 1.0}, \"6\": {\"Pb\": 1.0}, \"7\": {\"Cl\": 1.0}, \"8\": {\"Cl\": 1.0}, \"9\": {\"Cl\": 1.0}, \"10\": {\"Cs\": 1.0}, \"11\": {\"Pb\": 1.0}, \"12\": {\"Cl\": 1.0}, \"13\": {\"Cl\": 1.0}, \"14\": {\"I\": 1.0}, \"15\": {\"Cs\": 1.0}, \"16\": {\"Pb\": 1.0}, \"17\": {\"Br\": 1.0}, \"18\": {\"Cl\": 1.0}, \"19\": {\"Br\": 1.0}, \"20\": {\"Cs\": 1.0}, \"21\": {\"Pb\": 1.0}, \"22\": {\"Cl\": 1.0}, \"23\": {\"Br\": 1.0}, \"24\": {\"Cl\": 1.0}, \"25\": {\"Cs\": 1.0}, \"26\": {\"Pb\": 1.0}, \"27\": {\"Cl\": 1.0}, \"28\": {\"I\": 1.0}, \"29\": {\"Cl\": 1.0}, \"30\": {\"Cs\": 1.0}, \"31\": {\"Pb\": 1.0}, \"32\": {\"Br\": 1.0}, \"33\": {\"Cl\": 1.0}, \"34\": {\"Cl\": 1.0}, \"35\": {\"Cs\": 1.0}, \"36\": {\"Pb\": 1.0}, \"37\": {\"Br\": 1.0}, \"38\": {\"Cl\": 1.0}, \"39\": {\"Cl\": 1.0}}" candidate_id=bcafb24636231e7f formula=MAPbBr0.25Cl0.62I0.123 config_index=1 rattle_stdev=0.08 method=PBE fidelity=phase2_force energy=-132.92504029993302 stress="-0.0016353317637116897 -1.2308054336097062e-06 -7.524270353900719e-05 -1.2308054336097062e-06 -0.000784846077858811 -0.00010191453528290443 -7.524270353900719e-05 -0.00010191453528290443 -0.0033641868891201494" pbc="T T T"
Cs      11.60370062      -0.04901203      11.79763106        0      -0.02589350       0.00749064       0.05341971
Pb       2.83287617       2.94954519       3.06687293        1       0.24288505       0.28818669       0.44109017
I        3.02654101       3.10972302       0.07216537        2      -0.12328951      -0.09552555      -0.18141094
Br       3.04199214      -0.00902555       2.92575183        3      -0.01209229       0.06159064       0.01556400
Cl      -0.07401917       3.10110558       3.24814890        4       0.35451232      -0.01762523       0.03128680
Cs      -0.02156466       0.23610813       6.00996116        5       0.08149518       0.04505123      -0.06920239
Pb       2.98974072       2.94353761       8.76829530        6       0.06465719      -0.07179855      -0.12315709
Cl       2.80156144       2.95352611       6.01906436        7       0.02388337      -0.00878523      -0.23133350
Cl       2.95702281       0.12492619       8.84551914        8      -0.00204306      -0.29028643      -0.05391058
Cl      -0.01511541       3.09933801       8.62793731        9       0.04462291      -0.02660772       0.03833146
Cs      11.53536420       5.76976813      11.65377988       10      -0.06576158      -0.00404299       0.03731699
Pb       2.92462755       8.73628019       2.73418958       11       1.32742912      -0.27334890      -0.12404589
Cl       3.22680266       8.74700389      -0.05075478       12      -0.07805368       0.03264028      -0.10691418
Cl       2.97189073       5.85089912       2.91512998       13      -0.02392401      -0.04905379       0.07188692
I       11.81658001       8.82595993       3.00600160       14      -1.35962347       0.02789131       0.11310349
Cs       0.08851197       5.68890928       6.15004862       15       0.02462562       0.00767887      -0.07497069
Pb       3.08079607       8.72467788       8.71905720       16       0.25415329       0.03583483       0.44282482
Br       3.11475652       8.74959537       5.87015310       17       0.00573447       0.00545886      -0.06034727
Cl       3.01810291       5.82271735       8.85553858       18      -0.04590571       0.34697956      -0.09819519
Br      11.70439075       8.70837176       8.96469306       19       0.45259522       0.00407682      -0.01892589
Cs       5.79593537      11.66365925       0.08152644       20       0.01508747      -0.06902227       0.04391749
Pb       8.80799286       3.08868093       3.07351944       21      -0.37888900      -0.21978723      -0.52402763
Cl       8.82893478       3.10208254      11.93224286       22       0.10080251       0.03310501      -0.24448966
Br       8.74380398       0.04944918       2.88452637       23       0.00542373      -0.01994320       0.08084450
Cl       5.90158908       3.11051364       3.09884432       24      -0.27271190      -0.05362837       0.08979218
Cs       5.77654482       0.12260275       6.00132584       25      -0.05200719      -0.00441935      -0.08001378
Pb       8.84080285       3.13276771       8.73859767       26      -0.18080456       0.33261125       0.26185662
Cl       8.69582004       3.27855770       5.87435622       27       0.05136237      -0.03593380       0.37587281
I        8.71746213      11.84189582       8.87607626       28      -0.00649377      -0.10035666      -0.00349956
Cl       5.86483631       3.10532513       8.71975629       29      -0.03631244      -0.02994014      -0.06067908
Cs       5.82228756       5.76869321      11.80494557       30       0.10832250       0.11794236       0.03584325
Pb       8.53105998       8.64913185       2.86806729       31       0.04189802       0.27602163       0.36523787
Br       8.67310273       8.76308752       0.11611101       32       0.02137401       0.01250335      -0.51237169
Cl       8.56946582       5.89630954       2.78108830       33       0.02626415      -0.03636667      -0.00431147
Cl       5.83878822       8.75118025       2.94363145       34       0.08093938       0.01769855      -0.00380440
Cs       5.71212934       5.71650818       5.94834904       35       0.01464056       0.00529927      -0.05351688
Pb       8.87915516       8.78207425       8.65048271       36      -0.53259060      -0.43995976       1.40572284
Br       8.49980940       8.65196492       6.06318603       37      -0.08326165      -0.02304634      -1.34031249
Cl       8.78824746       5.87451050       8.78317975       38       0.07058865       0.19241512       0.04805796
Cl       5.88240385       8.71595135       8.93179452       39      -0.14151863       0.01878009      -0.02486031
40
Lattice="11.70041629762927 0.0 0.0 0.002964882067486659 11.768113299178015 0.0 -0.0006887724867564392 -0.001686341781472756 11.827355015551275" Properties=species:S:1:pos:R:3:spacegroup_kinds:I:1:forces:R:3 spacegroup="P 1" unit_cell=conventional occupancy="_JSON {\"0\": {\"Cs\": 1.0}, \"1\": {\"Pb\": 1.0}, \"2\": {\"I\": 1.0}, \"3\": {\"Br\": 1.0}, \"4\": {\"Cl\": 1.0}, \"5\": {\"Cs\": 1.0}, \"6\": {\"Pb\": 1.0}, \"7\": {\"Cl\": 1.0}, \"8\": {\"Cl\": 1.0}, \"9\": {\"Cl\": 1.0}, \"10\": {\"Cs\": 1.0}, \"11\": {\"Pb\": 1.0}, \"12\": {\"Cl\": 1.0}, \"13\": {\"Cl\": 1.0}, \"14\": {\"I\": 1.0}, \"15\": {\"Cs\": 1.0}, \"16\": {\"Pb\": 1.0}, \"17\": {\"Br\": 1.0}, \"18\": {\"Cl\": 1.0}, \"19\": {\"Br\": 1.0}, \"20\": {\"Cs\": 1.0}, \"21\": {\"Pb\": 1.0}, \"22\": {\"Cl\": 1.0}, \"23\": {\"Br\": 1.0}, \"24\": {\"Cl\": 1.0}, \"25\": {\"Cs\": 1.0}, \"26\": {\"Pb\": 1.0}, \"27\": {\"Cl\": 1.0}, \"28\": {\"I\": 1.0}, \"29\": {\"Cl\": 1.0}, \"30\": {\"Cs\": 1.0}, \"31\": {\"Pb\": 1.0}, \"32\": {\"Br\": 1.0}, \"33\": {\"Cl\": 1.0}, \"34\": {\"Cl\": 1.0}, \"35\": {\"Cs\": 1.0}, \"36\": {\"Pb\": 1.0}, \"37\": {\"Br\": 1.0}, \"38\": {\"Cl\": 1.0}, \"39\": {\"Cl\": 1.0}}" candidate_id=bcafb24636231e7f formula=MAPbBr0.25Cl0.62I0.123 config_index=2 rattle_stdev=0.08 method=PBE fidelity=phase2_force energy=-133.03214883318017 stress="-0.0009305637367799364 -0.00010006339465786384 -7.49771247921702e-05 -0.00010006339465786384 -0.0011049533116847905 7.787951213142343e-05 -7.49771247921702e-05 7.787951213142343e-05 -0.0011600799297016922" pbc="T T T"
Cs      11.68159929      -0.06345194      11.96493717        0       0.04011663      -0.04921796      -0.07684595
Pb       2.82351220       3.01996637       3.01741936        1       0.64905980       0.34662864       0.40535413
I        2.95197468       2.89183440      -0.02216189        2      -0.06341223       0.01181297      -0.17717953
Br       3.06758887       0.10373252       2.87356179        3      -0.04257402      -0.60424291       0.04887292
Cl       0.16028254       3.14751400       3.14362490        4      -0.83569654      -0.02603730      -0.03935392
Cs       0.07699302       0.05995963       5.88645291        5       0.01680260       0.00018309       0.07472553
Pb       2.90072518       3.07226514       8.65904716        6       0.34682353      -0.03645192      -0.01190389
Cl       2.86914330       2.97480257       5.92519197        7      -0.01485056      -0.10790859      -0.15752407
Cl       2.92082613      -0.11325201       8.84292732        8      -0.00412830       0.15934354      -0.02561831
Cl       0.03901847       3.05673355       8.52196414        9      -0.15711564       0.03914217       0.09376289
Cs      11.49979666       5.68357448      11.70121508       10       0.01527686       0.07576028      -0.02155994
Pb       3.05924438       8.77391283       2.84529651       11       0.26406906      -0.27160893       0.15373151
Cl       3.12999761       8.67281502      -0.03895981       12       0.01967922       0.02866825       0.28059595
Cl       3.17052647       5.80637723       3.21916254       13      -0.07822958       0.47783924      -0.10672030
I       11.58612065       8.76887693       2.95027975       14       0.89963961      -0.00124066       0.05630369
Cs      -0.01651648       5.68901591       6.02120231       15       0.00041894       0.06380417      -0.01950801
Pb       2.99688216       8.89282341       8.92968146       16      -0.02205383      -0.23013745      -0.09307806
Br       3.15062897       8.73798521       5.96181747       17      -0.04581356       0.11846805      -0.28149319
Cl       3.09908443       5.80760335       8.74078480       18      -0.08494628      -0.02001816       0.01406703
Br      11.77842908       8.49459097       8.98279934       19       0.01095071       0.02289696       0.01915719
Cs       5.88466324      11.56426527       0.11733728       20      -0.05724754      -0.02028159      -0.01973291
Pb       8.71004713       2.85982147       2.98280357       21      -0.39768019       0.62842662       0.24131158
Cl       8.66709956       3.21077192      11.76794337       22       0.11059496      -0.01019690       0.13946749
Br       8.73508681      -0.05944940       2.93710006       23       0.00606296       0.24593103      -0.01941696
Cl       5.83859219       3.23769966       3.13860418       24       0.46474555      -0.28890620      -0.07222032
Cs       5.68250083       0.01803024       5.89368663       25       0.02533743      -0.00893071       0.02198386
Pb       8.84813678       3.13787516       8.90405333       26      -0.42726466      -0.11525683      -0.27564433
Cl       8.67705339       3.21970517       5.89820261       27       0.12471151      -0.14723272      -0.15248225
I        8.80052719      11.67808079       9.02207813       28       0.05253680       0.77680120       0.00645586
Cl       5.87503021       3.14101017       8.63615324       29       0.11489174      -0.07701992       0.05142306
Cs       5.84027523       5.79335172      11.79591784       30      -0.00977771       0.00077982       0.01575515
Pb       8.63637979       8.63162254       2.79622863       31      -0.63316670      -0.23650399       0.77968846
Br       8.68855462       8.65715867      -0.01079289       32       0.00773861      -0.04197450      -0.00932166
Cl       8.40160671       5.88493719       3.00738674       33       0.12884709      -0.23634474      -0.11298694
Cl       5.88450943       8.92633367       2.87645355       34      -0.49833753       0.12388532      -0.07970082
Cs       5.81750651       5.68818794       5.96698365       35       0.01872704       0.03724514      -0.04180881
Pb       8.60380141       8.63348735       8.89699159       36       0.34876688       0.11688820      -0.49777629
Br       8.50073067       8.67432924       5.98732869       37       0.03998875       0.07373121      -0.29283205
Cl       8.72700364       5.96709400       8.78271166       38       0.09390850      -0.84956070       0.06490682
Cl       5.92693186       8.55310276       8.92874441       39      -0.42842643       0.03563233       0.11468721
40
Lattice="11.70041629762927 0.0 0.0 0.002964882067486659 11.768113299178015 0.0 -0.0006887724867564392 -0.001686341781472756 11.827355015551275" Properties=species:S:1:pos:R:3:spacegroup_kinds:I:1:forces:R:3 spacegroup="P 1" unit_cell=conventional occupancy="_JSON {\"0\": {\"Cs\": 1.0}, \"1\": {\"Pb\": 1.0}, \"2\": {\"I\": 1.0}, \"3\": {\"Br\": 1.0}, \"4\": {\"Cl\": 1.0}, \"5\": {\"Cs\": 1.0}, \"6\": {\"Pb\": 1.0}, \"7\": {\"Cl\": 1.0}, \"8\": {\"Cl\": 1.0}, \"9\": {\"Cl\": 1.0}, \"10\": {\"Cs\": 1.0}, \"11\": {\"Pb\": 1.0}, \"12\": {\"Cl\": 1.0}, \"13\": {\"Cl\": 1.0}, \"14\": {\"I\": 1.0}, \"15\": {\"Cs\": 1.0}, \"16\": {\"Pb\": 1.0}, \"17\": {\"Br\": 1.0}, \"18\": {\"Cl\": 1.0}, \"19\": {\"Br\": 1.0}, \"20\": {\"Cs\": 1.0}, \"21\": {\"Pb\": 1.0}, \"22\": {\"Cl\": 1.0}, \"23\": {\"Br\": 1.0}, \"24\": {\"Cl\": 1.0}, \"25\": {\"Cs\": 1.0}, \"26\": {\"Pb\": 1.0}, \"27\": {\"Cl\": 1.0}, \"28\": {\"I\": 1.0}, \"29\": {\"Cl\": 1.0}, \"30\": {\"Cs\": 1.0}, \"31\": {\"Pb\": 1.0}, \"32\": {\"Br\": 1.0}, \"33\": {\"Cl\": 1.0}, \"34\": {\"Cl\": 1.0}, \"35\": {\"Cs\": 1.0}, \"36\": {\"Pb\": 1.0}, \"37\": {\"Br\": 1.0}, \"38\": {\"Cl\": 1.0}, \"39\": {\"Cl\": 1.0}}" candidate_id=bcafb24636231e7f formula=MAPbBr0.25Cl0.62I0.123 config_index=3 rattle_stdev=0.08 method=PBE fidelity=phase2_force energy=-132.84558364356218 stress="-0.0016541903551432027 1.8194143459851155e-05 -1.550137874772424e-05 1.8194143459851155e-05 -0.0013124420326050307 0.00016138705643134382 -1.550137874772424e-05 0.00016138705643134382 -0.0009233219807655406" pbc="T T T"
Cs      11.58493285       0.18401341      11.82594017        0       0.00203030       0.06441206       0.04673946
Pb       2.92105717       3.05280185       3.19497446        1      -0.24096161      -0.29393144      -0.99601091
I        2.86737748       3.00441182      -0.05615728        2       0.02999039      -0.02194285      -0.11551166
Br       3.15625255      -0.01031487       2.89461056        3       0.00885419      -0.16078284       0.04197221
Cl      -0.04232258       2.97832239       3.05168394        4       0.08852643       0.01419372       0.07639954
Cs       0.09129894       0.06980773       5.86339105        5      -0.04262580       0.01816287      -0.04906363
Pb       2.97921256       2.77013823       8.58760049        6       0.06651167       0.42747957       0.70970395
Cl       2.85928653       2.78367003       5.81669080        7      -0.06047156      -0.09230780       0.52396905
Cl       3.06857202      -0.09165933       8.70671405        8       0.00293272       0.40103325      -0.04251079
Cl      -0.11418485       3.01723188       8.88640110        9       0.35016689       0.00470437      -0.09043314
Cs      11.52463376       5.83758893      11.54935537       10      -0.00386031      -0.10762401       0.01471186
Pb       3.06228275       8.61553351       2.79694406       11       0.10171383       0.38247208       0.04465701
Cl       3.28091178       8.73721074      -0.05583678       12      -0.04470777      -0.03442020       0.41553180
Cl       3.09432825       5.82606665       3.16348913       13      -0.01369955       0.22507221       0.04424848
I       11.55833372       8.84068709       2.90536319       14       1.56861479      -0.04074075      -0.05146135
Cs      -0.04902150       5.69590798       5.96008687       15      -0.04883473      -0.00482895       0.00395858
Pb       3.05686029       8.81567736       8.87236432       16      -0.15049398      -0.48573347       0.13116405
Br       3.23226894       8.80295182       6.00011823       17       0.00116304       0.04063316      -0.53331670
Cl       3.05110266       5.91992567       8.73322078       18      -0.05112628      -0.22636131      -0.07808700
Br      11.68432878       8.57543037       8.96346778       19      -0.04741201       0.03049940      -0.01248462
Cs       5.89745117      11.68771736       0.00450204       20      -0.06412990      -0.05334965       0.01864837
Pb       8.59833322       2.92414101       2.96001112       21       0.43112596       0.43689528      -0.05727874
Cl       8.75416410       3.22855505      11.86359968       22      -0.03714428      -0.10077224       0.00628990
Br       8.84227312      -0.00348656       2.86203665       23      -0.11318738      -0.15400236      -0.00407388
Cl       5.81168010       3.13747207       3.20539594       24      -0.09194467      -0.10741844       0.06764926
Cs       5.74702429       0.16336686       5.90196805       25       0.01816194      -0.07249479      -0.02697678
Pb       8.77620613       3.07452505       8.78536510       26      -0.03291308      -0.03613529       0.04870025
Cl       8.90883248       3.10476088       5.88710737       27      -0.03585446      -0.01744605       0.04372735
I        8.75561622      11.89279610       8.77575207       28      -0.02170878      -1.24771965       0.05606970
Cl       5.82578318       3.06714139       8.73102747       29      -0.30334847      -0.09783985      -0.12961588
Cs       5.87432639       5.86155633      11.84895203       30       0.01289072      -0.00810600      -0.03914125
Pb       8.62668515       8.69952356       3.03410446       31       0.02894201      -0.28077146       0.29577860
Br       8.65481059       8.64776529       0.05533858       32       0.02463807       0.00292879       0.09228837
Cl       8.51299059       5.77994480       3.07036036       33       0.05380304       0.17285636      -0.00026927
Cl       6.08167642       8.70748146       2.80977477       34      -1.64338506       0.04412489      -0.10733373
Cs       5.90171850       5.81612928       5.94675490       35       0.01713776       0.03193356       0.02451255
Pb       8.66985016       8.58565023       9.01143846       36       0.05594753       0.09527783      -0.35245591
Br       8.56668829       8.64120395       6.03216909       37      -0.00693416      -0.00350981      -0.07307318
Cl       8.68726453       5.69066313       8.94892088       38      -0.00928965       1.22604135       0.03460448
Cl       5.81570315       8.64117311       9.06037422       39       0.19505391       0.01888510       0.02069194
