Cs Pb I  Cs Pb I  Cs Pb Br I  Cs Pb I  Br I  Cs Pb I  Br Cs Pb I  Cs Pb I  Br I  Cs Pb I  Br
 1.0000000000000000
    13.3228817070482162    0.0000000000000000    0.0000000000000000
     0.0000000000000000   13.3228817070482162    0.0000000000000000
     0.0000000000000000    0.0000000000000000   13.3228817070482162
 Cs  Pb  I   Cs  Pb  I   Cs  Pb  Br  I   Cs  Pb  I   Br  I   Cs  Pb  I   Br  Cs  Pb  I   Cs  Pb  I   Br  I   Cs  Pb  I   Br 
   1   1   3   1   1   3   1   1   2   1   1   1   1   1   1   1   1   2   1   1   1   3   1   1   1   1   1   1   1   2   1
Cartesian
  0.0000000000000000  0.0000000000000000  0.0000000000000000
  3.3307204267620540  3.3307204267620540  3.3307204267620540
  3.3307204267620540  3.3307204267620540  0.0000000000000000
  3.3307204267620540  0.0000000000000000  3.3307204267620540
  0.0000000000000000  3.3307204267620540  3.3307204267620540
  0.0000000000000000  0.0000000000000000  6.6614408535241072
  3.3307204267620540  3.3307204267620540  9.9921612802861617
  3.3307204267620540  3.3307204267620540  6.6614408535241072
  3.3307204267620540  0.0000000000000000  9.9921612802861617
  0.0000000000000000  3.3307204267620540  9.9921612802861617
  0.0000000000000000  6.6614408535241072  0.0000000000000000
  3.3307204267620540  9.9921612802861617  3.3307204267620540
  3.3307204267620540  9.9921612802861617  0.0000000000000000
  3.3307204267620540  6.6614408535241072  3.3307204267620540
  0.0000000000000000  9.9921612802861617  3.3307204267620540
  0.0000000000000000  6.6614408535241072  6.6614408535241072
  3.3307204267620540  9.9921612802861617  9.9921612802861617
  3.3307204267620540  9.9921612802861617  6.6614408535241072
  3.3307204267620540  6.6614408535241072  9.9921612802861617
  0.0000000000000000  9.9921612802861617  9.9921612802861617
  6.6614408535241072  0.0000000000000000  0.0000000000000000
  9.9921612802861617  3.3307204267620540  3.3307204267620540
  9.9921612802861617  3.3307204267620540  0.0000000000000000
  9.9921612802861617  0.0000000000000000  3.3307204267620540
  6.6614408535241072  3.3307204267620540  3.3307204267620540
  6.6614408535241072  0.0000000000000000  6.6614408535241072
  9.9921612802861617  3.3307204267620540  9.9921612802861617
  9.9921612802861617  3.3307204267620540  6.6614408535241072
  9.9921612802861617  0.0000000000000000  9.9921612802861617
  6.6614408535241072  3.3307204267620540  9.9921612802861617
  6.6614408535241072  6.6614408535241072  0.0000000000000000
  9.9921612802861617  9.9921612802861617  3.3307204267620540
  9.9921612802861617  9.9921612802861617  0.0000000000000000
  9.9921612802861617  6.6614408535241072  3.3307204267620540
  6.6614408535241072  9.9921612802861617  3.3307204267620540
  6.6614408535241072  6.6614408535241072  6.6614408535241072
  9.9921612802861617  9.9921612802861617  9.9921612802861617
  9.9921612802861617  9.9921612802861617  6.6614408535241072
  9.9921612802861617  6.6614408535241072  9.9921612802861617
  6.6614408535241072  9.9921612802861617  9.9921612802861617
