Cs Pb I  Cs Pb I  Cs Pb I  Cs Pb I  Cs Pb I  Cs Pb I  Cs Sn I  Cs Pb I 
 1.0000000000000000
    13.5546713099211651    0.0000000000000000    0.0000000000000000
     0.0000000000000000   13.5546713099211651    0.0000000000000000
     0.0000000000000000    0.0000000000000000   13.5546713099211651
 Cs  Pb  I   Cs  Pb  I   Cs  Pb  I   Cs  Pb  I   Cs  Pb  I   Cs  Pb  I   Cs  Sn  I   Cs  Pb  I  
   1   1   3   1   1   3   1   1   3   1   1   3   1   1   3   1   1   3   1   1   3   1   1   3
Cartesian
  0.0000000000000000  0.0000000000000000  0.0000000000000000
  3.3886678274802913  3.3886678274802913  3.3886678274802913
  3.3886678274802913  3.3886678274802913  0.0000000000000000
  3.3886678274802913  0.0000000000000000  3.3886678274802913
  0.0000000000000000  3.3886678274802913  3.3886678274802913
  0.0000000000000000  0.0000000000000000  6.7773356549605817
  3.3886678274802913  3.3886678274802913 10.1660034824408747
  3.3886678274802913  3.3886678274802913  6.7773356549605817
  3.3886678274802913  0.0000000000000000 10.1660034824408747
  0.0000000000000000  3.3886678274802913 10.1660034824408747
  0.0000000000000000  6.7773356549605817  0.0000000000000000
  3.3886678274802913 10.1660034824408747  3.3886678274802913
  3.3886678274802913 10.1660034824408747  0.0000000000000000
  3.3886678274802913  6.7773356549605817  3.3886678274802913
  0.0000000000000000 10.1660034824408747  3.3886678274802913
  0.0000000000000000  6.7773356549605817  6.7773356549605817
  3.3886678274802913 10.1660034824408747 10.1660034824408747
  3.3886678274802913 10.1660034824408747  6.7773356549605817
  3.3886678274802913  6.7773356549605817 10.1660034824408747
  0.0000000000000000 10.1660034824408747 10.1660034824408747
  6.7773356549605817  0.0000000000000000  0.0000000000000000
 10.1660034824408747  3.3886678274802913  3.3886678274802913
 10.1660034824408747  3.3886678274802913  0.0000000000000000
 10.1660034824408747  0.0000000000000000  3.3886678274802913
  6.7773356549605817  3.3886678274802913  3.3886678274802913
  6.7773356549605817  0.0000000000000000  6.7773356549605817
 10.1660034824408747  3.3886678274802913 10.1660034824408747
 10.1660034824408747  3.3886678274802913  6.7773356549605817
 10.1660034824408747  0.0000000000000000 10.1660034824408747
  6.7773356549605817  3.3886678274802913 10.1660034824408747
  6.7773356549605817  6.7773356549605817  0.0000000000000000
 10.1660034824408747 10.1660034824408747  3.3886678274802913
 10.1660034824408747 10.1660034824408747  0.0000000000000000
 10.1660034824408747  6.7773356549605817  3.3886678274802913
  6.7773356549605817 10.1660034824408747  3.3886678274802913
  6.7773356549605817  6.7773356549605817  6.7773356549605817
 10.1660034824408747 10.1660034824408747 10.1660034824408747
 10.1660034824408747 10.1660034824408747  6.7773356549605817
 10.1660034824408747  6.7773356549605817 10.1660034824408747
  6.7773356549605817 10.1660034824408747 10.1660034824408747
