Cs Sn Cl Cs Pb Cl Cs Sn Cl Cs Sn Cl Cs Sn Cl Cs Pb Cl Cs Sn Cl Cs Sn Cl
 1.0000000000000000
    11.9700450132821139    0.0000000000000000    0.0000000000000000
     0.0000000000000000   11.9700450132821139    0.0000000000000000
     0.0000000000000000    0.0000000000000000   11.9700450132821139
 Cs  Sn  Cl  Cs  Pb  Cl  Cs  Sn  Cl  Cs  Sn  Cl  Cs  Sn  Cl  Cs  Pb  Cl  Cs  Sn  Cl  Cs  Sn  Cl 
   1   1   3   1   1   3   1   1   3   1   1   3   1   1   3   1   1   3   1   1   3   1   1   3
Cartesian
  0.0000000000000000  0.0000000000000000  0.0000000000000000
  2.9925112533205285  2.9925112533205285  2.9925112533205285
  2.9925112533205285  2.9925112533205285  0.0000000000000000
  2.9925112533205285  0.0000000000000000  2.9925112533205285
  0.0000000000000000  2.9925112533205285  2.9925112533205285
  0.0000000000000000  0.0000000000000000  5.9850225066410561
  2.9925112533205285  2.9925112533205285  8.9775337599615845
  2.9925112533205285  2.9925112533205285  5.9850225066410561
  2.9925112533205285  0.0000000000000000  8.9775337599615845
  0.0000000000000000  2.9925112533205285  8.9775337599615845
  0.0000000000000000  5.9850225066410561  0.0000000000000000
  2.9925112533205285  8.9775337599615845  2.9925112533205285
  2.9925112533205285  8.9775337599615845  0.0000000000000000
  2.9925112533205285  5.9850225066410561  2.9925112533205285
  0.0000000000000000  8.9775337599615845  2.9925112533205285
  0.0000000000000000  5.9850225066410561  5.9850225066410561
  2.9925112533205285  8.9775337599615845  8.9775337599615845
  2.9925112533205285  8.9775337599615845  5.9850225066410561
  2.9925112533205285  5.9850225066410561  8.9775337599615845
  0.0000000000000000  8.9775337599615845  8.9775337599615845
  5.9850225066410561  0.0000000000000000  0.0000000000000000
  8.9775337599615845  2.9925112533205285  2.9925112533205285
  8.9775337599615845  2.9925112533205285  0.0000000000000000
  8.9775337599615845  0.0000000000000000  2.9925112533205285
  5.9850225066410561  2.9925112533205285  2.9925112533205285
  5.9850225066410561  0.0000000000000000  5.9850225066410561
  8.9775337599615845  2.9925112533205285  8.9775337599615845
  8.9775337599615845  2.9925112533205285  5.9850225066410561
  8.9775337599615845  0.0000000000000000  8.9775337599615845
  5.9850225066410561  2.9925112533205285  8.9775337599615845
  5.9850225066410561  5.9850225066410561  0.0000000000000000
  8.9775337599615845  8.9775337599615845  2.9925112533205285
  8.9775337599615845  8.9775337599615845  0.0000000000000000
  8.9775337599615845  5.9850225066410561  2.9925112533205285
  5.9850225066410561  8.9775337599615845  2.9925112533205285
  5.9850225066410561  5.9850225066410561  5.9850225066410561
  8.9775337599615845  8.9775337599615845  8.9775337599615845
  8.9775337599615845  8.9775337599615845  5.9850225066410561
  8.9775337599615845  5.9850225066410561  8.9775337599615845
  5.9850225066410561  8.9775337599615845  8.9775337599615845
