Cs Sn I  Cs Sn I  Cs Sn Br I  Cs Sn I  Br I  Cs Sn I  Br Cs Sn I  Cs Sn I  Br I  Cs Sn I 
 1.0000000000000000
    13.3275486118040458    0.0000000000000000    0.0000000000000000
     0.0000000000000000   13.3275486118040458    0.0000000000000000
     0.0000000000000000    0.0000000000000000   13.3275486118040458
 Cs  Sn  I   Cs  Sn  I   Cs  Sn  Br  I   Cs  Sn  I   Br  I   Cs  Sn  I   Br  Cs  Sn  I   Cs  Sn  I   Br  I   Cs  Sn  I  
   1   1   3   1   1   3   1   1   2   1   1   1   1   1   1   1   1   2   1   1   1   3   1   1   1   1   1   1   1   3
Cartesian
  0.0000000000000000  0.0000000000000000  0.0000000000000000
  3.3318871529510106  3.3318871529510106  3.3318871529510106
  3.3318871529510106  3.3318871529510106  0.0000000000000000
  3.3318871529510106  0.0000000000000000  3.3318871529510106
  0.0000000000000000  3.3318871529510106  3.3318871529510106
  0.0000000000000000  0.0000000000000000  6.6637743059020220
  3.3318871529510106  3.3318871529510106  9.9956614588530321
  3.3318871529510106  3.3318871529510106  6.6637743059020220
  3.3318871529510106  0.0000000000000000  9.9956614588530321
  0.0000000000000000  3.3318871529510106  9.9956614588530321
  0.0000000000000000  6.6637743059020220  0.0000000000000000
  3.3318871529510106  9.9956614588530321  3.3318871529510106
  3.3318871529510106  9.9956614588530321  0.0000000000000000
  3.3318871529510106  6.6637743059020220  3.3318871529510106
  0.0000000000000000  9.9956614588530321  3.3318871529510106
  0.0000000000000000  6.6637743059020220  6.6637743059020220
  3.3318871529510106  9.9956614588530321  9.9956614588530321
  3.3318871529510106  9.9956614588530321  6.6637743059020220
  3.3318871529510106  6.6637743059020220  9.9956614588530321
  0.0000000000000000  9.9956614588530321  9.9956614588530321
  6.6637743059020220  0.0000000000000000  0.0000000000000000
  9.9956614588530321  3.3318871529510106  3.3318871529510106
  9.9956614588530321  3.3318871529510106  0.0000000000000000
  9.9956614588530321  0.0000000000000000  3.3318871529510106
  6.6637743059020220  3.3318871529510106  3.3318871529510106
  6.6637743059020220  0.0000000000000000  6.6637743059020220
  9.9956614588530321  3.3318871529510106  9.9956614588530321
  9.9956614588530321  3.3318871529510106  6.6637743059020220
  9.9956614588530321  0.0000000000000000  9.9956614588530321
  6.6637743059020220  3.3318871529510106  9.9956614588530321
  6.6637743059020220  6.6637743059020220  0.0000000000000000
  9.9956614588530321  9.9956614588530321  3.3318871529510106
  9.9956614588530321  9.9956614588530321  0.0000000000000000
  9.9956614588530321  6.6637743059020220  3.3318871529510106
  6.6637743059020220  9.9956614588530321  3.3318871529510106
  6.6637743059020220  6.6637743059020220  6.6637743059020220
  9.9956614588530321  9.9956614588530321  9.9956614588530321
  9.9956614588530321  9.9956614588530321  6.6637743059020220
  9.9956614588530321  6.6637743059020220  9.9956614588530321
  6.6637743059020220  9.9956614588530321  9.9956614588530321
