Cs Sn Br Cs Sn Br Cs Sn Br Cs Sn Br Cs Sn Br Cs Sn Br Cs Ge Br Cs Sn Br
 1.0000000000000000
    12.2264419321403555    0.0000000000000000    0.0000000000000000
     0.0000000000000000   12.2264419321403555    0.0000000000000000
     0.0000000000000000    0.0000000000000000   12.2264419321403555
 Cs  Sn  Br  Cs  Sn  Br  Cs  Sn  Br  Cs  Sn  Br  Cs  Sn  Br  Cs  Sn  Br  Cs  Ge  Br  Cs  Sn  Br 
   1   1   3   1   1   3   1   1   3   1   1   3   1   1   3   1   1   3   1   1   3   1   1   3
Cartesian
  0.0000000000000000  0.0000000000000000  0.0000000000000000
  3.0566104830350880  3.0566104830350880  3.0566104830350880
  3.0566104830350880  3.0566104830350880  0.0000000000000000
  3.0566104830350880  0.0000000000000000  3.0566104830350880
  0.0000000000000000  3.0566104830350880  3.0566104830350880
  0.0000000000000000  0.0000000000000000  6.1132209660701768
  3.0566104830350880  3.0566104830350880  9.1698314491052670
  3.0566104830350880  3.0566104830350880  6.1132209660701768
  3.0566104830350880  0.0000000000000000  9.1698314491052670
  0.0000000000000000  3.0566104830350880  9.1698314491052670
  0.0000000000000000  6.1132209660701768  0.0000000000000000
  3.0566104830350880  9.1698314491052670  3.0566104830350880
  3.0566104830350880  9.1698314491052670  0.0000000000000000
  3.0566104830350880  6.1132209660701768  3.0566104830350880
  0.0000000000000000  9.1698314491052670  3.0566104830350880
  0.0000000000000000  6.1132209660701768  6.1132209660701768
  3.0566104830350880  9.1698314491052670  9.1698314491052670
  3.0566104830350880  9.1698314491052670  6.1132209660701768
  3.0566104830350880  6.1132209660701768  9.1698314491052670
  0.0000000000000000  9.1698314491052670  9.1698314491052670
  6.1132209660701768  0.0000000000000000  0.0000000000000000
  9.1698314491052670  3.0566104830350880  3.0566104830350880
  9.1698314491052670  3.0566104830350880  0.0000000000000000
  9.1698314491052670  0.0000000000000000  3.0566104830350880
  6.1132209660701768  3.0566104830350880  3.0566104830350880
  6.1132209660701768  0.0000000000000000  6.1132209660701768
  9.1698314491052670  3.0566104830350880  9.1698314491052670
  9.1698314491052670  3.0566104830350880  6.1132209660701768
  9.1698314491052670  0.0000000000000000  9.1698314491052670
  6.1132209660701768  3.0566104830350880  9.1698314491052670
  6.1132209660701768  6.1132209660701768  0.0000000000000000
  9.1698314491052670  9.1698314491052670  3.0566104830350880
  9.1698314491052670  9.1698314491052670  0.0000000000000000
  9.1698314491052670  6.1132209660701768  3.0566104830350880
  6.1132209660701768  9.1698314491052670  3.0566104830350880
  6.1132209660701768  6.1132209660701768  6.1132209660701768
  9.1698314491052670  9.1698314491052670  9.1698314491052670
  9.1698314491052670  9.1698314491052670  6.1132209660701768
  9.1698314491052670  6.1132209660701768  9.1698314491052670
  6.1132209660701768  9.1698314491052670  9.1698314491052670
