40
Lattice="12.39830221092411 0.0 0.0 0.007824880177206233 12.273295888732159 0.0 -0.000581470554747718 0.007904949087704042 12.39829967725697" Properties=species:S:1:pos:R:3:spacegroup_kinds:I:1:forces:R:3 spacegroup="P 1" unit_cell=conventional occupancy="_JSON {\"0\": {\"Cs\": 1.0}, \"1\": {\"Sn\": 1.0}, \"2\": {\"I\": 1.0}, \"3\": {\"I\": 1.0}, \"4\": {\"I\": 1.0}, \"5\": {\"Cs\": 1.0}, \"6\": {\"Sn\": 1.0}, \"7\": {\"I\": 1.0}, \"8\": {\"I\": 1.0}, \"9\": {\"I\": 1.0}, \"10\": {\"Cs\": 1.0}, \"11\": {\"Sn\": 1.0}, \"12\": {\"Cl\": 1.0}, \"13\": {\"Cl\": 1.0}, \"14\": {\"I\": 1.0}, \"15\": {\"Cs\": 1.0}, \"16\": {\"Sn\": 1.0}, \"17\": {\"I\": 1.0}, \"18\": {\"Cl\": 1.0}, \"19\": {\"I\": 1.0}, \"20\": {\"Cs\": 1.0}, \"21\": {\"Sn\": 1.0}, \"22\": {\"I\": 1.0}, \"23\": {\"I\": 1.0}, \"24\": {\"Cl\": 1.0}, \"25\": {\"Cs\": 1.0}, \"26\": {\"Sn\": 1.0}, \"27\": {\"I\": 1.0}, \"28\": {\"I\": 1.0}, \"29\": {\"I\": 1.0}, \"30\": {\"Cs\": 1.0}, \"31\": {\"Sn\": 1.0}, \"32\": {\"I\": 1.0}, \"33\": {\"Cl\": 1.0}, \"34\": {\"I\": 1.0}, \"35\": {\"Cs\": 1.0}, \"36\": {\"Sn\": 1.0}, \"37\": {\"I\": 1.0}, \"38\": {\"I\": 1.0}, \"39\": {\"I\": 1.0}}" candidate_id=3942c28cb5a3a260 formula=FASnCl0.22I0.783 config_index=0 rattle_stdev=0.0 method=PBE fidelity=phase2_force energy=-117.5827634662892 stress="-0.0014727971765775753 -1.081360695409023e-05 6.3295793826817585e-06 -1.081360695409023e-05 0.0012909460774946965 -1.2580607176861191e-05 6.3295793826817585e-06 -1.2580607176861191e-05 -0.0014726880804219044" pbc="T T T"
Cs       0.05619094       0.04142196       0.10274798        0      -0.00250695       0.00861711      -0.00905885
Sn       3.23451057       3.36438917       3.07731427        1      -0.21302438      -0.18181091       0.00664113
I        3.19042460       3.25279402       0.01514710        2       0.01514194      -0.00937052      -0.07079365
I        3.18465136       0.00192190       3.01435776        3       0.00487716       0.00000257      -0.00487613
I        0.17354965       3.27993714       3.09671564        4       0.05032762       0.03338642       0.00351552
Cs       0.11051687      12.27718271       6.09617197        5      -0.00177342       0.00000251       0.00177056
Sn       3.11709963       3.43765250       9.30595275        6      -0.01636563      -0.19998384       0.02016378
I        3.18821587       3.30741756       6.17786712        7       0.01510378       0.00672296       0.06413687
I        3.10077097      12.09870555       9.48364109        8       0.00099967       0.01201463       0.03191005
I        0.02882484       3.16371502       9.29857112        9      -0.12297530      -0.01984605      -0.00667689
Cs       0.07099331       6.12121002       0.03846910       10      -0.00734801      -0.00398087      -0.02681614
Sn       3.12737823       8.91276024       2.96663934       11      -0.00618246       0.18194900       0.21296403
Cl       3.11298633       8.92329076      12.26661810       12      -0.00245066      -0.04766546       0.04867410
Cl       3.25025921       6.13853051       2.95266525       13       0.01668098      -0.00001074      -0.01667951
I        0.02686016       8.97173812       3.01275102       14      -0.06415197      -0.00669303      -0.01510205
Cs       0.04361714       6.14057492       6.15915628       15      -0.02177849       0.00001309       0.02178186
Sn       3.10495737       9.04947150       9.66707028       16       0.00062087       0.16829132      -0.16038354
I        3.10788715       8.99917623       6.02754487       17      -0.00353960      -0.03342392      -0.05034143
Cl       3.10890780       6.00564766       9.40368992       18      -0.00998506       0.07868804       0.00155963
I        0.05084303       9.11436847       9.41612307       19      -0.22525001      -0.01944773      -0.02087961
Cs       6.15487999      12.27332910       0.05209354       20       0.01035779      -0.00000545      -0.01035305
Sn       8.93229499       3.23196414       3.09950532       21       0.16041903      -0.16838621      -0.00008990
I        9.18415405       3.17233201       0.04541493       22       0.02276564       0.01224900      -0.22550792
I        9.11377980       0.18261705       3.10564444       23      -0.03191244      -0.01199199      -0.00099706
Cl       6.33282852       3.35979706       3.09127294       24      -0.04850048       0.04769061       0.00237774
Cs       6.10391352      12.23585610       6.14298045       25       0.00904857      -0.00861803       0.00251881
Sn       9.28915322       3.09306985       9.29628130       26      -0.02089961       0.01097443      -0.00401626
I        9.18305754       3.16885446       6.15367228       27       0.02088692       0.01957987       0.22524030
I        9.30814442      12.27922331       9.29669587       28       0.00205338      -0.00000060      -0.00204663
I        6.17128762       3.18003825       9.29631864       29       0.12957764      -0.02765634      -0.00617003
Cs       6.13294623       6.13669265       0.07011401       30       0.01266992      -0.00000828      -0.01266675
Sn       9.29699102       8.84354289       3.08380230       31      -0.02041241       0.20000554       0.01662000
I        9.30693261       9.09920359       0.02945115       32       0.00621851       0.02756770      -0.12959448
Cl       9.19761617       6.27561631       3.09362674       33      -0.00164956      -0.07868298       0.00999218
I        6.18961385       9.02243116       3.01079900       34       0.07080006       0.00932229      -0.01514929
Cs       6.16431671       6.15602009       6.13205732       35       0.02682198       0.00396484       0.00735794
Sn       9.30659016       9.19208898       9.30983042       36       0.00365095      -0.01096094       0.02052916
I        9.30440246       9.11944459       6.17190216       37       0.00669063       0.01992219       0.12295672
I        9.30582798       6.14257435       9.29509994       38       0.01224917      -0.00000822      -0.01222401
I        6.15909696       9.10699589       9.41531773       39       0.22550237      -0.01240969      -0.02274798
40
Lattice="12.39830221092411 0.0 0.0 0.007824880177206233 12.273295888732159 0.0 -0.000581470554747718 0.007904949087704042 12.39829967725697" Properties=species:S:1:pos:R:3:spacegroup_kinds:I:1:forces:R:3 spacegroup="P 1" unit_cell=conventional occupancy="_JSON {\"0\": {\"Cs\": 1.0}, \"1\": {\"Sn\": 1.0}, \"2\": {\"I\": 1.0}, \"3\": {\"I\": 1.0}, \"4\": {\"I\": 1.0}, \"5\": {\"Cs\": 1.0}, \"6\": {\"Sn\": 1.0}, \"7\": {\"I\": 1.0}, \"8\": {\"I\": 1.0}, \"9\": {\"I\": 1.0}, \"10\": {\"Cs\": 1.0}, \"11\": {\"Sn\": 1.0}, \"12\": {\"Cl\": 1.0}, \"13\": {\"Cl\": 1.0}, \"14\": {\"I\": 1.0}, \"15\": {\"Cs\": 1.0}, \"16\": {\"Sn\": 1.0}, \"17\": {\"I\": 1.0}, \"18\": {\"Cl\": 1.0}, \"19\": {\"I\": 1.0}, \"20\": {\"Cs\": 1.0}, \"21\": {\"Sn\": 1.0}, \"22\": {\"I\": 1.0}, \"23\": {\"I\": 1.0}, \"24\": {\"Cl\": 1.0}, \"25\": {\"Cs\": 1.0}, \"26\": {\"Sn\": 1.0}, \"27\": {\"I\": 1.0}, \"28\": {\"I\": 1.0}, \"29\": {\"I\": 1.0}, \"30\": {\"Cs\": 1.0}, \"31\": {\"Sn\": 1.0}, \"32\": {\"I\": 1.0}, \"33\": {\"Cl\": 1.0}, \"34\": {\"I\": 1.0}, \"35\": {\"Cs\": 1.0}, \"36\": {\"Sn\": 1.0}, \"37\": {\"I\": 1.0}, \"38\": {\"I\": 1.0}, \"39\": {\"I\": 1.0}}" candidate_id=3942c28cb5a3a260 formula=FASnCl0.22I0.783 config_index=1 rattle_stdev=0.08 method=PBE fidelity=phase2_force energy=-117.01507473236593 stress="-0.0027635768544705024 -0.0002448433818432345 4.925426786331752e-05 -0.0002448433818432345 0.0005418753139041317 5.332422978859614e-05 4.925426786331752e-05 5.332422978859614e-05 -0.0030912652336609493" pbc="T T T"
Cs      -0.03072477      -0.03026325       0.07824403        0      -0.01070457       0.04330033       0.01813705
Sn       3.12731587       3.26786232       3.02597612        1      -0.10247922       0.01420980       0.31450161
I        3.29506025       3.40043085       0.08147630        2      -0.10296552      -0.14642700      -0.14097662
I        3.18278745      -0.01476321       2.94102818        3      -0.03482654       0.04827138      -0.00224305
I        0.08757024       3.27304566       3.19078272        4       0.15684680       0.01332485      -0.05012964
Cs      -0.02029047      12.37543823       6.18228287        5       0.05537813       0.03007439      -0.03630240
Sn       3.14868146       3.40663643       9.35302489        6       0.04462964      -0.48368828      -0.14701633
I        3.07355197       3.28153158       6.27810589        7       0.07146982       0.02107107      -0.05774207
I        3.04231156      12.21298436       9.55921340        8       0.00942361      -0.29361772      -0.03208431
I        0.00770462       3.15065795       9.22144254        9      -0.02924018      -0.02705190       0.02283354
Cs       0.04358153       6.12512234      -0.00150146       10      -0.00860873      -0.03504925       0.00896615
Sn       2.95042587       8.93754719       2.83946723       11       0.91071084      -0.05540147       0.08339843
Cl       3.17134270       8.91465866      12.21460438       12      -0.05700986      -0.06530283      -0.15991295
Cl       3.11481469       6.10905259       2.82543552       13      -0.01109243       0.06433913       0.04371274
I        0.14530063       9.00969333       3.08586013       14      -0.91604618       0.00994201       0.01658264
Cs       0.12045476       6.14733833       6.29653476       15       0.00320253      -0.02029813      -0.00745696
Sn       3.17310878       8.98908068       9.48405993       16       0.21272540       0.39788926       0.17466494
I        3.11662624       8.96316358       5.99450707       17      -0.02357992      -0.00830072       0.05827433
Cl       3.13442651       5.96235902       9.47958324       18      -0.02574659       0.44460417      -0.04339563
I        0.06295783       9.12052066       9.41137103       19       0.02119119       0.00287336      -0.02993209
Cs       6.14926890      12.22803718       0.07697397       20       0.01269993       0.00208153       0.00044560
Sn       8.99023170       3.27328014       3.18158777       21       0.02228059      -0.26211088      -0.65666009
I        9.22576626       3.10274492       0.16546015       22       0.06249715       0.07214001      -0.62751373
I        9.20709758       0.22197021       3.04706346       23      -0.04189666      -0.07495397       0.15906393
Cl       6.38725301       3.40051681       3.02427004       24      -0.12029906       0.03740232       0.07133002
Cs       6.15572511      12.23685926       6.26774758       25      -0.04517264      -0.02079264      -0.02035095
Sn       9.37192085       3.12008526       9.19207247       26      -0.16600159       0.29409036       0.28926631
I        9.09357399       3.27361567       6.11221492       27       0.03420328      -0.03835618       0.75895036
I        9.27669447      12.36266079       9.30267309       28       0.02094816      -0.20106576      -0.03998986
I        6.17844258       3.18435084       9.32979440       29       0.08267597      -0.01067970      -0.01496207
Cs       6.03472783       6.04952932       0.09548396       30       0.09671964       0.09489811       0.02761026
Sn       9.23455857       8.77505241       2.97821259       31      -0.19776460       0.60225260       0.32523423
I        9.34323514       9.17934558       0.14254993       32       0.02044783       0.00610612      -0.47989361
Cl       9.18240154       6.27802516       2.94375340       33       0.01447141      -0.37350403      -0.02664903
I        6.18027170       9.01223194       3.08297374       34       0.29263920      -0.01809699      -0.01691203
Cs       6.05916694       6.14805604       6.14330130       35      -0.00044718      -0.00098444      -0.00381540
Sn       9.51689463       9.33255129       9.09897860       36      -0.40999153      -0.31725941       0.79970634
I        9.20147090       9.10570681       6.31593846       37       0.04290927       0.08377415      -0.69459504
I        9.35452363       6.14509639       9.17778697       38       0.00465288       0.20021988       0.08899963
I        6.18385222       9.19837332       9.37445019       39       0.11206561      -0.02560681       0.02379541
40
Lattice="12.39830221092411 0.0 0.0 0.007824880177206233 12.273295888732159 0.0 -0.000581470554747718 0.007904949087704042 12.39829967725697" Properties=species:S:1:pos:R:3:spacegroup_kinds:I:1:forces:R:3 spacegroup="P 1" unit_cell=conventional occupancy="_JSON {\"0\": {\"Cs\": 1.0}, \"1\": {\"Sn\": 1.0}, \"2\": {\"I\": 1.0}, \"3\": {\"I\": 1.0}, \"4\": {\"I\": 1.0}, \"5\": {\"Cs\": 1.0}, \"6\": {\"Sn\": 1.0}, \"7\": {\"I\": 1.0}, \"8\": {\"I\": 1.0}, \"9\": {\"I\": 1.0}, \"10\": {\"Cs\": 1.0}, \"11\": {\"Sn\": 1.0}, \"12\": {\"Cl\": 1.0}, \"13\": {\"Cl\": 1.0}, \"14\": {\"I\": 1.0}, \"15\": {\"Cs\": 1.0}, \"16\": {\"Sn\": 1.0}, \"17\": {\"I\": 1.0}, \"18\": {\"Cl\": 1.0}, \"19\": {\"I\": 1.0}, \"20\": {\"Cs\": 1.0}, \"21\": {\"Sn\": 1.0}, \"22\": {\"I\": 1.0}, \"23\": {\"I\": 1.0}, \"24\": {\"Cl\": 1.0}, \"25\": {\"Cs\": 1.0}, \"26\": {\"Sn\": 1.0}, \"27\": {\"I\": 1.0}, \"28\": {\"I\": 1.0}, \"29\": {\"I\": 1.0}, \"30\": {\"Cs\": 1.0}, \"31\": {\"Sn\": 1.0}, \"32\": {\"I\": 1.0}, \"33\": {\"Cl\": 1.0}, \"34\": {\"I\": 1.0}, \"35\": {\"Cs\": 1.0}, \"36\": {\"Sn\": 1.0}, \"37\": {\"I\": 1.0}, \"38\": {\"I\": 1.0}, \"39\": {\"I\": 1.0}}" candidate_id=3942c28cb5a3a260 formula=FASnCl0.22I0.783 config_index=2 rattle_stdev=0.08 method=PBE fidelity=phase2_force energy=-116.95867990063174 stress="-0.0036116657012672674 -0.00017744975645857207 0.00010619747691565513 -0.00017744975645857207 -0.0021490486013670197 4.2188832205953614e-05 0.00010619747691565513 4.2188832205953614e-05 -0.0028410036838662236" pbc="T T T"
Cs       0.04717390      -0.04470316       0.24555013        0      -0.00014189       0.00666216      -0.06826261
Sn       3.11795190       3.33828351       2.97652255        1       0.91487236      -0.01286005       0.26632899
I        3.22049392       3.18254223      -0.01285096        2      -0.04522269       0.03567699      -0.14905621
I        3.20838417       0.09799486       2.88883814        3      -0.05827454      -0.40194503       0.06312482
I        0.32187195       3.31945408       3.08625873        4      -1.11655239       0.01441440      -0.02447706
Cs       0.07826721      12.19928973       6.05877462        5      -0.01561057      -0.01469803       0.04718684
Sn       3.05966592       3.53536396       9.24377674        6       0.41341644      -0.95183226      -0.04221287
I        3.14113382       3.30280805       6.18423351        7       0.02650320      -0.04738607      -0.00943970
I        3.00611488      11.97480616       9.55662158        8       0.01138489       0.76869043       0.04846515
I        0.06183850       3.10805350       9.11546937        9      -0.29264866      -0.00218329       0.04379578
Cs       0.00801399       6.03892869       0.04593375       10       0.01692718       0.02227553      -0.07191720
Sn       3.08504269       8.97517983       2.95057416       11       0.30457490      -0.04606409       0.37344770
Cl       3.07453764       8.84046979      12.22639935       12       0.00279338      -0.03405854       0.51864627
Cl       3.31345043       6.06453070       3.12946808       13      -0.04217986       0.38783851      -0.14648921
I       -0.08515873       8.95261033       3.03013828       14       0.50670440      -0.00691041       0.01797926
Cs       0.01542632       6.14744496       6.16768844       15      -0.02058326       0.02015872       0.03769569
Sn       3.08919487       9.15722621       9.69468419       16       0.04657059      -0.58045803      -0.47927113
I        3.15249870       8.95155341       6.08617145       17      -0.06971594       0.07924540      -0.33392850
Cl       3.21540802       5.94724502       9.36482946       18      -0.04405725       0.79351693       0.02682484
I        0.13699616       8.90673988       9.42947732       19      -0.33587726      -0.03776758      -0.01642347
Cs       6.23799676      12.12864319       0.11278482       20      -0.00821372       0.03701638      -0.05737314
Sn       8.89228597       3.04442069       3.09087190       21      -0.02417332       0.43329033       0.14012492
I        9.06393104       3.21143430       0.00116065       22       0.10825839       0.03719827      -0.12054427
I        9.19838041       0.11307162       3.09963715       23      -0.04205558      -0.23354671      -0.01117772
Cl       6.32425613       3.52770282       3.06402990       24       0.20823561      -0.17609221      -0.01528164
Cs       6.06168111      12.13228676       6.16010838       25       0.02643262      -0.00998739       0.02165772
Sn       9.37925479       3.12519272       9.35752812       26      -0.36569048      -0.05967192      -0.18587141
I        9.07480734       3.21476314       6.13606131       27       0.06850072      -0.05128693       0.14406132
I        9.35975953      12.19884576       9.44867496       28       0.03141516       0.49974120       0.01216236
I        6.18863648       3.22003589       9.24619135       29       0.12750289      -0.08559744       0.00835545
Cs       6.05271549       6.07418783       0.08645623       30       0.00182541      -0.01069511       0.02535853
Sn       9.33987838       8.75754310       2.90637392       31      -0.49089514       0.26824941       0.74363706
I        9.35868703       9.07341673       0.01564602       32       0.01223890      -0.02086452      -0.18495584
Cl       9.01454242       6.26665280       3.17005185       33       0.10565414      -0.23850736      -0.09667011
I        6.22599291       9.18738536       3.01579584       34      -0.32070454       0.01612367      -0.06473190
Cs       6.16454411       6.11973579       6.16193592       35       0.01954843      -0.00733603      -0.05171230
Sn       9.24154088       9.18396438       9.34548748       36       0.12268276       0.11717024      -0.41597268
I        9.20239217       9.12807113       6.24008111       37       0.06174927       0.10920200      -0.06716323
I        9.29327981       6.23767989       9.17731887       38       0.07451811      -0.66391804       0.03236125
I        6.22838023       9.03552473       9.37140008       39       0.08660325       0.05120074       0.03904030
40
Lattice="12.39830221092411 0.0 0.0 0.007824880177206233 12.273295888732159 0.0 -0.000581470554747718 0.007904949087704042 12.39829967725697" Properties=species:S:1:pos:R:3:spacegroup_kinds:I:1:forces:R:3 spacegroup="P 1" unit_cell=conventional occupancy="_JSON {\"0\": {\"Cs\": 1.0}, \"1\": {\"Sn\": 1.0}, \"2\": {\"I\": 1.0}, \"3\": {\"I\": 1.0}, \"4\": {\"I\": 1.0}, \"5\": {\"Cs\": 1.0}, \"6\": {\"Sn\": 1.0}, \"7\": {\"I\": 1.0}, \"8\": {\"I\": 1.0}, \"9\": {\"I\": 1.0}, \"10\": {\"Cs\": 1.0}, \"11\": {\"Sn\": 1.0}, \"12\": {\"Cl\": 1.0}, \"13\": {\"Cl\": 1.0}, \"14\": {\"I\": 1.0}, \"15\": {\"Cs\": 1.0}, \"16\": {\"Sn\": 1.0}, \"17\": {\"I\": 1.0}, \"18\": {\"Cl\": 1.0}, \"19\": {\"I\": 1.0}, \"20\": {\"Cs\": 1.0}, \"21\": {\"Sn\": 1.0}, \"22\": {\"I\": 1.0}, \"23\": {\"I\": 1.0}, \"24\": {\"Cl\": 1.0}, \"25\": {\"Cs\": 1.0}, \"26\": {\"Sn\": 1.0}, \"27\": {\"I\": 1.0}, \"28\": {\"I\": 1.0}, \"29\": {\"I\": 1.0}, \"30\": {\"Cs\": 1.0}, \"31\": {\"Sn\": 1.0}, \"32\": {\"I\": 1.0}, \"33\": {\"Cl\": 1.0}, \"34\": {\"I\": 1.0}, \"35\": {\"Cs\": 1.0}, \"36\": {\"Sn\": 1.0}, \"37\": {\"I\": 1.0}, \"38\": {\"I\": 1.0}, \"39\": {\"I\": 1.0}}" candidate_id=3942c28cb5a3a260 formula=FASnCl0.22I0.783 config_index=3 rattle_stdev=0.08 method=PBE fidelity=phase2_force energy=-116.751514041622 stress="-0.002893038488249537 0.0002401444832149231 0.00018623359253305718 0.0002401444832149231 0.0006044146936087704 0.0003020332250879633 0.00018623359253305718 0.0003020332250879633 -0.0017000180595069367" pbc="T T T"
Cs      -0.04949254       0.20276219       0.10655314        0       0.03536872       0.04609699       0.01184581
Sn       3.21549687       3.37111898       3.15407765        1      -0.37401947      -0.47044310      -0.73484926
I        3.13589672       3.29511965      -0.04684636        2       0.03274274      -0.01437906      -0.14058809
I        3.29704785      -0.01605253       2.90988690        3      -0.00234560      -0.12130710       0.02222832
I        0.11926683       3.15026247       2.99431776        4       0.23722029       0.11437910       0.08792763
Cs       0.09257313      12.20913782       6.03571276        5      -0.01606326       0.00481414      -0.01635564
Sn       3.13815330       3.23323705       9.17233007        6      -0.02436417       0.51507924       0.57737132
I        3.13127706       3.11167551       6.07573233        7       0.00297455      -0.01663470       0.41490803
I        3.15386077      11.99639884       9.42040831        8      -0.05494100       0.69477426       0.00183501
I       -0.09136482       3.06855182       9.47990633        9       0.24661701       0.00289561      -0.04167790
Cs       0.03285109       6.19294314      -0.10592596       10       0.03228266      -0.10353328      -0.02070678
Sn       3.08808106       8.81680052       2.90222171       11       0.13244252       0.44031087       0.43122057
Cl       3.22545182       8.90486551      12.20952238       12      -0.05171856      -0.07162419       0.48022484
Cl       3.23725221       6.08422012       3.07379467       13      -0.00446869       0.21539623      -0.00419485
I       -0.11294566       9.02442048       2.98522172       14       1.02470434      -0.01699302       0.00122710
Cs      -0.01707871       6.15433702       6.10657300       15      -0.02779483      -0.00846123       0.03219186
Sn       3.14917300       9.08008016       9.63736705       16      -0.16861735      -0.53691228      -0.36277518
I        3.23413866       9.01652003       6.12447220       17      -0.07516696      -0.04109301      -0.46287200
Cl       3.16742625       6.05956734       9.35726543       18      -0.03546691      -0.53895165      -0.09476255
I        0.04289586       8.98757928       9.41014575       19      -0.34289902       0.02060487      -0.03560648
Cs       6.25078470      12.25209529      -0.00005043       20      -0.03599880       0.00701328      -0.00689351
Sn       8.78057206       3.10874022       3.06807946       21       0.82215320       0.28257504       0.06007486
I        9.15099558       3.22921743       0.09681697       22      -0.02347254      -0.00971702      -0.36241925
I        9.30556671       0.16903447       3.02457375       23      -0.12445132      -0.39900400       0.01559137
Cl       6.29734403       3.42747524       3.13082166       24      -0.60764158      -0.01183793       0.03006300
Cs       6.12620458      12.27762338       6.16838979       25       0.00922514      -0.06328182       0.00154629
Sn       9.30732413       3.06184261       9.23883989       26      -0.08121717      -0.09780089      -0.01800322
I        9.30658643       3.09981885       6.12496607       27       0.02035829       0.03121533       0.33483588
I        9.31484856      12.41356107       9.20234890       28      -0.02107885      -0.97776277       0.05676354
I        6.13938945       3.14616711       9.34106559       29      -0.07621662      -0.05286473      -0.07190619
Cs       6.08676665       6.14239244       0.13949042       30      -0.01076432      -0.04481135      -0.08290409
Sn       9.33018374       8.82544411       3.14424975       31      -0.20405652      -0.21515347       0.26420898
I        9.32494300       9.06402335       0.08177750       32       0.03378685       0.02911059      -0.08608478
Cl       9.12592631       6.16166042       3.23302547       33       0.09875227       0.24997088       0.00637108
I        6.42315990       8.96853314       2.94911706       34      -1.02016907       0.08652143       0.00757550
Cs       6.24875609       6.24767714       6.14170716       35       0.02450293      -0.00689483       0.02388303
Sn       9.30758963       9.13612727       9.45993435       36       0.09044792      -0.01638926      -0.25515262
I        9.26834979       9.09494584       6.28492151       37       0.01912595       0.02687632      -0.01942124
I        9.25354070       5.96124902       9.34352810       38      -0.00775336       1.09471499      -0.00889336
I        6.11715152       9.12359507       9.50302989       39       0.53041176      -0.02485902      -0.03402684
