40
Lattice="12.49961104606638 0.0 0.0 0.00640376981658311 12.499609405684309 0.0 -0.00037517508496607936 0.0003753673430116899 12.64872266631945" Properties=species:S:1:pos:R:3:spacegroup_kinds:I:1:forces:R:3 spacegroup="P 1" unit_cell=conventional occupancy="_JSON {\"0\": {\"Cs\": 1.0}, \"1\": {\"Pb\": 1.0}, \"2\": {\"I\": 1.0}, \"3\": {\"I\": 1.0}, \"4\": {\"I\": 1.0}, \"5\": {\"Cs\": 1.0}, \"6\": {\"Pb\": 1.0}, \"7\": {\"I\": 1.0}, \"8\": {\"I\": 1.0}, \"9\": {\"I\": 1.0}, \"10\": {\"Cs\": 1.0}, \"11\": {\"Pb\": 1.0}, \"12\": {\"Br\": 1.0}, \"13\": {\"Br\": 1.0}, \"14\": {\"I\": 1.0}, \"15\": {\"Cs\": 1.0}, \"16\": {\"Pb\": 1.0}, \"17\": {\"I\": 1.0}, \"18\": {\"Br\": 1.0}, \"19\": {\"I\": 1.0}, \"20\": {\"Cs\": 1.0}, \"21\": {\"Pb\": 1.0}, \"22\": {\"I\": 1.0}, \"23\": {\"I\": 1.0}, \"24\": {\"Br\": 1.0}, \"25\": {\"Cs\": 1.0}, \"26\": {\"Pb\": 1.0}, \"27\": {\"I\": 1.0}, \"28\": {\"I\": 1.0}, \"29\": {\"I\": 1.0}, \"30\": {\"Cs\": 1.0}, \"31\": {\"Pb\": 1.0}, \"32\": {\"I\": 1.0}, \"33\": {\"Br\": 1.0}, \"34\": {\"Br\": 1.0}, \"35\": {\"Cs\": 1.0}, \"36\": {\"Pb\": 1.0}, \"37\": {\"I\": 1.0}, \"38\": {\"I\": 1.0}, \"39\": {\"Br\": 1.0}}" candidate_id=554679e733a74c50 formula=FAPbBr0.29I0.713 config_index=0 rattle_stdev=0.0 method=PBE fidelity=phase2_force energy=-117.30726979483251 stress="8.22408596311121e-05 -9.986235264210776e-06 1.3467555821003945e-05 -9.986235264210776e-06 8.225109187916218e-05 -1.3474457254209409e-05 1.3467555821003945e-05 -1.3474457254209409e-05 -0.000916343729871126" pbc="T T T"
Cs       0.05308607      12.45290319       0.01965751        0       0.00780390      -0.00780790      -0.00490279
Pb       3.24620436       3.24398375       3.15585024        1       0.00450069       0.01007662      -0.00573265
I        3.20650902       3.30568354       0.00819974        2      -0.01378457       0.00530311      -0.01611491
I        3.26658843      12.49092385       3.08671517        3      -0.00907498       0.00047026       0.00236778
I        0.00498570       3.25261572       3.17373484        4       0.00066546      -0.00493435       0.00062453
Cs       0.01478894      12.49121994       6.30342820        5      -0.00889314       0.00889770       0.00323518
Pb       3.13924939       3.24610106       9.49214768        6       0.01435433       0.00316707       0.00850945
I        3.19654063       3.26620869       6.31589557        7      -0.00910097      -0.00062780       0.01537777
I        3.20145613      12.48853202       9.56839808        8      -0.00894731      -0.01644773       0.00189520
I        0.00731262       3.16455201       9.47288310        9      -0.00655548      -0.00599073      -0.00417510
Cs       0.04428787       6.28095119       0.03748775       10       0.01509848       0.00194994       0.00006133
Pb       3.25709390       9.24725346       3.05185184       11       0.01580688      -0.01581498      -0.00503415
Br       3.22479698       9.27956693       0.00647840       12       0.02850586      -0.02852047      -0.00179577
Br       3.23097026       6.25291449       3.11236110       13       0.02996442       0.00937154      -0.01636057
I        0.01341907       9.23942073       3.08671517       14      -0.00046561       0.00907522       0.00236778
Cs       0.03763723       6.26521475       6.28519591       15       0.00261501      -0.00444090      -0.00326359
Pb       3.24515478       9.25919870       9.59593298       16       0.01215297      -0.01215920       0.00634326
I        3.29262022       9.21170894       6.32357585       17      -0.02054338       0.02055391       0.00086644
Br       3.16832299       6.24707545       9.53421678       18       0.00286783       0.03980028       0.01818909
I        0.01584428       9.30455179       9.56839808       19       0.01645231       0.00893888       0.00189520
Cs       6.22504176      12.45853938       0.03748775       20      -0.00195768      -0.01509748       0.00006133
Pb       9.25813168       3.24314046       3.16117050       21      -0.00399519       0.00399724       0.00450618
I        9.29230271       3.20895192       0.01091337       22       0.00863437      -0.00863880      -0.01532211
I        9.25339696      12.49629007       3.17373484       23       0.00493401      -0.00066799       0.00062453
Br       6.24736938       3.21431483       3.16489699       24       0.00250916       0.03186353       0.00635065
Cs       6.24078161      12.46518196       6.28519591       25       0.00443956      -0.00261729      -0.00326359
Pb       9.36894287       3.13227249       9.48919372       26      -0.00850981       0.00851417      -0.00217378
I        9.30402113       3.19722749       6.31458390       27       0.00691667      -0.00692022       0.01546924
I        9.34145947      12.49391804       9.47288310       28       0.00599409       0.00655241      -0.00417510
I        6.24626117       3.20352020       9.48120579       29       0.00559735      -0.01005426      -0.00775235
Cs       6.21343489       6.28939750       0.03408474       30      -0.01552855       0.01553651       0.01456557
Pb       9.26036841       9.25506742       3.15585024       31      -0.01007893      -0.00449552      -0.00573265
I        9.19868896       9.29479437       0.00819974       32      -0.00529605       0.01378729      -0.01611491
Br       9.28849977       6.25388759       3.16489699       33      -0.03186481      -0.00249284       0.00635065
Br       6.25144586       9.27184305       3.11236110       34      -0.00938689      -0.02995961      -0.01636057
Cs       6.23136214       6.27146106       6.29031419       35       0.00552944      -0.00553227      -0.01668507
Pb       9.25830589       9.36202346       9.49214768       36      -0.00317443      -0.01435270       0.00850945
I        9.23816891       9.30474253       6.31589557       37       0.00063247       0.00910065       0.01537777
I        9.29929496       6.25499028       9.48120579       38       0.01005139      -0.00560250      -0.00775235
Br       6.25731699       9.33448732       9.53421678       39      -0.03980175      -0.00284744       0.01818909
40
Lattice="12.49961104606638 0.0 0.0 0.00640376981658311 12.499609405684309 0.0 -0.00037517508496607936 0.0003753673430116899 12.64872266631945" Properties=species:S:1:pos:R:3:spacegroup_kinds:I:1:forces:R:3 spacegroup="P 1" unit_cell=conventional occupancy="_JSON {\"0\": {\"Cs\": 1.0}, \"1\": {\"Pb\": 1.0}, \"2\": {\"I\": 1.0}, \"3\": {\"I\": 1.0}, \"4\": {\"I\": 1.0}, \"5\": {\"Cs\": 1.0}, \"6\": {\"Pb\": 1.0}, \"7\": {\"I\": 1.0}, \"8\": {\"I\": 1.0}, \"9\": {\"I\": 1.0}, \"10\": {\"Cs\": 1.0}, \"11\": {\"Pb\": 1.0}, \"12\": {\"Br\": 1.0}, \"13\": {\"Br\": 1.0}, \"14\": {\"I\": 1.0}, \"15\": {\"Cs\": 1.0}, \"16\": {\"Pb\": 1.0}, \"17\": {\"I\": 1.0}, \"18\": {\"Br\": 1.0}, \"19\": {\"I\": 1.0}, \"20\": {\"Cs\": 1.0}, \"21\": {\"Pb\": 1.0}, \"22\": {\"I\": 1.0}, \"23\": {\"I\": 1.0}, \"24\": {\"Br\": 1.0}, \"25\": {\"Cs\": 1.0}, \"26\": {\"Pb\": 1.0}, \"27\": {\"I\": 1.0}, \"28\": {\"I\": 1.0}, \"29\": {\"I\": 1.0}, \"30\": {\"Cs\": 1.0}, \"31\": {\"Pb\": 1.0}, \"32\": {\"I\": 1.0}, \"33\": {\"Br\": 1.0}, \"34\": {\"Br\": 1.0}, \"35\": {\"Cs\": 1.0}, \"36\": {\"Pb\": 1.0}, \"37\": {\"I\": 1.0}, \"38\": {\"I\": 1.0}, \"39\": {\"Br\": 1.0}}" candidate_id=554679e733a74c50 formula=FAPbBr0.29I0.713 config_index=1 rattle_stdev=0.08 method=PBE fidelity=phase2_force energy=-116.71349928716518 stress="-0.0012971527968491253 1.759903892776706e-05 -4.3559232844255874e-05 1.759903892776706e-05 -0.0008417667592677363 -0.00013637254027190314 -4.3559232844255874e-05 -0.00013637254027190314 -0.0031883133493114156" pbc="T T T"
Cs      -0.03382964      12.38121798      -0.00484644        0      -0.02759540       0.01957134       0.02771284
Pb       3.13900967       3.14745690       3.10451209        1       0.24278964       0.23496830       0.26593503
I        3.31114467       3.45332038       0.07452893        2      -0.09678985      -0.06544734      -0.11504730
I        3.26472452      12.47423874       3.01338559        3      -0.01323331       0.02891726       0.00178141
I       -0.08099370       3.24572424       3.26780192        4       0.43958829      -0.00851967       0.01130805
Cs      -0.11601840      12.58947546       6.38953910        5       0.02492428       0.04667312      -0.04219557
Pb       3.17083122       3.21508499       9.53921982        6       0.05092704      -0.03195948      -0.06926070
I        3.08187673       3.24032272       6.41613435        7       0.02636329       0.01057418      -0.21615643
I        3.14299673      12.60281082       9.64397040        8      -0.02139321      -0.41404912       0.00502923
I       -0.01380760       3.15149495       9.39575452        9       0.18340784      -0.00376701       0.01488415
Cs       0.01687609       6.28486351      -0.00248281       10       0.00267746      -0.02842871       0.02950372
Pb       3.08014154       9.27204041       2.92467973       11       0.66427742      -0.25144329      -0.10616991
Br       3.28315335       9.27093483      -0.04553532       12      -0.03457207      -0.00705584       0.01196397
Br       3.09552574       6.22343657       2.98513136       13       0.01464730       0.04557938       0.05035938
I        0.13185954       9.27737594       3.15982427       14      -0.66212313       0.01685861       0.03017099
Cs       0.11447485       6.27197816       6.42257439       15       0.01997320      -0.03768723      -0.01749765
Pb       3.31330620       9.19880787       9.41292264       16       0.22628336       0.07643949       0.22415576
I        3.30135931       9.17569629       6.29053805       17      -0.03511450       0.01947995      -0.01202821
Br       3.19384169       6.20378682       9.61011009       18      -0.01493926       0.38510504      -0.03180975
I        0.02795908       9.31070398       9.56364605       19       0.23604789       0.02514382      -0.00723350
Cs       6.21943067      12.41324746       0.06236818       20       0.02013497       0.00318781       0.01604693
Pb       9.31606839       3.28445646       3.24325296       21      -0.36644301      -0.19900567      -0.50584444
I        9.33391492       3.13936483       0.13095858       22       0.05068397       0.00324488      -0.49502243
I        9.34671474      12.53564323       3.11515386       23       0.01033342      -0.13263858       0.10447834
Br       6.30179387       3.25503458       3.09789409       24      -0.30520083       0.01948294       0.05924062
Cs       6.29259319      12.46618512       6.40996304       25      -0.02782227       0.00146360      -0.02815327
Pb       9.45171050       3.15928790       9.38498488       26      -0.26861057       0.29865672       0.36271369
I        9.21453759       3.30198870       6.27312654       27      -0.02227402      -0.04393491       0.47417251
I        9.31000953      12.57735552       9.47886032       28       0.00120164      -0.17914875      -0.01432338
I        6.25341613       3.20783279       9.51468155       29       0.04062072      -0.00932078      -0.00840497
Cs       6.11521648       6.20223418       0.05945469       30       0.05427161       0.04181431       0.04836321
Pb       9.19793596       9.18657694       3.05026052       31      -0.17633377       0.19959262       0.36987384
I        9.23499149       9.37493635       0.12129851       32       0.02071364       0.00707117      -0.51855681
Br       9.27328514       6.25629643       3.01502365       33       0.00904559       0.10405453       0.01318182
Br       6.24210371       9.26164382       3.18453584       34       0.19631956      -0.03100379      -0.00366392
Cs       6.12621237       6.26349700       6.30155818       35       0.01237353      -0.03587833      -0.03119623
Pb       9.46861037       9.50248577       9.28129586       36      -0.34414334      -0.35579217       1.01112178
I        9.13523735       9.29100475       6.45993187       37      -0.01948907       0.02498255      -0.99980552
I        9.34799061       6.25751232       9.36389281       38       0.01246183       0.22163411       0.07494466
Br       6.28207225       9.42586474       9.49334924       39      -0.12517936       0.00193948       0.01603476
40
Lattice="12.49961104606638 0.0 0.0 0.00640376981658311 12.499609405684309 0.0 -0.00037517508496607936 0.0003753673430116899 12.64872266631945" Properties=species:S:1:pos:R:3:spacegroup_kinds:I:1:forces:R:3 spacegroup="P 1" unit_cell=conventional occupancy="_JSON {\"0\": {\"Cs\": 1.0}, \"1\": {\"Pb\": 1.0}, \"2\": {\"I\": 1.0}, \"3\": {\"I\": 1.0}, \"4\": {\"I\": 1.0}, \"5\": {\"Cs\": 1.0}, \"6\": {\"Pb\": 1.0}, \"7\": {\"I\": 1.0}, \"8\": {\"I\": 1.0}, \"9\": {\"I\": 1.0}, \"10\": {\"Cs\": 1.0}, \"11\": {\"Pb\": 1.0}, \"12\": {\"Br\": 1.0}, \"13\": {\"Br\": 1.0}, \"14\": {\"I\": 1.0}, \"15\": {\"Cs\": 1.0}, \"16\": {\"Pb\": 1.0}, \"17\": {\"I\": 1.0}, \"18\": {\"Br\": 1.0}, \"19\": {\"I\": 1.0}, \"20\": {\"Cs\": 1.0}, \"21\": {\"Pb\": 1.0}, \"22\": {\"I\": 1.0}, \"23\": {\"I\": 1.0}, \"24\": {\"Br\": 1.0}, \"25\": {\"Cs\": 1.0}, \"26\": {\"Pb\": 1.0}, \"27\": {\"I\": 1.0}, \"28\": {\"I\": 1.0}, \"29\": {\"I\": 1.0}, \"30\": {\"Cs\": 1.0}, \"31\": {\"Pb\": 1.0}, \"32\": {\"I\": 1.0}, \"33\": {\"Br\": 1.0}, \"34\": {\"Br\": 1.0}, \"35\": {\"Cs\": 1.0}, \"36\": {\"Pb\": 1.0}, \"37\": {\"I\": 1.0}, \"38\": {\"I\": 1.0}, \"39\": {\"Br\": 1.0}}" candidate_id=554679e733a74c50 formula=FAPbBr0.29I0.713 config_index=2 rattle_stdev=0.08 method=PBE fidelity=phase2_force energy=-116.79416398659527 stress="-0.0009950952483560934 1.1798274215506643e-05 5.293772767771757e-05 1.1798274215506643e-05 -0.0011874506426850372 -3.375462371701337e-05 5.293772767771757e-05 -3.375462371701337e-05 -0.0017803640309671364" pbc="T T T"
Cs       0.04406902      12.36677807       0.16245967        0       0.02260337      -0.01596908      -0.06229394
Pb       3.12964569       3.21787808       3.05505852        1       0.58221554       0.24934572       0.22305818
I        3.23657834       3.23543175      -0.01979832        2      -0.04689511       0.03013675      -0.08830239
I        3.29032124      12.58699681       2.96119555        3      -0.03396399      -0.53002770       0.03429807
I        0.15330800       3.29213267       3.16327792        4      -0.78697968      -0.00210275      -0.02317548
Cs      -0.01746072      12.41332696       6.26603085        5      -0.02281021      -0.00233998       0.05224753
Pb       3.08181567       3.34381252       9.42997168        6       0.47419965      -0.05462013       0.01607595
I        3.14945858       3.26159918       6.32226197        7       0.00622547      -0.08070869      -0.10526295
I        3.10680005      12.36463262       9.64137858        8       0.00517070       0.39333071       0.00364701
I        0.04032628       3.10889049       9.28978135        9      -0.19200799      -0.01581356      -0.00162048
Cs      -0.01869145       6.19866985       0.04495240       10       0.03461201       0.02283403      -0.03207180
Pb       3.21475837       9.30967305       3.03578666       11       0.24055768      -0.21801297       0.07760622
Br       3.18634830       9.19674596      -0.03374035       12       0.03336450      -0.02991190       0.33900501
Br       3.29416148       6.17891468       3.28916393       13      -0.01220335       0.45017684      -0.09005119
I       -0.09859982       9.22029294       3.10410242       14       0.48646147       0.01365044       0.01201109
Cs       0.00944641       6.27208479       6.29372807       15       0.00403524       0.00601341       0.01865428
Pb       3.22939229       9.36695341       9.62354690       16      -0.02540648      -0.35955419      -0.10098787
I        3.33723177       9.16408613       6.38220242       17      -0.06317553       0.10038466      -0.28597658
Br       3.27482321       6.18867282       9.49535631       18      -0.03143957       0.06851353       0.03575141
I        0.10199741       9.09692319       9.58175234       19      -0.07840134       0.01392086       0.00104031
Cs       6.30815853      12.31385347       0.09817903       20      -0.02771412       0.02069301      -0.03087686
Pb       9.21812266       3.05559700       3.15253709       21      -0.22064063       0.33469398       0.12895513
I        9.17207970       3.24805421      -0.03334091       22       0.06464996       0.02650637       0.17846304
I        9.33799757      12.42674465       3.16772755       23       0.02596264       0.10921606      -0.00963917
Br       6.23879699       3.38222059       3.13765395       24       0.32469970      -0.09868341      -0.01631567
Cs       6.19854920      12.36161261       6.30232383       25       0.02283822      -0.01019426       0.01999383
Pb       9.45904443       3.16439535       9.55044054       26      -0.39659650      -0.05796095      -0.23769114
I        9.19577093       3.24313617       6.29697293       27       0.05751334      -0.07135818      -0.03782526
I        9.39307459      12.41354049       9.62486218       28       0.05176728       0.55988041       0.01849267
I        6.26361004       3.24351783       9.43107850       29       0.05403122      -0.08148154      -0.00477216
Cs       6.13320415       6.22689268       0.05042696       30      -0.02198105      -0.02966859       0.01811001
Pb       9.30325577       9.16906763       2.97842186       31      -0.35331333      -0.20288432       0.69122108
I        9.25044337       9.26900750      -0.00560540       32       0.00246245      -0.02197660      -0.04868634
Br       9.10542603       6.24492408       3.24132209       33       0.06227568      -0.06503145      -0.06143300
Br       6.28782492       9.43679724       3.11735794       34      -0.35433630       0.02093693      -0.07520651
Cs       6.23158954       6.23517675       6.32019279       35       0.00476124      -0.02492244      -0.03367171
Pb       9.19325661       9.35389886       9.52780474       36       0.19335960       0.10257907      -0.40749946
I        9.13615862       9.31336908       6.38407453       37       0.06272177       0.08979043      -0.22405345
I        9.28674680       6.35009582       9.36342472       38       0.07235627      -0.68987041       0.02254351
Br       6.32660026       9.26301615       9.49029913       39      -0.22095494       0.05064489       0.08475369
40
Lattice="12.49961104606638 0.0 0.0 0.00640376981658311 12.499609405684309 0.0 -0.00037517508496607936 0.0003753673430116899 12.64872266631945" Properties=species:S:1:pos:R:3:spacegroup_kinds:I:1:forces:R:3 spacegroup="P 1" unit_cell=conventional occupancy="_JSON {\"0\": {\"Cs\": 1.0}, \"1\": {\"Pb\": 1.0}, \"2\": {\"I\": 1.0}, \"3\": {\"I\": 1.0}, \"4\": {\"I\": 1.0}, \"5\": {\"Cs\": 1.0}, \"6\": {\"Pb\": 1.0}, \"7\": {\"I\": 1.0}, \"8\": {\"I\": 1.0}, \"9\": {\"I\": 1.0}, \"10\": {\"Cs\": 1.0}, \"11\": {\"Pb\": 1.0}, \"12\": {\"Br\": 1.0}, \"13\": {\"Br\": 1.0}, \"14\": {\"I\": 1.0}, \"15\": {\"Cs\": 1.0}, \"16\": {\"Pb\": 1.0}, \"17\": {\"I\": 1.0}, \"18\": {\"Br\": 1.0}, \"19\": {\"I\": 1.0}, \"20\": {\"Cs\": 1.0}, \"21\": {\"Pb\": 1.0}, \"22\": {\"I\": 1.0}, \"23\": {\"I\": 1.0}, \"24\": {\"Br\": 1.0}, \"25\": {\"Cs\": 1.0}, \"26\": {\"Pb\": 1.0}, \"27\": {\"I\": 1.0}, \"28\": {\"I\": 1.0}, \"29\": {\"I\": 1.0}, \"30\": {\"Cs\": 1.0}, \"31\": {\"Pb\": 1.0}, \"32\": {\"I\": 1.0}, \"33\": {\"Br\": 1.0}, \"34\": {\"Br\": 1.0}, \"35\": {\"Cs\": 1.0}, \"36\": {\"Pb\": 1.0}, \"37\": {\"I\": 1.0}, \"38\": {\"I\": 1.0}, \"39\": {\"Br\": 1.0}}" candidate_id=554679e733a74c50 formula=FAPbBr0.29I0.713 config_index=3 rattle_stdev=0.08 method=PBE fidelity=phase2_force energy=-116.63143565812403 stress="-0.0012258352821558516 0.00011427372722807804 6.747812001858407e-05 0.00011427372722807804 -0.0011312869286529191 8.52363806107794e-05 6.747812001858407e-05 8.52363806107794e-05 -0.0016325587283563198" pbc="T T T"
Cs      -0.05259742      12.61424342       0.02346267        0       0.01743752       0.05504389       0.02636906
Pb       3.22719067       3.25071356       3.23261362        1      -0.24384279      -0.24836329      -0.73813362
I        3.15198114       3.34800918      -0.05379372        2      -0.00131181      -0.00713000      -0.07660427
I        3.37898492      12.47294941       2.98224431        3       0.00114046      -0.17905682       0.01805137
I       -0.04929711       3.12294106       3.07133695        4       0.13254189       0.03475264       0.03508109
Cs      -0.00315480      12.42317506       6.24296899        5      -0.04009854       0.02931371      -0.01576221
Pb       3.16030306       3.04168561       9.35852501        6      -0.06321991       0.35697379       0.44726810
I        3.13960182       3.07046664       6.21376079        7      -0.03821107      -0.02947248       0.44103724
I        3.25454594      12.38622530       9.50516531        8      -0.04052799       0.42390889      -0.00090275
I       -0.11287704       3.06938882       9.65421831        9       0.57954071       0.01390299       0.01333360
Cs       0.00614565       6.35268431      -0.10690731       10       0.02749356      -0.08185230      -0.01457633
Pb       3.21779673       9.15129374       2.98743421       11       0.04503785       0.27875679       0.00112992
Br       3.33726247       9.26114168      -0.05061732       12      -0.00920399      -0.07261535       0.42788626
Br       3.21796326       6.19860410       3.23349052       13       0.00730251       0.24153104       0.00321481
I       -0.12638676       9.29210309       3.05918587       14       0.93395880      -0.04754263      -0.00095031
Cs      -0.02305862       6.27897685       6.23261263       15      -0.03192033      -0.01963280      -0.00082965
Pb       3.28937042       9.28980736       9.56622975       16      -0.11709008      -0.54233614       0.01530350
I        3.41887173       9.22905274       6.42050318       17      -0.04757167       0.04012559      -0.44389832
Br       3.22684144       6.30099514       9.48779229       18      -0.01037894      -0.21427828      -0.02410655
I        0.00789711       9.17776259       9.56242077       19      -0.12137595       0.04031426      -0.00548905
Cs       6.32094647      12.43730556      -0.01465622       20      -0.03278603       0.00244205      -0.00299211
Pb       9.10640875       3.11991654       3.12974464       21       0.32185163       0.25492699       0.06146210
I        9.25914425       3.26583734       0.06231540       22      -0.03443160      -0.02951682      -0.21705922
I        9.44518387      12.48270749       3.09266414       23      -0.06349299      -0.22132752       0.01283371
Br       6.21188489       3.28199301       3.20444571       24      -0.13247657      -0.00014242       0.03484026
Cs       6.26307267      12.50694923       6.31060525       25       0.01836334      -0.02352296      -0.00031339
Pb       9.38711378       3.10104525       9.43175231       26      -0.20990369      -0.01478191       0.01782952
I        9.42755002       3.12819188       6.28587769       27       0.01526526      -0.00505962       0.10481814
I        9.34816362      12.62825580       9.37853612       28      -0.03329874      -1.10551722       0.04392269
I        6.21436300       3.16964906       9.52595273       29      -0.17227475      -0.02884464      -0.04312874
Cs       6.16725531       6.29509729       0.10346115       30      -0.01474394      -0.02312522      -0.03154022
Pb       9.29356113       9.23696864       3.21629769       31      -0.07152193      -0.19821619       0.20187450
I        9.21669935       9.25961412       0.06052608       32       0.02044604       0.00445765       0.03576391
Br       9.21680991       6.13993170       3.30429572       33       0.01814965       0.21098089       0.01760785
Br       6.48499191       9.21794503       3.05067916       34      -0.92885642      -0.01948384      -0.01267889
Cs       6.31580153       6.36311810       6.29996404       35       0.02172790      -0.02826161       0.00149863
Pb       9.25930536       9.30606174       9.64225161       36       0.06652743      -0.00735233      -0.28229917
I        9.20211624       9.28024379       6.42891492       37       0.01922131       0.02920968      -0.09033514
I        9.24700768       6.07366495       9.52963394       38      -0.02199986       1.10814332       0.00077217
Br       6.21537155       9.35108650       9.62192894       39       0.22682189       0.01074718       0.03831459
