Cs Sn I  Cs Sn I  Cs Sn Br I  Cs Sn I  Br I  Cs Sn I  Br Cs Sn I  Cs Sn I  Br I  Cs Sn I  Br
 1.0000000000000000
    13.2732428110089202    0.0000000000000000    0.0000000000000000
     0.0000000000000000   13.2732428110089202    0.0000000000000000
     0.0000000000000000    0.0000000000000000   13.2732428110089202
 Cs  Sn  I   Cs  Sn  I   Cs  Sn  Br  I   Cs  Sn  I   Br  I   Cs  Sn  I   Br  Cs  Sn  I   Cs  Sn  I   Br  I   Cs  Sn  I   Br 
   1   1   3   1   1   3   1   1   2   1   1   1   1   1   1   1   1   2   1   1   1   3   1   1   1   1   1   1   1   2   1
Cartesian
  0.0000000000000000  0.0000000000000000  0.0000000000000000
  3.3183107027522301  3.3183107027522301  3.3183107027522301
  3.3183107027522301  3.3183107027522301  0.0000000000000000
  3.3183107027522301  0.0000000000000000  3.3183107027522301
  0.0000000000000000  3.3183107027522301  3.3183107027522301
  0.0000000000000000  0.0000000000000000  6.6366214055044592
  3.3183107027522301  3.3183107027522301  9.9549321082566902
  3.3183107027522301  3.3183107027522301  6.6366214055044592
  3.3183107027522301  0.0000000000000000  9.9549321082566902
  0.0000000000000000  3.3183107027522301  9.9549321082566902
  0.0000000000000000  6.6366214055044592  0.0000000000000000
  3.3183107027522301  9.9549321082566902  3.3183107027522301
  3.3183107027522301  9.9549321082566902  0.0000000000000000
  3.3183107027522301  6.6366214055044592  3.3183107027522301
  0.0000000000000000  9.9549321082566902  3.3183107027522301
  0.0000000000000000  6.6366214055044592  6.6366214055044592
  3.3183107027522301  9.9549321082566902  9.9549321082566902
  3.3183107027522301  9.9549321082566902  6.6366214055044592
  3.3183107027522301  6.6366214055044592  9.9549321082566902
  0.0000000000000000  9.9549321082566902  9.9549321082566902
  6.6366214055044592  0.0000000000000000  0.0000000000000000
  9.9549321082566902  3.3183107027522301  3.3183107027522301
  9.9549321082566902  3.3183107027522301  0.0000000000000000
  9.9549321082566902  0.0000000000000000  3.3183107027522301
  6.6366214055044592  3.3183107027522301  3.3183107027522301
  6.6366214055044592  0.0000000000000000  6.6366214055044592
  9.9549321082566902  3.3183107027522301  9.9549321082566902
  9.9549321082566902  3.3183107027522301  6.6366214055044592
  9.9549321082566902  0.0000000000000000  9.9549321082566902
  6.6366214055044592  3.3183107027522301  9.9549321082566902
  6.6366214055044592  6.6366214055044592  0.0000000000000000
  9.9549321082566902  9.9549321082566902  3.3183107027522301
  9.9549321082566902  9.9549321082566902  0.0000000000000000
  9.9549321082566902  6.6366214055044592  3.3183107027522301
  6.6366214055044592  9.9549321082566902  3.3183107027522301
  6.6366214055044592  6.6366214055044592  6.6366214055044592
  9.9549321082566902  9.9549321082566902  9.9549321082566902
  9.9549321082566902  9.9549321082566902  6.6366214055044592
  9.9549321082566902  6.6366214055044592  9.9549321082566902
  6.6366214055044592  9.9549321082566902  9.9549321082566902
