40
Lattice="12.000609580149845 0.0 0.0 0.0 12.012969092057537 0.0 0.0 -6.854661053467457e-14 12.000609580149858" Properties=species:S:1:pos:R:3:spacegroup_kinds:I:1:forces:R:3 spacegroup="P 1" unit_cell=conventional candidate_id=954f23b1552256f6 formula=KGe0.65Sn0.35I3 config_index=0 rattle_stdev=0.0 method=PBE fidelity=phase2_force energy=-110.6787784467088 stress="-0.003005990817914567 3.180704339218991e-16 1.4610121652958477e-09 3.180704339218991e-16 -0.002849750795263932 -3.3434800353860787e-16 1.4610121652958477e-09 -3.3434800353860787e-16 -0.00300599081791456" pbc="T T T"
K       11.90243180      11.74038809       0.09817778        0       0.00517385       0.00717189      -0.00517385
Sn       3.00015240       3.00324227       3.00015240        1      -0.00000000       0.00000000      -0.00000000
I        3.00015240       3.00324227       0.00454448        2       0.00000022       0.00000000      -0.02644125
I        3.00015240      11.92917503       3.00015240        3      -0.00000000       0.01692411       0.00000000
I       11.92779820       3.00324227       3.00015240        4      -0.00205734      -0.00000000      -0.00000006
K       11.90243180      11.74038809       5.90212701        5       0.00517386       0.00717183       0.00517386
Sn       3.00015240       3.00324227       9.00045719        6      -0.00000000      -0.00000000       0.00000000
I        3.00015240       3.00324227       5.99576031        7      -0.00000022      -0.00000000       0.02644125
I        3.00015240      11.92589092       9.00045719        8       0.00000000       0.03898182      -0.00000000
I       11.99606510       3.00324227       9.00045719        9       0.02644125       0.00000000      -0.00000022
K       11.90243180       6.27906555       0.09817778       10       0.00517385      -0.00717189      -0.00517385
Ge       3.00015240       9.00972682       3.00015240       11      -0.00000000       0.00000000      -0.00000000
I        3.00015240       9.00972682       0.00846295       12      -0.00000002       0.00000000      -0.01455596
I        3.00015240       6.09027861       3.00015240       13      -0.00000000      -0.01692411       0.00000000
I       11.99552146       9.00972682       3.00015240       14      -0.01043827       0.00000000       0.00000004
K       11.90243180       6.27906555       5.90212701       15       0.00517386      -0.00717183       0.00517386
Ge       3.00015240       9.00972682       9.00045719       16      -0.00000000       0.00000000       0.00000000
I        3.00015240       9.00972682       5.99184184       17       0.00000002       0.00000000       0.01455596
I        3.00015240       6.09356272       9.00045719       18      -0.00000000      -0.03898182       0.00000000
I       11.99214663       9.00972682       9.00045719       19       0.01455596       0.00000000       0.00000002
K        6.09848257      11.74038809       0.09817778       20      -0.00517386       0.00717183      -0.00517386
Ge       9.00045719       3.00324227       3.00015240       21       0.00000000       0.00000000      -0.00000000
I        9.00045719       3.00324227       0.07281138       22       0.00000006      -0.00000000       0.00205734
I        9.00045719      11.99271046       3.00015240       23       0.00000000       0.00481472      -0.00000000
I        6.07311617       3.00324227       3.00015240       24       0.00205734      -0.00000000       0.00000006
K        6.09848257      11.74038809       5.90212701       25      -0.00517385       0.00717189       0.00517385
Sn       9.00045719       3.00324227       9.00045719       26       0.00000000       0.00000000       0.00000000
I        9.00045719       3.00324227       5.92749341       27      -0.00000006      -0.00000000      -0.00205734
I        9.00045719      11.92917503       9.00045719       28      -0.00000000       0.01692411       0.00000000
I        6.00484927       3.00324227       9.00045719       29      -0.02644125      -0.00000000       0.00000022
K        6.09848257       6.27906555       0.09817778       30      -0.00517386      -0.00717183      -0.00517386
Ge       9.00045719       9.00972682       3.00015240       31      -0.00000000      -0.00000000       0.00000000
I        9.00045719       9.00972682       0.00508812       32      -0.00000004       0.00000000       0.01043827
I        9.00045719       6.02674318       3.00015240       33      -0.00000000      -0.00481472       0.00000000
I        6.00539291       9.00972682       3.00015240       34       0.01043827       0.00000000      -0.00000004
K        6.09848257       6.27906555       5.90212701       35      -0.00517385      -0.00717189       0.00517385
Ge       9.00045719       9.00972682       9.00045719       36       0.00000000       0.00000000       0.00000000
I        9.00045719       9.00972682       5.99521667       37       0.00000004       0.00000000      -0.01043827
I        9.00045719       6.09027861       9.00045719       38      -0.00000000      -0.01692411       0.00000000
I        6.00876774       9.00972682       9.00045719       39      -0.01455596       0.00000000      -0.00000002
40
Lattice="12.000609580149845 0.0 0.0 0.0 12.012969092057537 0.0 0.0 -6.854661053467457e-14 12.000609580149858" Properties=species:S:1:pos:R:3:spacegroup_kinds:I:1:forces:R:3 spacegroup="P 1" unit_cell=conventional candidate_id=954f23b1552256f6 formula=KGe0.65Sn0.35I3 config_index=1 rattle_stdev=0.08 method=PBE fidelity=phase2_force energy=-110.26395707606463 stress="-0.005035824849941992 2.3233802236407343e-05 6.496180804189368e-05 2.3233802236407343e-05 -0.004116114241879231 1.2589882822795674e-05 6.496180804189368e-05 1.2589882822795674e-05 -0.00535272568249173" pbc="T T T"
K       11.81551609      11.66870288       0.07367383        0      -0.00895716       0.05862153       0.01598173
Sn       2.89295770       2.90671543       2.94881425        1       0.27883454       0.25975692       0.41843287
I        3.10478805       3.15087911       0.07087368        2      -0.03702740       0.00650013      -0.18120528
I        2.99828849      11.91248991       2.92682282        3       0.04293225       0.02412878      -0.00385173
I       11.84181879       2.99635079       3.09421948        4       0.54636495       0.01335362       0.03426884
K       11.77162446      11.83864361       5.98823791        5       0.02728906       0.06944029      -0.02681563
Sn       3.03173422       2.97222621       9.04752933        6       0.08132225      -0.03876143      -0.15819075
I        2.88548849       2.97735630       6.09599909        7       0.06355250       0.04082823      -0.31289901
I        2.94169299      12.04016972       9.07602950        8      -0.02208929      -0.46109613       0.03152952
I       11.97494488       2.99018521       8.92332860        9       0.23386678       0.01411206       0.05634467
K       11.87502001       6.28297787       0.05820723       10       0.01028663      -0.05079874       0.01154657
Ge       2.82320003       9.03451377       2.87298029       11       0.47590815      -0.28592336      -0.19582243
I        3.05850876       9.00109472      -0.04355077       12      -0.05785916       0.03545903       0.14355991
I        2.86470787       6.06080068       2.87292266       13       0.01747399       0.03815568       0.08387691
I       12.11396193       9.04768204       3.07326150       14      -0.64967997       0.01388716       0.02438934
K       11.97926942       6.28582896       6.03950548       15       0.03968142      -0.06274712       0.00794033
Ge       3.06830381       8.94933599       8.81744684       16       0.31457934       0.01867492       0.08491341
I        3.00889149       8.97371417       5.95880404       17       0.01892247      -0.01639972       0.11774537
I        3.02567110       6.05027408       9.07635050       18      -0.01882317       0.44422554      -0.06175101
I       12.00426143       9.01587901       8.99570515       19       0.16431037       0.03972352      -0.01643346
K        6.09287148      11.69509616       0.12305821       20      -0.00918555       0.03738597       0.01240321
Ge       9.05839389       3.04455828       3.08223485       21      -0.41730601      -0.23035939      -0.54398637
I        9.04206939       2.93365519       0.19285659       22       0.05788186       0.02593381      -0.51768484
I        9.09377496      12.03206362       2.94157142       23      -0.02371526      -0.11221945       0.17425641
I        6.12754066       3.04396202       2.93314950       24      -0.40915052      -0.00286581       0.07176331
K        6.15029416      11.74139125       6.02689413       25      -0.03101397       0.02437500      -0.00086020
Sn       9.08322481       3.03025769       8.89624835       26      -0.27877973       0.29546209       0.34559495
I        8.91097364       3.10800348       5.88603605       27      -0.05677146      -0.02563013       0.45813439
I        8.96900724      12.01261251       9.00643440       28       0.03474448      -0.23387257      -0.03151974
I        6.01200423       3.00755486       9.03393294       29      -0.01362837       0.00351730       0.00602723
K        6.00026417       6.19190223       0.12354773       30      -0.03679980      -0.05818507       0.02394826
Ge       8.93802474       8.94123634       2.89456268       31      -0.24736928       0.15745384      -0.03103801
I        9.03675972       9.08986881       0.11818689       32      -0.01463023      -0.05186144      -0.10734165
I        8.98524255       6.02915202       2.85027906       33       0.04955164       0.16006150       0.04645003
I        5.99605075       8.99952759       3.07232714       34       0.37719108      -0.00937232      -0.01042406
K        5.99333280       6.27110149       5.91337099       35      -0.02472206      -0.03884888       0.00404355
Ge       9.21076166       9.15018913       8.78960536       36      -0.32301272      -0.28092506       0.55829911
I        8.89752563       8.99598904       6.13925297       37       0.11361192       0.07300773      -0.69583135
I        9.04915284       6.09280065       8.88314421       38       0.00527103       0.12460932       0.10175466
I        6.03352300       9.10110425       8.95958965       39      -0.27051220      -0.02409295       0.04160479
40
Lattice="12.000609580149845 0.0 0.0 0.0 12.012969092057537 0.0 0.0 -6.854661053467457e-14 12.000609580149858" Properties=species:S:1:pos:R:3:spacegroup_kinds:I:1:forces:R:3 spacegroup="P 1" unit_cell=conventional candidate_id=954f23b1552256f6 formula=KGe0.65Sn0.35I3 config_index=2 rattle_stdev=0.08 method=PBE fidelity=phase2_force energy=-110.21786153681299 stress="-0.004588312329127058 6.741204661918881e-05 7.764786444469345e-05 6.741204661918881e-05 -0.004709063443259241 1.1735508243140606e-05 7.764786444469345e-05 1.1735508243140606e-05 -0.0040928088689535244" pbc="T T T"
K       11.89341475      11.65426297       0.24097994        0       0.02940166       0.00941098      -0.04829127
Sn       2.88359373       2.97713661       2.89936068        1       0.69938494       0.27598065       0.22467110
I        3.03022171       2.93299048      -0.02345358        2      -0.01723342       0.04607869      -0.11952789
I        3.02388521      12.02524798       2.87463278        3      -0.02217346      -0.63343191       0.05984417
I       12.07612050       3.04275922       2.98969548        4      -1.03401818       0.05446010      -0.02901346
K       11.87018214      11.66249511       5.86472966        5      -0.01328940      -0.00700604       0.05484777
Sn       2.94271868       3.10095374       8.93828118        6       0.52251890       0.04349713       0.03198444
I        2.95307034       2.99863276       6.00212670        7       0.07138867      -0.12509730      -0.19006798
I        2.90549631      11.80199152       9.07343768        8       0.02322866       0.53186270      -0.01372151
I       12.02907876       2.94758075       8.81735543        9      -0.17031364      -0.00459727       0.01453410
K       11.83945247       6.19678422       0.10564243       10       0.01939007       0.00431063      -0.02343860
Ge       2.95781686       9.07214641       2.98408722       11       0.20635294      -0.18353258       0.02229278
I        2.96170371       8.92690585      -0.03175580       12       0.03209414      -0.06842836       0.35715505
I        3.06334361       6.01627880       3.17695522       13      -0.00635601       0.49040488      -0.06518531
I       11.88350257       8.99059903       3.01753965       14       0.49208276      -0.04561353       0.03062303
K       11.87424097       6.28593559       5.91065916       15      -0.00063641      -0.00601685       0.03539085
Ge       2.98438990       9.11748153       9.02807110       16      -0.20003697      -0.31347488      -0.08992124
I        3.04476395       8.96210401       6.05046841       17      -0.02232425       0.10582232      -0.29429837
I        3.10665261       6.03516008       8.96159672       18       0.00610749      -0.13156586       0.03590657
I       12.07829977       8.80209823       9.01381144       19       0.01066568       0.01832454      -0.02544170
K        6.18159935      11.59570218       0.15886906       20      -0.02563892       0.04374296      -0.03386320
Ge       8.96044816       2.81569882       2.99151898       21      -0.30058636       0.14397077       0.18395652
I        8.88023417       3.04234457       0.02855710       22       0.10024498       0.05628498       0.18208121
I        9.08505779      11.92316503       2.99414511       23       0.00493016       0.30873658      -0.01103860
I        6.06454378       3.17114803       2.97290936       24       0.36504266      -0.15559498      -0.00006581
K        6.05625017      11.63681874       5.91925493       25       0.00478261       0.00072687       0.03130979
Sn       9.09055875       3.03536514       9.06170401       26      -0.47194327      -0.06473259      -0.20337682
I        8.89220699       3.04915095       5.90988244       27       0.05939854      -0.08205734      -0.12934704
I        9.05207230      11.84879749       9.15243627       28       0.04210720       0.52399969       0.00864985
I        6.02219814       3.04323990       8.95032990       29       0.02762558      -0.07608482      -0.01968294
K        6.01825184       6.21656073       0.11452000       30      -0.03327937      -0.06196604       0.00954993
Ge       9.04334455       8.92372702       2.82272401       31      -0.31542934      -0.27591193       0.34069895
I        9.05221160       8.98393996      -0.00871702       32      -0.00238334      -0.08108771       0.13418995
I        8.81738344       6.01777967       3.07657750       33       0.13887011       0.14475617      -0.08472648
I        6.04177196       9.17468102       3.00514923       34      -0.34094961      -0.02260637      -0.06068673
K        6.09870997       6.24278124       5.93200561       35      -0.00633905      -0.04575701       0.00606414
Ge       8.93540791       9.00160222       9.03611424       36       0.03525983       0.09990071      -0.43584146
I        8.89844689       9.01835336       6.06339562       37       0.09849714       0.09966822      -0.06835898
I        8.98790902       6.18538415       8.88267611       38       0.06215055      -0.67289210       0.05422548
I        6.07805101       8.93825566       8.95653954       39      -0.08779766       0.07022833       0.11829305
40
Lattice="12.000609580149845 0.0 0.0 0.0 12.012969092057537 0.0 0.0 -6.854661053467457e-14 12.000609580149858" Properties=species:S:1:pos:R:3:spacegroup_kinds:I:1:forces:R:3 spacegroup="P 1" unit_cell=conventional candidate_id=954f23b1552256f6 formula=KGe0.65Sn0.35I3 config_index=3 rattle_stdev=0.08 method=PBE fidelity=phase2_force energy=-109.93695339386386 stress="-0.004690666553605063 8.304916774070635e-05 -5.432773070032605e-06 8.304916774070635e-05 -0.004561745007529118 -2.3729899097402523e-05 -5.432773070032605e-06 -2.3729899097402523e-05 -0.004075575322939528" pbc="T T T"
K       11.79674831      11.90172832       0.10198294        0       0.02338942       0.09546248       0.01709257
Sn       2.98113870       3.00997209       3.07691578        1      -0.32499034      -0.28843540      -0.98840272
I        2.94562452       3.04556791      -0.05744898        2       0.02154830       0.01495367      -0.05868534
I        3.11254889      11.91120059       2.89568154        3       0.03965199      -0.15783538      -0.00600058
I       11.87351538       2.87356761       2.89775451        4       0.25457694       0.05351261       0.01153251
K       11.88448806      11.67234320       5.84166780        5      -0.01655455       0.03580445      -0.00646073
Sn       3.02120606       2.79882683       8.86683451        6      -0.06603370       0.43393021       0.59345605
I        2.94321358       2.80750022       5.89362552        7      -0.07160166      -0.05711174       0.58359751
I        3.05324220      11.82358420       8.93722441        8      -0.06250863       0.59186526       0.04445715
I       11.87587544       2.90807908       9.18179240        9       0.65733621       0.02501167       0.03403644
K       11.86428957       6.35079867      -0.04621728       10       0.02946943      -0.06504645      -0.04386949
Ge       2.96085523       8.91376709       2.93573477       11      -0.03505592       0.30407717      -0.08591053
I        3.11261788       8.99130157      -0.04863277       12      -0.07239990      -0.06994288       0.51537270
I        2.98714539       6.03596821       3.12128181       13      -0.02377628       0.24392172       0.01824485
I       11.85571564       9.06240919       2.97262309       14       1.06605938      -0.11259517       0.03211599
K       11.84173594       6.29282765       5.84954372       15      -0.02642323      -0.00390161       0.00755573
Ge       3.04436803       9.04033548       8.97075396       16      -0.03509580      -0.68707666      -0.04875267
I        3.12640391       9.02707062       6.08876917       17      -0.02073607       0.02182287      -0.43519571
I        3.05867084       6.14748241       8.95403270       18      -0.02711411      -0.38271392      -0.03347658
I       11.98419946       8.88293763       8.99447987       19      -0.15832926       0.03499460       0.03025173
K        6.19438728      11.71915427       0.04603382       20      -0.03933098       0.01410252      -0.00447481
Ge       8.84873426       2.88001835       2.96872654       21       0.33558483       0.21638171      -0.02468121
I        8.96729872       3.06012770       0.12421341       22      -0.09523240      -0.02998857      -0.16413791
I        9.19224409      11.97912787       2.91908170       23      -0.18073617      -0.18146058       0.02756521
I        6.03763168       3.07092045       3.03970112       24      -0.07648506      -0.05737469       0.02334063
K        6.12077363      11.78215536       5.92753634       25      -0.00798288      -0.01837183       0.01588170
Sn       9.01862809       2.97201503       8.94301578       26      -0.26249585      -0.05082276      -0.04129838
I        9.12398608       2.93420666       5.89878720       27      -0.00367339      -0.02142470       0.20071976
I        9.00716133      12.06351279       8.90611021       28      -0.03979123      -0.97410692       0.08439694
I        5.97295110       2.96937113       9.04520413       29      -0.17027477      -0.02740810      -0.04626054
K        6.05230300       6.28476534       0.16755419       30      -0.01850541      -0.03969448      -0.03691415
Ge       9.03364990       8.99162804       3.06059985       31      -0.18520707      -0.18473065       0.15254880
I        9.01846758       8.97454658       0.05741446       32       0.03785616      -0.00993240      -0.06298916
I        8.92876732       5.91278729       3.13955113       33       0.10677395       0.25469553      -0.00362202
I        6.23893896       8.95582880       2.93847045       34      -0.88576696       0.05559353       0.03459580
K        6.18292196       6.37072259       5.91177685       35       0.00070260       0.01176424       0.01762852
Ge       9.00145666       8.95376510       9.15056112       36       0.09357431      -0.02201356      -0.21445140
I        8.96440451       8.98522808       6.10823602       37       0.01513028       0.02189730      -0.16700395
I        8.94816990       5.90895328       9.04888534       38      -0.02033409       0.99460791       0.01098461
I        5.96682230       9.02632600       9.08816935       39       0.25090132       0.01249270       0.01620202
