Cs Pb I  Cs Pb I  Cs Sn I  Cs Sn I  Cs Sn I  Cs Pb I  Cs Sn I  Cs Sn I 
 1.0000000000000000
    13.5368522190352643    0.0000000000000000    0.0000000000000000
     0.0000000000000000   13.5368522190352643    0.0000000000000000
     0.0000000000000000    0.0000000000000000   13.5368522190352643
 Cs  Pb  I   Cs  Pb  I   Cs  Sn  I   Cs  Sn  I   Cs  Sn  I   Cs  Pb  I   Cs  Sn  I   Cs  Sn  I  
   1   1   3   1   1   3   1   1   3   1   1   3   1   1   3   1   1   3   1   1   3   1   1   3
Cartesian
  0.0000000000000000  0.0000000000000000  0.0000000000000000
  3.3842130547588161  3.3842130547588161  3.3842130547588161
  3.3842130547588161  3.3842130547588161  0.0000000000000000
  3.3842130547588161  0.0000000000000000  3.3842130547588161
  0.0000000000000000  3.3842130547588161  3.3842130547588161
  0.0000000000000000  0.0000000000000000  6.7684261095176312
  3.3842130547588161  3.3842130547588161 10.1526391642764473
  3.3842130547588161  3.3842130547588161  6.7684261095176312
  3.3842130547588161  0.0000000000000000 10.1526391642764473
  0.0000000000000000  3.3842130547588161 10.1526391642764473
  0.0000000000000000  6.7684261095176312  0.0000000000000000
  3.3842130547588161 10.1526391642764473  3.3842130547588161
  3.3842130547588161 10.1526391642764473  0.0000000000000000
  3.3842130547588161  6.7684261095176312  3.3842130547588161
  0.0000000000000000 10.1526391642764473  3.3842130547588161
  0.0000000000000000  6.7684261095176312  6.7684261095176312
  3.3842130547588161 10.1526391642764473 10.1526391642764473
  3.3842130547588161 10.1526391642764473  6.7684261095176312
  3.3842130547588161  6.7684261095176312 10.1526391642764473
  0.0000000000000000 10.1526391642764473 10.1526391642764473
  6.7684261095176312  0.0000000000000000  0.0000000000000000
 10.1526391642764473  3.3842130547588161  3.3842130547588161
 10.1526391642764473  3.3842130547588161  0.0000000000000000
 10.1526391642764473  0.0000000000000000  3.3842130547588161
  6.7684261095176312  3.3842130547588161  3.3842130547588161
  6.7684261095176312  0.0000000000000000  6.7684261095176312
 10.1526391642764473  3.3842130547588161 10.1526391642764473
 10.1526391642764473  3.3842130547588161  6.7684261095176312
 10.1526391642764473  0.0000000000000000 10.1526391642764473
  6.7684261095176312  3.3842130547588161 10.1526391642764473
  6.7684261095176312  6.7684261095176312  0.0000000000000000
 10.1526391642764473 10.1526391642764473  3.3842130547588161
 10.1526391642764473 10.1526391642764473  0.0000000000000000
 10.1526391642764473  6.7684261095176312  3.3842130547588161
  6.7684261095176312 10.1526391642764473  3.3842130547588161
  6.7684261095176312  6.7684261095176312  6.7684261095176312
 10.1526391642764473 10.1526391642764473 10.1526391642764473
 10.1526391642764473 10.1526391642764473  6.7684261095176312
 10.1526391642764473  6.7684261095176312 10.1526391642764473
  6.7684261095176312 10.1526391642764473 10.1526391642764473
