40
Lattice="12.23378347595415 0.0 0.0 0.0 12.226130085926311 0.0 0.0 -5.901270042168047e-14 12.233783475954022" Properties=species:S:1:pos:R:3:spacegroup_kinds:I:1:forces:R:3 spacegroup="P 1" unit_cell=conventional occupancy="_JSON {\"0\": {\"Rb\": 1.0}, \"1\": {\"Sn\": 1.0}, \"2\": {\"I\": 1.0}, \"3\": {\"I\": 1.0}, \"4\": {\"I\": 1.0}, \"5\": {\"Rb\": 1.0}, \"6\": {\"Sn\": 1.0}, \"7\": {\"I\": 1.0}, \"8\": {\"I\": 1.0}, \"9\": {\"I\": 1.0}, \"10\": {\"Rb\": 1.0}, \"11\": {\"Sn\": 1.0}, \"12\": {\"I\": 1.0}, \"13\": {\"I\": 1.0}, \"14\": {\"I\": 1.0}, \"15\": {\"Rb\": 1.0}, \"16\": {\"Ge\": 1.0}, \"17\": {\"I\": 1.0}, \"18\": {\"I\": 1.0}, \"19\": {\"I\": 1.0}, \"20\": {\"Rb\": 1.0}, \"21\": {\"Ge\": 1.0}, \"22\": {\"I\": 1.0}, \"23\": {\"I\": 1.0}, \"24\": {\"I\": 1.0}, \"25\": {\"Rb\": 1.0}, \"26\": {\"Sn\": 1.0}, \"27\": {\"I\": 1.0}, \"28\": {\"I\": 1.0}, \"29\": {\"I\": 1.0}, \"30\": {\"Rb\": 1.0}, \"31\": {\"Ge\": 1.0}, \"32\": {\"I\": 1.0}, \"33\": {\"I\": 1.0}, \"34\": {\"I\": 1.0}, \"35\": {\"Rb\": 1.0}, \"36\": {\"Sn\": 1.0}, \"37\": {\"I\": 1.0}, \"38\": {\"I\": 1.0}, \"39\": {\"I\": 1.0}}" candidate_id=8d43ba95fa7df377 formula=RbGe0.4Sn0.6I3 config_index=0 rattle_stdev=0.0 method=PBE fidelity=phase2_force energy=-110.22742303069089 stress="-0.001514746367009123 1.2188819543157662e-15 5.122703864183917e-10 1.2188819543157662e-15 -0.002073533503073379 -1.2288841594121582e-15 5.122703864183917e-10 -1.2288841594121582e-15 -0.0015147463670091548" pbc="T T T"
Rb      12.16960381      12.14957937       0.06417967        0      -0.00023245       0.00534848       0.00023245
Sn       3.05844587       3.05653252       3.05844587        1       0.00000000      -0.00000000       0.00000000
I        3.05844587       3.05653252       0.00145349        2      -0.00000013      -0.00000000       0.00486155
I        3.05844587      12.22246603       3.05844587        3       0.00000000       0.00221166       0.00000000
I       12.14067067       3.05653252       3.05844587        4       0.08784067      -0.00000000       0.00000008
Rb      12.16960381      12.14957937       6.05271207        5      -0.00023248       0.00534849      -0.00023248
Sn       3.05844587       3.05653252       9.17533761        6      -0.00000000      -0.00000000       0.00000000
I        3.05844587       3.05653252       6.11543825        7       0.00000013      -0.00000000      -0.00486155
I        3.05844587      12.13584124       9.17533761        8       0.00000000       0.08638282      -0.00000000
I       12.23232999       3.05653252       9.17533761        9      -0.00486155      -0.00000000       0.00000013
Rb      12.16960381       6.18961576       0.06417967       10      -0.00023245      -0.00534848       0.00023245
Sn       3.05844587       9.16959756       3.05844587       11       0.00000000      -0.00000000       0.00000000
I        3.05844587       9.16959756      12.15082211       12      -0.00000008       0.00000000       0.09084603
I        3.05844587       6.11672910       3.05844587       13       0.00000000      -0.00221166       0.00000000
I       12.14314635       9.16959756       3.05844587       14       0.08221913       0.00000000      -0.00000002
Rb      12.16960381       6.18961576       6.05271207       15      -0.00023248      -0.00534849      -0.00023248
Ge       3.05844587       9.16959756       9.17533761       16       0.00000000      -0.00000000      -0.00000000
I        3.05844587       9.16959756       6.19985311       17       0.00000008       0.00000000      -0.09084603
I        3.05844587       6.20335389       9.17533761       18       0.00000000      -0.08638282      -0.00000000
I        0.08296137       9.16959756       9.17533761       19      -0.09084603       0.00000000       0.00000008
Rb       6.18107141      12.14957937       0.06417967       20       0.00023248       0.00534849       0.00023248
Ge       9.17533761       3.05653252       3.05844587       21      -0.00000000       0.00000000       0.00000000
I        9.17533761       3.05653252       0.09311280       22      -0.00000008      -0.00000000      -0.08784067
I        9.17533761      12.21978184       3.05844587       23       0.00000000       0.00030256      -0.00000000
I        6.21000454       3.05653252       3.05844587       24      -0.08784067      -0.00000000      -0.00000008
Rb       6.18107141      12.14957937       6.05271207       25       0.00023245       0.00534848      -0.00023245
Sn       9.17533761       3.05653252       9.17533761       26      -0.00000000      -0.00000000      -0.00000000
I        9.17533761       3.05653252       6.02377893       27       0.00000008      -0.00000000       0.08784067
I        9.17533761      12.22246603       9.17533761       28      -0.00000000       0.00221166      -0.00000000
I        6.11834523       3.05653252       9.17533761       29       0.00486155      -0.00000000      -0.00000013
Rb       6.18107141       6.18961576       0.06417967       30       0.00023248      -0.00534849       0.00023248
Ge       9.17533761       9.16959756       3.05844587       31      -0.00000000      -0.00000000       0.00000000
I        9.17533761       9.16959756       0.09063712       32       0.00000002       0.00000000      -0.08221913
I        9.17533761       6.11941329       3.05844587       33      -0.00000000      -0.00030256       0.00000000
I        6.20752886       9.16959756       3.05844587       34      -0.08221913       0.00000000       0.00000002
Rb       6.18107141       6.18961576       6.05271207       35       0.00023245      -0.00534848      -0.00023245
Sn       9.17533761       9.16959756       9.17533761       36      -0.00000000      -0.00000000      -0.00000000
I        9.17533761       9.16959756       6.02625461       37      -0.00000002       0.00000000       0.08221913
I        9.17533761       6.11672910       9.17533761       38      -0.00000000      -0.00221166      -0.00000000
I        6.03393037       9.16959756       9.17533761       39       0.09084603       0.00000000      -0.00000008
40
Lattice="12.23378347595415 0.0 0.0 0.0 12.226130085926311 0.0 0.0 -5.901270042168047e-14 12.233783475954022" Properties=species:S:1:pos:R:3:spacegroup_kinds:I:1:forces:R:3 spacegroup="P 1" unit_cell=conventional occupancy="_JSON {\"0\": {\"Rb\": 1.0}, \"1\": {\"Sn\": 1.0}, \"2\": {\"I\": 1.0}, \"3\": {\"I\": 1.0}, \"4\": {\"I\": 1.0}, \"5\": {\"Rb\": 1.0}, \"6\": {\"Sn\": 1.0}, \"7\": {\"I\": 1.0}, \"8\": {\"I\": 1.0}, \"9\": {\"I\": 1.0}, \"10\": {\"Rb\": 1.0}, \"11\": {\"Sn\": 1.0}, \"12\": {\"I\": 1.0}, \"13\": {\"I\": 1.0}, \"14\": {\"I\": 1.0}, \"15\": {\"Rb\": 1.0}, \"16\": {\"Ge\": 1.0}, \"17\": {\"I\": 1.0}, \"18\": {\"I\": 1.0}, \"19\": {\"I\": 1.0}, \"20\": {\"Rb\": 1.0}, \"21\": {\"Ge\": 1.0}, \"22\": {\"I\": 1.0}, \"23\": {\"I\": 1.0}, \"24\": {\"I\": 1.0}, \"25\": {\"Rb\": 1.0}, \"26\": {\"Sn\": 1.0}, \"27\": {\"I\": 1.0}, \"28\": {\"I\": 1.0}, \"29\": {\"I\": 1.0}, \"30\": {\"Rb\": 1.0}, \"31\": {\"Ge\": 1.0}, \"32\": {\"I\": 1.0}, \"33\": {\"I\": 1.0}, \"34\": {\"I\": 1.0}, \"35\": {\"Rb\": 1.0}, \"36\": {\"Sn\": 1.0}, \"37\": {\"I\": 1.0}, \"38\": {\"I\": 1.0}, \"39\": {\"I\": 1.0}}" candidate_id=8d43ba95fa7df377 formula=RbGe0.4Sn0.6I3 config_index=1 rattle_stdev=0.08 method=PBE fidelity=phase2_force energy=-109.79589528272336 stress="-0.003409034016156927 3.76415005217774e-05 -1.3172304548931403e-06 3.76415005217774e-05 -0.0032343676621325057 -7.671847625870727e-05 -1.3172304548931403e-06 -7.671847625870727e-05 -0.0038623232590890904" pbc="T T T"
Rb      12.08268810      12.07789416       0.03967572        0      -0.01509196       0.04232730       0.02316138
Sn       2.95125118       2.96000567       3.00710772        1       0.20029959       0.33191621       0.29344102
I        3.16308152       3.20416936       0.06778269        2      -0.05183003      -0.03777191      -0.07807816
I        3.05658196      12.20578092       2.98511629        3       0.03160942      -0.00021884      -0.00792604
I       12.05469126       3.04964104       3.15251295        4       0.56547107       0.00793442       0.02421545
Rb      12.03879647      12.24783489       6.13882297        5       0.03261198       0.05208944      -0.03918698
Sn       3.09002770       3.02551646       9.22240975        6       0.08276638      -0.07246322      -0.16049414
I        2.94378196       3.03064655       6.21567702        7       0.05356451       0.02704548      -0.24465629
I        2.99998646      12.25012004       9.25090992        8      -0.01425688      -0.28355523       0.00902245
I       12.21120976       3.04347546       9.09820903        9       0.12853325       0.00841460       0.04037815
Rb      12.14219202       6.19352809       0.02420911       10      -0.00320379      -0.03781575       0.01649183
Sn       2.88149351       9.19438451       2.93127377       11       0.55974115      -0.32733225      -0.16795944
I        3.11680224       9.16096546      12.09880839       12      -0.05037740       0.03527363       0.21461262
I        2.92300135       6.08725117       2.93121613       13       0.00308790       0.06065713       0.08317101
I       12.26158682       9.20755278       3.13155497       14      -0.59665558       0.01171060       0.05066208
Rb      12.24644143       6.19637917       6.19009055       15       0.02790567      -0.04805520      -0.01047785
Ge       3.12659729       9.10920674       8.99232726       16       0.28889439      -0.01842561       0.15503034
I        3.06718496       9.13358492       6.16681531       17       0.00868288      -0.01069858      -0.06445074
I        3.08396457       6.16006526       9.25123093       18      -0.01711962       0.34323213      -0.07757939
I        0.09507617       9.17574976       9.17058558       19       0.11982055       0.02418242      -0.00902728
Rb       6.17546031      12.10428744       0.08906010       20       0.00562563       0.02905938       0.01854308
Ge       9.23327431       3.09784852       3.14052832       21      -0.35912292      -0.20579053      -0.49369073
I        9.21694982       2.98694544       0.21315802       22       0.06008293       0.03276716      -0.48751425
I        9.26865538      12.25913500       2.99986489       23      -0.02822359      -0.07429604       0.16414847
I        6.26442903       3.09725227       2.99144297       24      -0.41782797      -0.01666412       0.07224894
Rb       6.23288299      12.15058252       6.17747920       25      -0.02700149       0.01900370      -0.01823930
Sn       9.25810524       3.08354793       9.07112877       26      -0.20138582       0.30119987       0.22263341
I        9.08585406       3.16129373       5.98232157       27      -0.02293059      -0.03724720       0.51420927
I        9.14388766      12.30590351       9.18131482       28       0.01244037      -0.21767617      -0.02647598
I        6.12550019       3.06084511       9.20881337       29      -0.01650745      -0.00040940      -0.00937517
Rb       6.08285300       6.10245244       0.08954962       30      -0.00483710      -0.03173547       0.02251462
Ge       9.11290516       9.10110708       2.95285616       31      -0.23915558       0.08095429       0.00398494
I        9.21164014       9.24973955       0.20373590       32      -0.00617338      -0.03268421      -0.24862866
I        9.16012298       6.12182213       2.90857253       33       0.04926719       0.17301712       0.05846303
I        6.19818671       9.15939834       3.13062061       34       0.24502007      -0.00043312      -0.00908514
Rb       6.07592163       6.18165170       6.06395606       35      -0.00974025      -0.02698654      -0.00627517
Sn       9.38564208       9.31005987       8.96448578       36      -0.36003191      -0.35976898       0.66523118
I        9.07240605       9.15585979       6.17029091       37       0.06288941       0.04691044      -0.63507824
I        9.22403326       6.11925114       9.05802463       38       0.00545384       0.21190464       0.06948571
I        6.05868563       9.26097499       9.13447007       39      -0.09665627      -0.01155501       0.00840155
40
Lattice="12.23378347595415 0.0 0.0 0.0 12.226130085926311 0.0 0.0 -5.901270042168047e-14 12.233783475954022" Properties=species:S:1:pos:R:3:spacegroup_kinds:I:1:forces:R:3 spacegroup="P 1" unit_cell=conventional occupancy="_JSON {\"0\": {\"Rb\": 1.0}, \"1\": {\"Sn\": 1.0}, \"2\": {\"I\": 1.0}, \"3\": {\"I\": 1.0}, \"4\": {\"I\": 1.0}, \"5\": {\"Rb\": 1.0}, \"6\": {\"Sn\": 1.0}, \"7\": {\"I\": 1.0}, \"8\": {\"I\": 1.0}, \"9\": {\"I\": 1.0}, \"10\": {\"Rb\": 1.0}, \"11\": {\"Sn\": 1.0}, \"12\": {\"I\": 1.0}, \"13\": {\"I\": 1.0}, \"14\": {\"I\": 1.0}, \"15\": {\"Rb\": 1.0}, \"16\": {\"Ge\": 1.0}, \"17\": {\"I\": 1.0}, \"18\": {\"I\": 1.0}, \"19\": {\"I\": 1.0}, \"20\": {\"Rb\": 1.0}, \"21\": {\"Ge\": 1.0}, \"22\": {\"I\": 1.0}, \"23\": {\"I\": 1.0}, \"24\": {\"I\": 1.0}, \"25\": {\"Rb\": 1.0}, \"26\": {\"Sn\": 1.0}, \"27\": {\"I\": 1.0}, \"28\": {\"I\": 1.0}, \"29\": {\"I\": 1.0}, \"30\": {\"Rb\": 1.0}, \"31\": {\"Ge\": 1.0}, \"32\": {\"I\": 1.0}, \"33\": {\"I\": 1.0}, \"34\": {\"I\": 1.0}, \"35\": {\"Rb\": 1.0}, \"36\": {\"Sn\": 1.0}, \"37\": {\"I\": 1.0}, \"38\": {\"I\": 1.0}, \"39\": {\"I\": 1.0}}" candidate_id=8d43ba95fa7df377 formula=RbGe0.4Sn0.6I3 config_index=2 rattle_stdev=0.08 method=PBE fidelity=phase2_force energy=-109.80905255025843 stress="-0.0027992317248014147 1.5016993912576737e-05 -2.8294128503901846e-05 1.5016993912576737e-05 -0.0036052915592604106 -1.6795066019525544e-05 -2.8294128503901846e-05 -1.6795066019525544e-05 -0.0025618178255598454" pbc="T T T"
Rb      12.16058677      12.06345425       0.20698182        0       0.01887339       0.00291802      -0.04934800
Sn       2.94188720       3.03042686       2.95765415        1       0.46508572       0.32915974       0.15400099
I        3.08851519       2.98628073      -0.02654457        2      -0.03461875       0.05130536      -0.03726831
I        3.08217869      12.31853899       2.93292625        3       0.00343463      -0.67344299       0.04829093
I       12.28899297       3.09604947       3.04798895        4      -0.67157461       0.02400963      -0.03786442
Rb      12.13735415      12.07168638       6.01531473        5      -0.01641691      -0.00563690       0.04916674
Sn       3.00101215       3.15424399       9.11316161        6       0.44770787       0.10567310      -0.00315947
I        3.01136382       3.05192301       6.12180464        7       0.04295232      -0.10912944      -0.13035266
I        2.96378978      12.01194184       9.24831810        8       0.02156158       0.40609732      -0.01344498
I       12.26534365       3.00087100       8.99223586        9      -0.17508683       0.00836578       0.02256870
Rb      12.10662449       6.10733443       0.07164432       10       0.01750215       0.01197385      -0.01258137
Sn       3.01611034       9.23201715       3.04238069       11       0.20925540      -0.24566819       0.03623463
I        3.01999718       9.08677659      12.11060336       12       0.03591169      -0.05561570       0.45812754
I        3.12163709       6.04272929       3.23524869       13      -0.00412471       0.55183029      -0.05207576
I       12.03112746       9.15046977       3.07583312       14       0.58345228      -0.03124578       0.03460705
Rb      12.14141299       6.19648581       6.06124423       15      -0.00363367       0.00437231       0.01864202
Ge       3.04268337       9.27735227       9.20295153       16      -0.16790886      -0.18407741      -0.09464130
I        3.10305742       9.12197475       6.25847968       17      -0.01752203       0.07962749      -0.41285092
I        3.16494608       6.14495126       9.13647714       18      -0.01192747      -0.26020742       0.03449089
I        0.16911451       8.96196897       9.18869186       19      -0.15700697       0.01165068      -0.02126372
Rb       6.26418818      12.00489346       0.12487094       20      -0.02232371       0.03988783      -0.02400829
Ge       9.13532858       2.86898907       3.04981245       21      -0.30990000       0.10585806       0.17288906
I        9.05511459       3.09563481       0.04885852       22       0.10539613       0.03301065       0.03283864
I        9.25993821      12.15023641       3.05243858       23      -0.00414349       0.31427424      -0.01741874
I        6.20143215       3.22443828       3.03120283       24       0.28853272      -0.18042914      -0.00770916
Rb       6.13883900      12.04601002       6.06983999       25       0.01567366       0.00411277       0.02465210
Sn       9.26543917       3.08865539       9.23658443       26      -0.42040219      -0.08580181      -0.13892835
I        9.06708741       3.10244120       6.00616796       27       0.07007446      -0.09419209      -0.04437753
I        9.22695273      12.14208849       9.32731669       28       0.03561000       0.53998186       0.00916123
I        6.13569409       3.09653015       9.12521032       29       0.06447173      -0.06845735      -0.01062099
Rb       6.10084067       6.12711095       0.08052189       30      -0.02423662      -0.04610121       0.00440924
Ge       9.21822497       9.08359777       2.88101749       31      -0.33866244      -0.29327867       0.39980649
I        9.22709202       9.14381070       0.07683199       32       0.00425195      -0.05258741       0.01932014
I        8.99226386       6.11044978       3.13487097       33       0.14729927       0.18695386      -0.09772134
I        6.24390792       9.33455176       3.06344271       34      -0.45818381       0.01320771      -0.05348534
Rb       6.18129880       6.15333146       6.08259067       35      -0.00206638      -0.02426211       0.00205455
Sn       9.11028833       9.16147296       9.21099466       36       0.12014225       0.11426892      -0.44641839
I        9.07332732       9.17822411       6.09443356       37       0.07065371       0.07466633       0.05090576
I        9.16278944       6.21183464       9.05755654       38       0.05934825      -0.65260010       0.03374423
I        6.10321364       9.09812640       9.13141996       39       0.00065288       0.05624023       0.08805539
40
Lattice="12.23378347595415 0.0 0.0 0.0 12.226130085926311 0.0 0.0 -5.901270042168047e-14 12.233783475954022" Properties=species:S:1:pos:R:3:spacegroup_kinds:I:1:forces:R:3 spacegroup="P 1" unit_cell=conventional occupancy="_JSON {\"0\": {\"Rb\": 1.0}, \"1\": {\"Sn\": 1.0}, \"2\": {\"I\": 1.0}, \"3\": {\"I\": 1.0}, \"4\": {\"I\": 1.0}, \"5\": {\"Rb\": 1.0}, \"6\": {\"Sn\": 1.0}, \"7\": {\"I\": 1.0}, \"8\": {\"I\": 1.0}, \"9\": {\"I\": 1.0}, \"10\": {\"Rb\": 1.0}, \"11\": {\"Sn\": 1.0}, \"12\": {\"I\": 1.0}, \"13\": {\"I\": 1.0}, \"14\": {\"I\": 1.0}, \"15\": {\"Rb\": 1.0}, \"16\": {\"Ge\": 1.0}, \"17\": {\"I\": 1.0}, \"18\": {\"I\": 1.0}, \"19\": {\"I\": 1.0}, \"20\": {\"Rb\": 1.0}, \"21\": {\"Ge\": 1.0}, \"22\": {\"I\": 1.0}, \"23\": {\"I\": 1.0}, \"24\": {\"I\": 1.0}, \"25\": {\"Rb\": 1.0}, \"26\": {\"Sn\": 1.0}, \"27\": {\"I\": 1.0}, \"28\": {\"I\": 1.0}, \"29\": {\"I\": 1.0}, \"30\": {\"Rb\": 1.0}, \"31\": {\"Ge\": 1.0}, \"32\": {\"I\": 1.0}, \"33\": {\"I\": 1.0}, \"34\": {\"I\": 1.0}, \"35\": {\"Rb\": 1.0}, \"36\": {\"Sn\": 1.0}, \"37\": {\"I\": 1.0}, \"38\": {\"I\": 1.0}, \"39\": {\"I\": 1.0}}" candidate_id=8d43ba95fa7df377 formula=RbGe0.4Sn0.6I3 config_index=3 rattle_stdev=0.08 method=PBE fidelity=phase2_force energy=-109.44116331472951 stress="-0.0032865372288244307 7.77707475079562e-05 3.5565336870439085e-05 7.77707475079562e-05 -0.00389643135268013 1.871606976475351e-06 3.5565336870439085e-05 1.871606976475351e-06 -0.0026735577954358027" pbc="T T T"
Rb      12.06392033      12.31091960       0.06798482        0       0.03130024       0.06255337       0.02088912
Sn       3.03943218       3.06326233       3.13520925        1      -0.27531517      -0.33661938      -0.77908461
I        3.00391799       3.09885815      -0.06053997        2       0.02783591       0.01084321      -0.06856957
I        3.17084237      12.20449159       2.95397501        3       0.04030571      -0.18539594      -0.01240205
I       12.08638785       2.92685786       2.95604799        4       0.30913191       0.07436583       0.03724983
Rb      12.15166007      12.08153448       5.99225286        5      -0.02138186       0.02134681      -0.01631090
Sn       3.07949953       2.85211708       9.04171493        6      -0.01461156       0.32173350       0.53237151
I        3.00150705       2.86079047       6.01330346        7      -0.04778741      -0.03268080       0.43387791
I        3.11153567      12.03353452       9.11210483        8      -0.05953761       0.59182459       0.03561948
I       12.11214032       2.96136932       9.35667282        9       0.49145050       0.03370984       0.00360061
Rb      12.13146158       6.26134888      -0.08021539       10       0.02812780      -0.06352078      -0.02029760
Sn       3.01914870       9.07363784       2.99402824       11      -0.01912609       0.36163240      -0.04549838
I        3.17091136       9.15117231      12.09372639       12      -0.06901412      -0.04800014       0.60648504
I        3.04543887       6.06241870       3.17957528       13      -0.01926987       0.21615535       0.03321729
I       12.00334052       9.22227993       3.03091657       14       1.18762259      -0.09644324       0.03078645
Rb      12.10890796       6.20337787       6.00012879       15      -0.03092844      -0.00115733       0.00369223
Ge       3.10266151       9.20020622       9.14563438       16      -0.06644183      -0.58423725      -0.02687859
I        3.18469739       9.18694136       6.29678044       17      -0.02021704       0.01155997      -0.58930532
I        3.11696431       6.25727358       9.12891312       18      -0.02283353      -0.35158072      -0.03276959
I        0.07501420       9.04280837       9.16936029       19      -0.23701378       0.02810110       0.01666006
Rb       6.27697611      12.12834555       0.01203570       20      -0.03593383       0.01660718       0.00836912
Ge       9.02361468       2.93330860       3.02702001       21       0.32070838       0.19159335      -0.02565657
I        9.14217914       3.11341794       0.14451484       22      -0.08989081      -0.03469794      -0.19918299
I        9.36712451      12.20619925       2.97737517       23      -0.19287398      -0.14282026       0.03485282
I        6.17452005       3.12421070       3.09799459       24      -0.15259282      -0.06386386       0.03069371
Rb       6.20336247      12.19134664       6.07812141       25       0.00329542      -0.02219545       0.00223998
Sn       9.19350852       3.02530528       9.11789620       26      -0.15864991      -0.05130661      -0.06403202
I        9.29886650       2.98749691       5.99507273       27      -0.02120496      -0.01413201       0.26461213
I        9.18204175      12.35680379       9.08099063       28      -0.03836742      -1.09758125       0.06251009
I        6.08644706       3.02266138       9.22008455       29      -0.18559167      -0.03302554      -0.04994735
Rb       6.13489183       6.19531555       0.13355608       30      -0.01092560      -0.03353401      -0.03090166
Ge       9.20853033       9.15149878       3.11889332       31      -0.17273921      -0.14588861       0.15365313
I        9.19334800       9.13441732       0.14296347       32       0.03923584      -0.01874241      -0.10253898
I        9.10364775       6.00545740       3.19784460       33       0.09626759       0.20453739      -0.02026456
I        6.44107491       9.11569954       2.99676393       34      -1.06780594       0.04519310       0.02536827
Rb       6.26551079       6.28127280       6.06236192       35       0.00798451       0.01666499       0.01381507
Sn       9.17633708       9.11363585       9.32544154       36       0.09165581       0.02162544      -0.22452985
I        9.13928494       9.14509882       6.13927396       37       0.01841240       0.01942459      -0.05547254
I        9.12305033       5.93540377       9.22376576       38      -0.01382834       1.07783500       0.00688443
I        5.99198493       9.18619675       9.26304977       39       0.36210675       0.01302222       0.00107320
