Cs Pb I  Cs Pb I  Cs Pb I  Cs Ge I  Cs Pb I  Cs Pb I  Cs Ge I  Cs Pb I 
 1.0000000000000000
    13.1000016496182159    0.0000000000000000    0.0000000000000000
     0.0000000000000000   13.1000016496182159    0.0000000000000000
     0.0000000000000000    0.0000000000000000   13.1000016496182159
 Cs  Pb  I   Cs  Pb  I   Cs  Pb  I   Cs  Ge  I   Cs  Pb  I   Cs  Pb  I   Cs  Ge  I   Cs  Pb  I  
   1   1   3   1   1   3   1   1   3   1   1   3   1   1   3   1   1   3   1   1   3   1   1   3
Cartesian
  0.0000000000000000  0.0000000000000000  0.0000000000000000
  3.2750004124045540  3.2750004124045540  3.2750004124045540
  3.2750004124045540  3.2750004124045540  0.0000000000000000
  3.2750004124045540  0.0000000000000000  3.2750004124045540
  0.0000000000000000  3.2750004124045540  3.2750004124045540
  0.0000000000000000  0.0000000000000000  6.5500008248091071
  3.2750004124045540  3.2750004124045540  9.8250012372136624
  3.2750004124045540  3.2750004124045540  6.5500008248091071
  3.2750004124045540  0.0000000000000000  9.8250012372136624
  0.0000000000000000  3.2750004124045540  9.8250012372136624
  0.0000000000000000  6.5500008248091071  0.0000000000000000
  3.2750004124045540  9.8250012372136624  3.2750004124045540
  3.2750004124045540  9.8250012372136624  0.0000000000000000
  3.2750004124045540  6.5500008248091071  3.2750004124045540
  0.0000000000000000  9.8250012372136624  3.2750004124045540
  0.0000000000000000  6.5500008248091071  6.5500008248091071
  3.2750004124045540  9.8250012372136624  9.8250012372136624
  3.2750004124045540  9.8250012372136624  6.5500008248091071
  3.2750004124045540  6.5500008248091071  9.8250012372136624
  0.0000000000000000  9.8250012372136624  9.8250012372136624
  6.5500008248091071  0.0000000000000000  0.0000000000000000
  9.8250012372136624  3.2750004124045540  3.2750004124045540
  9.8250012372136624  3.2750004124045540  0.0000000000000000
  9.8250012372136624  0.0000000000000000  3.2750004124045540
  6.5500008248091071  3.2750004124045540  3.2750004124045540
  6.5500008248091071  0.0000000000000000  6.5500008248091071
  9.8250012372136624  3.2750004124045540  9.8250012372136624
  9.8250012372136624  3.2750004124045540  6.5500008248091071
  9.8250012372136624  0.0000000000000000  9.8250012372136624
  6.5500008248091071  3.2750004124045540  9.8250012372136624
  6.5500008248091071  6.5500008248091071  0.0000000000000000
  9.8250012372136624  9.8250012372136624  3.2750004124045540
  9.8250012372136624  9.8250012372136624  0.0000000000000000
  9.8250012372136624  6.5500008248091071  3.2750004124045540
  6.5500008248091071  9.8250012372136624  3.2750004124045540
  6.5500008248091071  6.5500008248091071  6.5500008248091071
  9.8250012372136624  9.8250012372136624  9.8250012372136624
  9.8250012372136624  9.8250012372136624  6.5500008248091071
  9.8250012372136624  6.5500008248091071  9.8250012372136624
  6.5500008248091071  9.8250012372136624  9.8250012372136624
