Cs Sn Br Cs Sn Cl Br Cs Sn Cl Br Cs Sn Br Cl Br Cs Sn Br Cl Cs Sn Cl Br Cl Cs Sn Br Cl Cs Sn Br Cl
 1.0000000000000000
    12.2599587935685985    0.0000000000000000    0.0000000000000000
     0.0000000000000000   12.2599587935685985    0.0000000000000000
     0.0000000000000000    0.0000000000000000   12.2599587935685985
 Cs  Sn  Br  Cs  Sn  Cl  Br  Cs  Sn  Cl  Br  Cs  Sn  Br  Cl  Br  Cs  Sn  Br  Cl  Cs  Sn  Cl  Br  Cl  Cs  Sn  Br  Cl  Cs  Sn  Br  Cl 
   1   1   3   1   1   2   1   1   1   2   1   1   1   1   1   1   1   1   2   1   1   1   1   1   1   1   1   1   2   1   1   1   2
Cartesian
  0.0000000000000000  0.0000000000000000  0.0000000000000000
  3.0649896983921496  3.0649896983921496  3.0649896983921496
  3.0649896983921496  3.0649896983921496  0.0000000000000000
  3.0649896983921496  0.0000000000000000  3.0649896983921496
  0.0000000000000000  3.0649896983921496  3.0649896983921496
  0.0000000000000000  0.0000000000000000  6.1299793967842984
  3.0649896983921496  3.0649896983921496  9.1949690951764484
  3.0649896983921496  3.0649896983921496  6.1299793967842984
  3.0649896983921496  0.0000000000000000  9.1949690951764484
  0.0000000000000000  3.0649896983921496  9.1949690951764484
  0.0000000000000000  6.1299793967842984  0.0000000000000000
  3.0649896983921496  9.1949690951764484  3.0649896983921496
  3.0649896983921496  9.1949690951764484  0.0000000000000000
  3.0649896983921496  6.1299793967842984  3.0649896983921496
  0.0000000000000000  9.1949690951764484  3.0649896983921496
  0.0000000000000000  6.1299793967842984  6.1299793967842984
  3.0649896983921496  9.1949690951764484  9.1949690951764484
  3.0649896983921496  9.1949690951764484  6.1299793967842984
  3.0649896983921496  6.1299793967842984  9.1949690951764484
  0.0000000000000000  9.1949690951764484  9.1949690951764484
  6.1299793967842984  0.0000000000000000  0.0000000000000000
  9.1949690951764484  3.0649896983921496  3.0649896983921496
  9.1949690951764484  3.0649896983921496  0.0000000000000000
  9.1949690951764484  0.0000000000000000  3.0649896983921496
  6.1299793967842984  3.0649896983921496  3.0649896983921496
  6.1299793967842984  0.0000000000000000  6.1299793967842984
  9.1949690951764484  3.0649896983921496  9.1949690951764484
  9.1949690951764484  3.0649896983921496  6.1299793967842984
  9.1949690951764484  0.0000000000000000  9.1949690951764484
  6.1299793967842984  3.0649896983921496  9.1949690951764484
  6.1299793967842984  6.1299793967842984  0.0000000000000000
  9.1949690951764484  9.1949690951764484  3.0649896983921496
  9.1949690951764484  9.1949690951764484  0.0000000000000000
  9.1949690951764484  6.1299793967842984  3.0649896983921496
  6.1299793967842984  9.1949690951764484  3.0649896983921496
  6.1299793967842984  6.1299793967842984  6.1299793967842984
  9.1949690951764484  9.1949690951764484  9.1949690951764484
  9.1949690951764484  9.1949690951764484  6.1299793967842984
  9.1949690951764484  6.1299793967842984  9.1949690951764484
  6.1299793967842984  9.1949690951764484  9.1949690951764484
