Cs Pb I  Cs Pb I  Cs Sn I  Cs Sn I  Cs Sn I  Cs Pb I  Cs Sn I  Cs Sn I 
 1.0000000000000000
    13.5364279549665536    0.0000000000000000    0.0000000000000000
     0.0000000000000000   13.5364279549665536    0.0000000000000000
     0.0000000000000000    0.0000000000000000   13.5364279549665536
 Cs  Pb  I   Cs  Pb  I   Cs  Sn  I   Cs  Sn  I   Cs  Sn  I   Cs  Pb  I   Cs  Sn  I   Cs  Sn  I  
   1   1   3   1   1   3   1   1   3   1   1   3   1   1   3   1   1   3   1   1   3   1   1   3
Cartesian
  0.0000000000000000  0.0000000000000000  0.0000000000000000
  3.3841069887416384  3.3841069887416384  3.3841069887416384
  3.3841069887416384  3.3841069887416384  0.0000000000000000
  3.3841069887416384  0.0000000000000000  3.3841069887416384
  0.0000000000000000  3.3841069887416384  3.3841069887416384
  0.0000000000000000  0.0000000000000000  6.7682139774832759
  3.3841069887416384  3.3841069887416384 10.1523209662249148
  3.3841069887416384  3.3841069887416384  6.7682139774832759
  3.3841069887416384  0.0000000000000000 10.1523209662249148
  0.0000000000000000  3.3841069887416384 10.1523209662249148
  0.0000000000000000  6.7682139774832759  0.0000000000000000
  3.3841069887416384 10.1523209662249148  3.3841069887416384
  3.3841069887416384 10.1523209662249148  0.0000000000000000
  3.3841069887416384  6.7682139774832759  3.3841069887416384
  0.0000000000000000 10.1523209662249148  3.3841069887416384
  0.0000000000000000  6.7682139774832759  6.7682139774832759
  3.3841069887416384 10.1523209662249148 10.1523209662249148
  3.3841069887416384 10.1523209662249148  6.7682139774832759
  3.3841069887416384  6.7682139774832759 10.1523209662249148
  0.0000000000000000 10.1523209662249148 10.1523209662249148
  6.7682139774832759  0.0000000000000000  0.0000000000000000
 10.1523209662249148  3.3841069887416384  3.3841069887416384
 10.1523209662249148  3.3841069887416384  0.0000000000000000
 10.1523209662249148  0.0000000000000000  3.3841069887416384
  6.7682139774832759  3.3841069887416384  3.3841069887416384
  6.7682139774832759  0.0000000000000000  6.7682139774832759
 10.1523209662249148  3.3841069887416384 10.1523209662249148
 10.1523209662249148  3.3841069887416384  6.7682139774832759
 10.1523209662249148  0.0000000000000000 10.1523209662249148
  6.7682139774832759  3.3841069887416384 10.1523209662249148
  6.7682139774832759  6.7682139774832759  0.0000000000000000
 10.1523209662249148 10.1523209662249148  3.3841069887416384
 10.1523209662249148 10.1523209662249148  0.0000000000000000
 10.1523209662249148  6.7682139774832759  3.3841069887416384
  6.7682139774832759 10.1523209662249148  3.3841069887416384
  6.7682139774832759  6.7682139774832759  6.7682139774832759
 10.1523209662249148 10.1523209662249148 10.1523209662249148
 10.1523209662249148 10.1523209662249148  6.7682139774832759
 10.1523209662249148  6.7682139774832759 10.1523209662249148
  6.7682139774832759 10.1523209662249148 10.1523209662249148
