40
Lattice="12.62209012343408 0.0 0.0 0.0 12.620249150823938 0.0 0.0 6.802696506835385e-14 12.620249150823938" Properties=species:S:1:pos:R:3:spacegroup_kinds:I:1:forces:R:3 spacegroup="P 1" unit_cell=conventional occupancy="_JSON {\"0\": {\"Cs\": 1.0}, \"1\": {\"Sn\": 1.0}, \"2\": {\"I\": 1.0}, \"3\": {\"I\": 1.0}, \"4\": {\"I\": 1.0}, \"5\": {\"Cs\": 1.0}, \"6\": {\"Pb\": 1.0}, \"7\": {\"I\": 1.0}, \"8\": {\"I\": 1.0}, \"9\": {\"I\": 1.0}, \"10\": {\"Cs\": 1.0}, \"11\": {\"Sn\": 1.0}, \"12\": {\"I\": 1.0}, \"13\": {\"I\": 1.0}, \"14\": {\"I\": 1.0}, \"15\": {\"Cs\": 1.0}, \"16\": {\"Sn\": 1.0}, \"17\": {\"I\": 1.0}, \"18\": {\"I\": 1.0}, \"19\": {\"I\": 1.0}, \"20\": {\"Cs\": 1.0}, \"21\": {\"Sn\": 1.0}, \"22\": {\"I\": 1.0}, \"23\": {\"I\": 1.0}, \"24\": {\"I\": 1.0}, \"25\": {\"Cs\": 1.0}, \"26\": {\"Pb\": 1.0}, \"27\": {\"I\": 1.0}, \"28\": {\"I\": 1.0}, \"29\": {\"I\": 1.0}, \"30\": {\"Cs\": 1.0}, \"31\": {\"Sn\": 1.0}, \"32\": {\"I\": 1.0}, \"33\": {\"I\": 1.0}, \"34\": {\"I\": 1.0}, \"35\": {\"Cs\": 1.0}, \"36\": {\"Sn\": 1.0}, \"37\": {\"I\": 1.0}, \"38\": {\"I\": 1.0}, \"39\": {\"I\": 1.0}}" candidate_id=291b5e8c4a050d10 formula=MAPb0.29Sn0.71I3 config_index=0 rattle_stdev=0.0 method=PBE fidelity=phase2_force energy=-112.54887570913567 stress="0.0003932913198269857 4.420768407274276e-33 0.0 4.420768407274276e-33 0.00026898590200409984 3.0967754879458905e-11 0.0 3.0967754879458905e-11 0.00026898590200409984" pbc="T T T"
Cs      12.62209012      12.59250970       0.02773945        0       0.00000000      -0.00148492       0.00148492
Sn       3.15552253       3.15506229       3.15506229        1       0.00020777       0.00020429       0.00020667
I        3.15552253       3.15506229       0.07777986        2      -0.00000151      -0.00000235      -0.24045997
I        3.15552253      12.61141250       3.15506229        3      -0.00000315       0.01227900      -0.00000235
I       12.62209012       3.15506229       3.15506229        4      -0.00000000      -0.00000303      -0.00000236
Cs      12.62209012      12.59250970       6.28238512        5       0.00000000      -0.00148500      -0.00147598
Pb       3.15552253       3.15506229       9.46518686        6       0.00030261       0.00014129      -0.00014129
I        3.15552253       3.15506229       6.23234472        7      -0.00000034      -0.00000142       0.24053275
I        3.15552253      12.54246929       9.46518686        8      -0.00000151       0.24045997       0.00000235
I       12.62209012       3.15506229       9.46518686        9       0.00000000      -0.00000133       0.00000133
Cs      12.62209012       6.33786403       0.02773945       10       0.00000000       0.00147598       0.00148500
Sn       3.15552253       9.46518686       3.15506229       11       0.00020661      -0.00020987       0.00020987
I        3.15552253       9.46518686       0.00883665       12      -0.00000315       0.00000235      -0.01227900
I        3.15552253       6.31896122       3.15506229       13      -0.00000177      -0.01228044      -0.00000195
I       12.62209012       9.46518686       3.15506229       14       0.00000000       0.00000304      -0.00000304
Cs      12.62209012       6.33786403       6.28238512       15       0.00000000       0.00147556      -0.00147556
Sn       3.15552253       9.46518686       9.46518686       16       0.00020777      -0.00020667      -0.00020429
I        3.15552253       9.46518686       6.30128793       17      -0.00000177       0.00000195       0.01228044
I        3.15552253       6.38790444       9.46518686       18      -0.00000034      -0.24053275       0.00000142
I       12.62209012       9.46518686       9.46518686       19      -0.00000000       0.00000236       0.00000303
Cs       6.31104506      12.59250970       0.02773945       20       0.00000000      -0.00148299       0.00148299
Sn       9.46656759       3.15506229       3.15506229       21      -0.00020777       0.00020429       0.00020667
I        9.46656759       3.15506229       0.07777986       22       0.00000151      -0.00000235      -0.24045997
I        9.46656759      12.61141250       3.15506229       23       0.00000315       0.01227900      -0.00000235
I        6.31104506       3.15506229       3.15506229       24       0.00000000      -0.00000183      -0.00000138
Cs       6.31104506      12.59250970       6.28238512       25      -0.00000000      -0.00148330      -0.00147359
Pb       9.46656759       3.15506229       9.46518686       26      -0.00030261       0.00014129      -0.00014129
I        9.46656759       3.15506229       6.23234472       27       0.00000034      -0.00000142       0.24053275
I        9.46656759      12.54246929       9.46518686       28       0.00000151       0.24045997       0.00000235
I        6.31104506       3.15506229       9.46518686       29       0.00000000      -0.00000027       0.00000027
Cs       6.31104506       6.33786403       0.02773945       30      -0.00000000       0.00147359       0.00148330
Sn       9.46656759       9.46518686       3.15506229       31      -0.00020661      -0.00020987       0.00020987
I        9.46656759       9.46518686       0.00883665       32       0.00000315       0.00000235      -0.01227900
I        9.46656759       6.31896122       3.15506229       33       0.00000177      -0.01228044      -0.00000195
I        6.31104506       9.46518686       3.15506229       34       0.00000000       0.00000164      -0.00000164
Cs       6.31104506       6.33786403       6.28238512       35       0.00000000       0.00147348      -0.00147348
Sn       9.46656759       9.46518686       9.46518686       36      -0.00020777      -0.00020667      -0.00020429
I        9.46656759       9.46518686       6.30128793       37       0.00000177       0.00000195       0.01228044
I        9.46656759       6.38790444       9.46518686       38       0.00000034      -0.24053275       0.00000142
I        6.31104506       9.46518686       9.46518686       39       0.00000000       0.00000138       0.00000183
