Cs Pb I  Cs Pb I  Cs Sn I  Cs Sn I  Cs Sn I  Cs Pb I  Cs Sn I  Cs Sn I 
 1.0000000000000000
    13.5345894773354676    0.0000000000000000    0.0000000000000000
     0.0000000000000000   13.5345894773354676    0.0000000000000000
     0.0000000000000000    0.0000000000000000   13.5345894773354676
 Cs  Pb  I   Cs  Pb  I   Cs  Sn  I   Cs  Sn  I   Cs  Sn  I   Cs  Pb  I   Cs  Sn  I   Cs  Sn  I  
   1   1   3   1   1   3   1   1   3   1   1   3   1   1   3   1   1   3   1   1   3   1   1   3
Cartesian
  0.0000000000000000  0.0000000000000000  0.0000000000000000
  3.3836473693338669  3.3836473693338669  3.3836473693338669
  3.3836473693338669  3.3836473693338669  0.0000000000000000
  3.3836473693338669  0.0000000000000000  3.3836473693338669
  0.0000000000000000  3.3836473693338669  3.3836473693338669
  0.0000000000000000  0.0000000000000000  6.7672947386677329
  3.3836473693338669  3.3836473693338669 10.1509421080016029
  3.3836473693338669  3.3836473693338669  6.7672947386677329
  3.3836473693338669  0.0000000000000000 10.1509421080016029
  0.0000000000000000  3.3836473693338669 10.1509421080016029
  0.0000000000000000  6.7672947386677329  0.0000000000000000
  3.3836473693338669 10.1509421080016029  3.3836473693338669
  3.3836473693338669 10.1509421080016029  0.0000000000000000
  3.3836473693338669  6.7672947386677329  3.3836473693338669
  0.0000000000000000 10.1509421080016029  3.3836473693338669
  0.0000000000000000  6.7672947386677329  6.7672947386677329
  3.3836473693338669 10.1509421080016029 10.1509421080016029
  3.3836473693338669 10.1509421080016029  6.7672947386677329
  3.3836473693338669  6.7672947386677329 10.1509421080016029
  0.0000000000000000 10.1509421080016029 10.1509421080016029
  6.7672947386677329  0.0000000000000000  0.0000000000000000
 10.1509421080016029  3.3836473693338669  3.3836473693338669
 10.1509421080016029  3.3836473693338669  0.0000000000000000
 10.1509421080016029  0.0000000000000000  3.3836473693338669
  6.7672947386677329  3.3836473693338669  3.3836473693338669
  6.7672947386677329  0.0000000000000000  6.7672947386677329
 10.1509421080016029  3.3836473693338669 10.1509421080016029
 10.1509421080016029  3.3836473693338669  6.7672947386677329
 10.1509421080016029  0.0000000000000000 10.1509421080016029
  6.7672947386677329  3.3836473693338669 10.1509421080016029
  6.7672947386677329  6.7672947386677329  0.0000000000000000
 10.1509421080016029 10.1509421080016029  3.3836473693338669
 10.1509421080016029 10.1509421080016029  0.0000000000000000
 10.1509421080016029  6.7672947386677329  3.3836473693338669
  6.7672947386677329 10.1509421080016029  3.3836473693338669
  6.7672947386677329  6.7672947386677329  6.7672947386677329
 10.1509421080016029 10.1509421080016029 10.1509421080016029
 10.1509421080016029 10.1509421080016029  6.7672947386677329
 10.1509421080016029  6.7672947386677329 10.1509421080016029
  6.7672947386677329 10.1509421080016029 10.1509421080016029
