Cs Sn Br Cs Sn Br Cs Sn Br Cs Ge Br Cs Ge Br Cs Sn Br Cs Ge Br Cs Sn Br
 1.0000000000000000
    11.7996322790161550    0.0000000000000000    0.0000000000000000
     0.0000000000000000   11.7996322790161550    0.0000000000000000
     0.0000000000000000    0.0000000000000000   11.7996322790161550
 Cs  Sn  Br  Cs  Sn  Br  Cs  Sn  Br  Cs  Ge  Br  Cs  Ge  Br  Cs  Sn  Br  Cs  Ge  Br  Cs  Sn  Br 
   1   1   3   1   1   3   1   1   3   1   1   3   1   1   3   1   1   3   1   1   3   1   1   3
Cartesian
  0.0000000000000000  0.0000000000000000  0.0000000000000000
  2.9499080697540387  2.9499080697540387  2.9499080697540387
  2.9499080697540387  2.9499080697540387  0.0000000000000000
  2.9499080697540387  0.0000000000000000  2.9499080697540387
  0.0000000000000000  2.9499080697540387  2.9499080697540387
  0.0000000000000000  0.0000000000000000  5.8998161395080766
  2.9499080697540387  2.9499080697540387  8.8497242092621171
  2.9499080697540387  2.9499080697540387  5.8998161395080766
  2.9499080697540387  0.0000000000000000  8.8497242092621171
  0.0000000000000000  2.9499080697540387  8.8497242092621171
  0.0000000000000000  5.8998161395080766  0.0000000000000000
  2.9499080697540387  8.8497242092621171  2.9499080697540387
  2.9499080697540387  8.8497242092621171  0.0000000000000000
  2.9499080697540387  5.8998161395080766  2.9499080697540387
  0.0000000000000000  8.8497242092621171  2.9499080697540387
  0.0000000000000000  5.8998161395080766  5.8998161395080766
  2.9499080697540387  8.8497242092621171  8.8497242092621171
  2.9499080697540387  8.8497242092621171  5.8998161395080766
  2.9499080697540387  5.8998161395080766  8.8497242092621171
  0.0000000000000000  8.8497242092621171  8.8497242092621171
  5.8998161395080766  0.0000000000000000  0.0000000000000000
  8.8497242092621171  2.9499080697540387  2.9499080697540387
  8.8497242092621171  2.9499080697540387  0.0000000000000000
  8.8497242092621171  0.0000000000000000  2.9499080697540387
  5.8998161395080766  2.9499080697540387  2.9499080697540387
  5.8998161395080766  0.0000000000000000  5.8998161395080766
  8.8497242092621171  2.9499080697540387  8.8497242092621171
  8.8497242092621171  2.9499080697540387  5.8998161395080766
  8.8497242092621171  0.0000000000000000  8.8497242092621171
  5.8998161395080766  2.9499080697540387  8.8497242092621171
  5.8998161395080766  5.8998161395080766  0.0000000000000000
  8.8497242092621171  8.8497242092621171  2.9499080697540387
  8.8497242092621171  8.8497242092621171  0.0000000000000000
  8.8497242092621171  5.8998161395080766  2.9499080697540387
  5.8998161395080766  8.8497242092621171  2.9499080697540387
  5.8998161395080766  5.8998161395080766  5.8998161395080766
  8.8497242092621171  8.8497242092621171  8.8497242092621171
  8.8497242092621171  8.8497242092621171  5.8998161395080766
  8.8497242092621171  5.8998161395080766  8.8497242092621171
  5.8998161395080766  8.8497242092621171  8.8497242092621171
