40
Lattice="10.557921482650547 0.0 0.0 0.0 10.562948687918944 0.0 0.0 -2.0462217849260173e-14 10.562948687918944" Properties=species:S:1:pos:R:3:spacegroup_kinds:I:1:forces:R:3 spacegroup="P 1" unit_cell=conventional candidate_id=37eb33ad0bf4a3a8 formula=K0.5MA0.5GeCl3 config_index=0 rattle_stdev=0.0 method=PBE fidelity=phase2_force energy=-139.1630620795376 stress="-0.0012210125562963374 0.0 0.0 0.0 -0.0012483587437795323 -2.4182819896173005e-18 0.0 -2.4182819896173005e-18 -0.0012483587437790399" pbc="T T T"
Cs       0.00000000      10.56294869      10.56294869        0       0.00000000       0.00000000       0.00000000
Ge       2.63948037       2.68197328       2.59950107        1       0.00000000      -0.00683624       0.00683624
Cl       2.63258283       2.74978171      10.56294869        2       0.02129306      -0.03533868       0.00000000
Cl       2.68287415       0.00000000       2.52238148        3       0.02399662      -0.00000000       0.03916911
Cl      10.55792148       2.76908506       2.54140916        4       0.00000000      -0.01287336       0.05891845
Cs       0.00000000      10.56294869       5.28147434        5       0.00000000      -0.00000000       0.00000000
Ge       2.63948037       2.68197328       7.96344762        6       0.00000000      -0.00683624      -0.00683624
Cl       2.59608659       2.75909287       5.28147434        7      -0.02399662      -0.03916911       0.00000000
Cl       2.68287415      10.56294869       8.04056721        8       0.02399662       0.00000000      -0.03916911
Cl      10.55792148       2.76908506       8.02153953        9      -0.00000000      -0.01287336      -0.05891845
K       10.55792148       5.28147434      10.56294869       10       0.00000000       0.00000000       0.00000000
Ge       2.63948037       7.88097541       2.59950107       11       0.00000000       0.00683624       0.00683624
Cl       2.63258283       7.81316698       0.00000000       12       0.02129306       0.03533868       0.00000000
Cl       2.64637791       5.28147434       2.53169264       13      -0.02129306      -0.00000000       0.03533868
Cl      10.55792148       7.79386363       2.54140916       14      -0.00000000       0.01287336       0.05891845
K       10.55792148       5.28147434       5.28147434       15       0.00000000      -0.00000000       0.00000000
Ge       2.63948037       7.88097541       7.96344762       16       0.00000000       0.00683624      -0.00683624
Cl       2.59608659       7.80385582       5.28147434       17      -0.02399662       0.03916911       0.00000000
Cl       2.64637791       5.28147434       8.03125605       18      -0.02129306       0.00000000      -0.03533868
Cl      10.55792148       7.79386363       8.02153953       19      -0.00000000       0.01287336      -0.05891845
K        5.27896074      10.56294869      10.56294869       20       0.00000000       0.00000000       0.00000000
Ge       7.91844111       2.68197328       2.59950107       21      -0.00000000      -0.00683624       0.00683624
Cl       7.92533865       2.74978171      10.56294869       22      -0.02129306      -0.03533868       0.00000000
Cl       7.87504734       0.00000000       2.52238148       23      -0.02399662      -0.00000000       0.03916911
Cl       5.27896074       2.74006519       2.51238929       24      -0.00000000      -0.05891845       0.01287336
Cs       5.27896074      10.56294869       5.28147434       25       0.00000000       0.00000000       0.00000000
Ge       7.91844111       2.68197328       7.96344762       26      -0.00000000      -0.00683624      -0.00683624
Cl       7.96183489       2.75909287       5.28147434       27       0.02399662      -0.03916911       0.00000000
Cl       7.87504734      10.56294869       8.04056721       28      -0.02399662       0.00000000      -0.03916911
Cl       5.27896074       2.74006519       8.05055940       29       0.00000000      -0.05891845      -0.01287336
K        5.27896074       5.28147434      10.56294869       30       0.00000000       0.00000000       0.00000000
Ge       7.91844111       7.88097541       2.59950107       31      -0.00000000       0.00683624       0.00683624
Cl       7.92533865       7.81316698       0.00000000       32      -0.02129306       0.03533868       0.00000000
Cl       7.91154357       5.28147434       2.53169264       33       0.02129306      -0.00000000       0.03533868
Cl       5.27896074       7.82288350       2.51238929       34      -0.00000000       0.05891845       0.01287336
Cs       5.27896074       5.28147434       5.28147434       35       0.00000000       0.00000000       0.00000000
Ge       7.91844111       7.88097541       7.96344762       36      -0.00000000       0.00683624      -0.00683624
Cl       7.96183489       7.80385582       5.28147434       37       0.02399662       0.03916911       0.00000000
Cl       7.91154357       5.28147434       8.03125605       38       0.02129306       0.00000000      -0.03533868
Cl       5.27896074       7.82288350       8.05055940       39      -0.00000000       0.05891845      -0.01287336
40
Lattice="10.557921482650547 0.0 0.0 0.0 10.562948687918944 0.0 0.0 -2.0462217849260173e-14 10.562948687918944" Properties=species:S:1:pos:R:3:spacegroup_kinds:I:1:forces:R:3 spacegroup="P 1" unit_cell=conventional candidate_id=37eb33ad0bf4a3a8 formula=K0.5MA0.5GeCl3 config_index=1 rattle_stdev=0.08 method=PBE fidelity=phase2_force energy=-138.61263718054582 stress="-0.004477162623249214 0.0002521702729646681 0.0002975433612321417 0.0002521702729646681 -0.0033041174538315024 -0.0002252966159079882 0.0002975433612321417 -0.0002252966159079882 -0.004648637788024701" pbc="T T T"
Cs      -0.08691571      10.49126348      10.53844474        0       0.04581745       0.12224090       0.04758759
Ge       2.53228568       2.58544643       2.54816292        1       0.39658350       0.37002580       0.07163691
Cl       2.73721848       2.89741854      10.62927788        2      -0.19436059      -0.27297874       0.06921080
Cl       2.68101024      -0.01668512       2.44905190        3      -0.06092129       0.12114659       0.01022134
Cl      10.47194208       2.76219358       2.63547624        4       0.57385064      -0.05106295       0.03119849
Cs      -0.13080734      10.66120421       5.36758524        5       0.12885185       0.01762805      -0.12933868
Ge       2.67106220       2.65095721       8.01051976        6       0.17931723      -0.17797693      -0.29498918
Cl       2.48142269       2.73320689       5.38171312        7       0.07341736      -0.03702134      -0.01685396
Cl       2.62441474      10.67722749       8.11613952        8       0.04023702      -0.28677101      -0.10129442
Cl      10.53680126       2.75602799       7.94441095        9      -0.03903214      -0.00849901       0.00139558
K       10.53050970       5.28538667      10.52297813       10      -0.01413831      -0.05784608       0.02971626
Ge       2.46252801       7.90576236       2.47232896       11       0.72757540      -0.32561757      -0.14889282
Cl       2.69093920       7.80453488      -0.05201372       12      -0.11514974       0.10372183       0.11286055
Cl       2.51093339       5.25199642       2.40446290       13      -0.03370887       0.06715352       0.21617391
Cl      10.67636195       7.83181885       2.61451826       14      -0.62948456       0.03740236       0.02510034
K       10.63475910       5.28823775       5.41885282       15       0.03437165      -0.07793677      -0.02720867
Ge       2.70763179       7.82058459       7.78043728       16       0.42135931       0.01169055       0.28963952
Cl       2.60482569       7.76784317       5.24843655       17      -0.07595145       0.02878721       0.22050546
Cl       2.67189661       5.23818571       8.10714937       18      -0.06500834       0.62533813      -0.20659249
Cl      10.57003629       7.80001582       8.01678750       19       0.16075638       0.02724108      -0.18749208
K        5.27334965      10.51765676      10.58782912       20       0.03556763       0.02647697       0.04056502
Ge       7.97637782       2.72328928       2.68158352       21      -0.55620343      -0.36764596      -0.72568039
Cl       7.96695086       2.68019462      10.68299390       22       0.08528866       0.02670756      -0.44877186
Cl       7.96836511       0.03935316       2.46380050       23      -0.08481723      -0.08316787       0.25515477
Cl       5.33338523       2.78078494       2.44538639       24      -0.37121985      -0.11299297       0.17013881
Cs       5.33077233      10.56395185       5.40624147       25      -0.10015769       0.04536649      -0.14332894
Ge       8.00120874       2.70898869       7.85923879       26      -0.18427713       0.36637953       0.36664589
Cl       7.87235135       2.86385408       5.24001698       27       0.08956753      -0.12081801       0.58140326
Cl       7.84359739      10.64638617       8.04654443       28       0.10784837      -0.20673064      -0.20376015
Cl       5.28611570       2.74437778       8.08403516       29      -0.13062865      -0.08203021      -0.08182499
K        5.18074234       5.19431102      10.58831864       30       0.03711991       0.00010858       0.04426389
Ge       7.85600867       7.81248493       2.49391135       31      -0.45346687       0.23391146      -0.08588685
Cl       7.96164118       7.89330897       0.11309877       32      -0.04837570      -0.02733634      -0.01664198
Cl       7.89632894       5.28388319       2.38181930       33       0.07430650       0.23227708       0.10111283
Cl       5.26961859       7.81268427       2.58456403       34       0.58213397       0.05316290      -0.04726252
Cs       5.17381097       5.27351029       5.29271833       35       0.01455669      -0.05931928      -0.07105896
Ge       8.12874559       8.02143772       7.75259580       36      -0.66802767      -0.42982181       0.56425871
Cl       7.85890333       7.79011804       5.42551064       37       0.23037216       0.14782096      -0.31455504
Cl       7.96023923       5.28399639       7.91394308       38       0.08634808       0.10962199       0.05177288
Cl       5.30371600       7.91426093       8.00969187       39      -0.30213965       0.01259126      -0.07382376
40
Lattice="10.557921482650547 0.0 0.0 0.0 10.562948687918944 0.0 0.0 -2.0462217849260173e-14 10.562948687918944" Properties=species:S:1:pos:R:3:spacegroup_kinds:I:1:forces:R:3 spacegroup="P 1" unit_cell=conventional candidate_id=37eb33ad0bf4a3a8 formula=K0.5MA0.5GeCl3 config_index=2 rattle_stdev=0.08 method=PBE fidelity=phase2_force energy=-138.4918366732232 stress="-0.00391563016482991 5.357467051115934e-05 -0.0001500364219241448 5.357467051115934e-05 -0.0033753777978184473 9.643619206176047e-05 -0.0001500364219241448 9.643619206176047e-05 -0.003646032371505005" pbc="T T T"
Cs      -0.00901704      10.47682357      10.70575084        0       0.05667501       0.04041092      -0.25841853
Ge       2.52292171       2.65586761       2.49870935        1       0.70242888       0.27783908       0.18465527
Cl       2.66265215       2.67952992      10.53495063        2      -0.12503130       0.07801130       0.08594052
Cl       2.70660696       0.09607295       2.39686186        3      -0.02724359      -0.67581729       0.12897658
Cl      10.70624378       2.80860200       2.53095224        4      -0.85610968      -0.02540804      -0.03921467
Cs      -0.03224966      10.48505571       5.24407700        5      -0.01972763      -0.00531306       0.11919530
Ge       2.58204665       2.77968474       7.90127162        6       0.48706152       0.09764245      -0.22556188
Cl       2.54900454       2.75448336       5.28784073        7      -0.04100193      -0.14154139       0.11374687
Cl       2.58821806      10.43904929       8.11354771        8       0.01481059       0.05357988      -0.07563555
Cl      10.59093514       2.71342354       7.83843778        9      -0.17444513       0.07637581       0.11030896
K       10.49494216       5.19919301      10.57041334       10       0.04779723       0.05135897      -0.04720141
Ge       2.59714484       7.94339500       2.58343589       11       0.40447136      -0.33803657       0.03898403
Cl       2.59413415       7.73034601      -0.04021875       12       0.04367377       0.00600212       0.55836295
Cl       2.70956912       5.20747453       2.70849546       13      -0.14182080       0.67806691      -0.15787461
Cl      10.44590259       7.77473584       2.55879641       14       0.59201944      -0.04386570       0.05276862
K       10.52973066       5.28834439       5.29000650       15      -0.00477833       0.02369441       0.03431340
Ge       2.62371787       7.98873012       7.99106154       16      -0.27269237      -0.18667285      -0.18530942
Cl       2.64069815       7.75623301       5.34010092       17      -0.11683597       0.22501232      -0.37755872
Cl       2.75287812       5.22307171       7.99239559       18      -0.12950906      -0.29800024       0.02886141
Cl      10.64407462       7.58623504       8.03489379       19       0.10952424       0.15760988      -0.07134460
K        5.36207751      10.41826278      10.62363996       20      -0.04767770       0.05841996      -0.04907438
Ge       7.87843209       2.49442983       2.59086765       21      -0.56237588       0.52755943       0.28228726
Cl       7.80511564       2.78888400      10.51869441       22       0.18756106      -0.01354500       0.13990283
Cl       7.95964794      -0.06954543       2.51637419       23      -0.09675627       0.36522633       0.03268834
Cl       5.27038834       2.90797095       2.48514625       24       0.69545606      -0.44571758       0.01623792
Cs       5.23672833      10.45937934       5.29860227       25       0.03943751       0.07454609       0.04501419
Ge       8.00854268       2.71409615       8.02469445       26      -0.60642342      -0.08007729      -0.29805182
Cl       7.85358469       2.80500155       5.26386337       27       0.15821933      -0.26436684      -0.24075234
Cl       7.92666245      10.48257114       8.19254630       28      -0.03758516       0.47500244      -0.07063392
Cl       5.29630961       2.78006282       8.00043212       29       0.15277172      -0.17179926       0.00280824
K        5.19873000       5.21896953      10.57929091       30      -0.02969792      -0.06182222      -0.00146198
Ge       7.96132847       7.79497561       2.42207269       31      -0.45859972      -0.34343458       0.69656517
Cl       7.97709307       7.78738012      -0.01380513       32      -0.01961767      -0.06023051       0.20016818
Cl       7.72846983       5.27251084       2.60811774       33       0.27083578       0.05778481      -0.13832051
Cl       5.31533980       7.98783770       2.51738612       34      -0.56409758       0.06740297      -0.10318368
Cs       5.27918814       5.24519004       5.31135294       35      -0.01771017       0.01228724      -0.04163458
Ge       7.85339183       7.87285081       7.99910468       36       0.09737081       0.09273024      -0.78081749
Cl       7.85982460       7.81248236       5.34965329       37       0.12723204       0.16350148       0.02013077
Cl       7.89899541       5.37657988       7.91347498       38       0.12547404      -0.69265804       0.11761725
Cl       5.34824401       7.75141234       8.00664175       39       0.02688953       0.19305777       0.14420970
