40
Lattice="12.479885770650755 0.0 0.0 0.006341934393154383 12.436935852177369 0.0 -0.0005394530553308778 0.0009172818554350887 12.593172900643134" Properties=species:S:1:pos:R:3:spacegroup_kinds:I:1:forces:R:3 spacegroup="P 1" unit_cell=conventional occupancy="_JSON {\"0\": {\"Cs\": 1.0}, \"1\": {\"Pb\": 1.0}, \"2\": {\"I\": 1.0}, \"3\": {\"I\": 1.0}, \"4\": {\"I\": 1.0}, \"5\": {\"Cs\": 1.0}, \"6\": {\"Pb\": 1.0}, \"7\": {\"I\": 1.0}, \"8\": {\"I\": 1.0}, \"9\": {\"I\": 1.0}, \"10\": {\"Cs\": 1.0}, \"11\": {\"Pb\": 1.0}, \"12\": {\"Cl\": 1.0}, \"13\": {\"Br\": 1.0}, \"14\": {\"I\": 1.0}, \"15\": {\"Cs\": 1.0}, \"16\": {\"Pb\": 1.0}, \"17\": {\"I\": 1.0}, \"18\": {\"Br\": 1.0}, \"19\": {\"I\": 1.0}, \"20\": {\"Cs\": 1.0}, \"21\": {\"Pb\": 1.0}, \"22\": {\"I\": 1.0}, \"23\": {\"I\": 1.0}, \"24\": {\"Br\": 1.0}, \"25\": {\"Cs\": 1.0}, \"26\": {\"Pb\": 1.0}, \"27\": {\"I\": 1.0}, \"28\": {\"I\": 1.0}, \"29\": {\"I\": 1.0}, \"30\": {\"Cs\": 1.0}, \"31\": {\"Pb\": 1.0}, \"32\": {\"I\": 1.0}, \"33\": {\"Cl\": 1.0}, \"34\": {\"Br\": 1.0}, \"35\": {\"Cs\": 1.0}, \"36\": {\"Pb\": 1.0}, \"37\": {\"I\": 1.0}, \"38\": {\"I\": 1.0}, \"39\": {\"Br\": 1.0}}" candidate_id=6db9b09ceb625fc4 formula=CsPbBr0.22Cl0.059I0.733 config_index=0 rattle_stdev=0.0 method=PBE fidelity=phase2_force energy=-118.22711222138265 stress="-0.0003520700079179277 -1.2169830583701566e-05 1.5736497827043365e-05 -1.2169830583701566e-05 -2.8528651519729275e-05 -1.395233883255696e-05 1.5736497827043365e-05 -1.395233883255696e-05 -0.001004348404491648" pbc="T T T"
Cs      12.48199834      12.41119997       0.04266043        0      -0.00463165      -0.00001790      -0.00070558
Pb       3.24365351       3.22767063       3.13839687        1      -0.01065429       0.00648493      -0.00646968
I        3.19999787       3.29579763       0.00749111        2      -0.01383085       0.00473855      -0.01463090
I        3.26699477      12.43038501       3.03963171        3      -0.01040449      -0.01248778      -0.00751437
I        0.00641989       3.27846314       3.15953141        4      -0.00938430       0.00621344       0.00104421
Cs       0.00694014      12.40566822       6.25043873        5      -0.01138652       0.00627737      -0.00163249
Pb       3.13499929       3.21602906       9.45369880        6       0.01572294      -0.00619844       0.01103779
I        3.19047777       3.26771677       6.28854242        7      -0.00974597      -0.00225330       0.01303298
I        3.19098779      12.42774714       9.56438015        8      -0.00842043      -0.02368262       0.01472024
I        0.00783968       3.15466114       9.43146475        9      -0.00894354      -0.00473575      -0.00483374
Cs       0.06424087       6.23649293       0.00858886       10       0.02287177       0.00081665      -0.00506800
Pb       3.25748909       9.18982312       2.93639882       11       0.00796273      -0.00873549       0.02389876
Cl       3.27619883       9.17231112       0.00394892       12       0.02868762      -0.03061773       0.00503248
Br       3.22267697       6.22589525       3.05927836       13       0.02935202       0.01097072      -0.02038804
I        0.01444329       9.16051574       3.03952702       14      -0.00416688      -0.00109633      -0.00634155
Cs       0.07882254       6.25518524       6.28443608       15       0.01197571      -0.00251224       0.00230619
Pb       3.24980466       9.20770727       9.66839985       16       0.00131757      -0.00098474      -0.01928496
I        3.27674339       9.17596767       6.29369996       17      -0.02316263       0.02539365      -0.01047250
Br       3.15898694       6.22391916       9.52765350       18      -0.00045358       0.03079077       0.02340202
I        0.01555398       9.26074339       9.56234507       19       0.01807166       0.01109293       0.01176537
Cs       6.25325908      12.39814840       0.05541354       20       0.00204764      -0.01394790       0.00120584
Pb       9.23588531       3.35242501       3.14981876       21       0.01333896      -0.04255506       0.01006763
I        9.28173253       3.20520418       0.01379421       22       0.01139425      -0.00698374      -0.01682624
I        9.24689510      12.42894975       3.15993373       23       0.00532173      -0.00978298      -0.00052090
Br       6.24149450       3.24424302       3.15316374       24      -0.00066601       0.03622287       0.00692656
Cs       6.23564311      12.38216021       6.23752844       25       0.00570824      -0.00441647      -0.00663904
Pb       9.35427613       3.11944241       9.44498897       26      -0.01029476       0.01174969      -0.00779317
I        9.29190681       3.19550261       6.28408901       27       0.00816063      -0.00364316       0.01606718
I        9.32842307      12.43123165       9.43155033       28       0.00578601       0.00758171      -0.00523606
I        6.23625167       3.19063862       9.43707239       29       0.00918453      -0.00990185      -0.00954665
Cs       6.17608722       6.27498183       0.03087130       30      -0.02201579       0.02263594       0.01586666
Pb       9.24506444       9.10389560       3.13773057       31      -0.00244856       0.04679996      -0.00333993
I        9.18834868       9.23085918       0.01011439       32      -0.00474823       0.00931308      -0.01402700
Cl       9.21044859       6.22124994       3.15183807       33      -0.02861743       0.00456657       0.00638422
Br       6.24076199       9.17674541       3.06101177       34      -0.00699226      -0.03173153      -0.01989413
Cs       6.19789942       6.25427835       6.26491308       35       0.00461557      -0.00373345      -0.01949614
Pb       9.24694748       9.31317895       9.45393481       36       0.00347332      -0.01699622       0.01124228
I        9.21661069       9.24137507       6.28692531       37       0.00273374       0.00434409       0.01059605
I        9.28828920       6.22463785       9.43687408       38       0.01017435      -0.00723593      -0.01005339
Br       6.24013868       9.28808932       9.52868710       39      -0.02688299      -0.00250099       0.02431443
40
Lattice="12.479885770650755 0.0 0.0 0.006341934393154383 12.436935852177369 0.0 -0.0005394530553308778 0.0009172818554350887 12.593172900643134" Properties=species:S:1:pos:R:3:spacegroup_kinds:I:1:forces:R:3 spacegroup="P 1" unit_cell=conventional occupancy="_JSON {\"0\": {\"Cs\": 1.0}, \"1\": {\"Pb\": 1.0}, \"2\": {\"I\": 1.0}, \"3\": {\"I\": 1.0}, \"4\": {\"I\": 1.0}, \"5\": {\"Cs\": 1.0}, \"6\": {\"Pb\": 1.0}, \"7\": {\"I\": 1.0}, \"8\": {\"I\": 1.0}, \"9\": {\"I\": 1.0}, \"10\": {\"Cs\": 1.0}, \"11\": {\"Pb\": 1.0}, \"12\": {\"Cl\": 1.0}, \"13\": {\"Br\": 1.0}, \"14\": {\"I\": 1.0}, \"15\": {\"Cs\": 1.0}, \"16\": {\"Pb\": 1.0}, \"17\": {\"I\": 1.0}, \"18\": {\"Br\": 1.0}, \"19\": {\"I\": 1.0}, \"20\": {\"Cs\": 1.0}, \"21\": {\"Pb\": 1.0}, \"22\": {\"I\": 1.0}, \"23\": {\"I\": 1.0}, \"24\": {\"Br\": 1.0}, \"25\": {\"Cs\": 1.0}, \"26\": {\"Pb\": 1.0}, \"27\": {\"I\": 1.0}, \"28\": {\"I\": 1.0}, \"29\": {\"I\": 1.0}, \"30\": {\"Cs\": 1.0}, \"31\": {\"Pb\": 1.0}, \"32\": {\"I\": 1.0}, \"33\": {\"Cl\": 1.0}, \"34\": {\"Br\": 1.0}, \"35\": {\"Cs\": 1.0}, \"36\": {\"Pb\": 1.0}, \"37\": {\"I\": 1.0}, \"38\": {\"I\": 1.0}, \"39\": {\"Br\": 1.0}}" candidate_id=6db9b09ceb625fc4 formula=CsPbBr0.22Cl0.059I0.733 config_index=1 rattle_stdev=0.08 method=PBE fidelity=phase2_force energy=-117.612780798591 stress="-0.0017279951840532381 1.6410399231420672e-05 -5.6270764947819614e-05 1.6410399231420672e-05 -0.0011001353466068855 -0.00013483547894767956 -5.6270764947819614e-05 -0.00013483547894767956 -0.0032321092994524493" pbc="T T T"
Cs      12.39508263      12.33951476       0.01815648        0      -0.04574621       0.03383170       0.03625987
Pb       3.13645881       3.13114378       3.08705872        1       0.22726559       0.24593836       0.29180843
I        3.30463352       3.44343447       0.07382030        2      -0.09702911      -0.07197221      -0.13576134
I        3.26513087      12.41369990       2.96630213        3      -0.01465983       0.00404963      -0.00444993
I       -0.07955952       3.27157166       3.25359849        4       0.42750755      -0.00751532       0.00823498
Cs      -0.12386720      12.50392374       6.33654963        5       0.02178551       0.04326220      -0.05222220
Pb       3.16658112       3.18501300       9.50077094        6       0.04876234      -0.00642681      -0.06245410
I        3.07581386       3.24183080       6.38878120        7       0.02862852       0.00685775      -0.23366667
I        3.13252838      12.54202595       9.63995246        8      -0.02237945      -0.45983325       0.02130004
I       -0.01328054       3.14160407       9.35433617        9       0.19298034      -0.00248629       0.01719432
Cs       0.03682909       6.24040525      -0.03138170       10       0.00569904      -0.03486513       0.02453773
Pb       3.08053673       9.21461007       2.80922672       11       0.68125627      -0.26176175      -0.11215170
Cl       3.33455520       9.16367902      -0.04806480       12      -0.05128021      -0.00842593       0.03325285
Br       3.08723245       6.19641732       2.93204863       13       0.01852732       0.06260473       0.04962726
I        0.13288376       9.19847095       3.11263613       14      -0.64950720       0.01364743       0.02221234
Cs       0.15566016       6.26194864       6.42181455       15       0.03230654      -0.03205415      -0.01288754
Pb       3.31795608       9.14731645       9.48538950       16       0.20826590       0.10339927       0.09310380
I        3.28548249       9.13995502       6.26066217       17      -0.04126764       0.02856806       0.08424501
Br       3.18450564       6.18063052       9.60354682       18      -0.01890277       0.36733021      -0.02053978
I        0.02766878       9.26689558       9.55759304       19       0.24555825       0.02753303      -0.00066763
Cs       6.24764798      12.35285648       0.08029397       20       0.02663694       0.00412345       0.01813893
Pb       9.29382202       3.39374102       3.23190122       21      -0.34534748      -0.22680842      -0.55926656
I        9.32334474       3.13561710       0.13383942       22       0.05297448       0.00232287      -0.51324658
I        9.34021287      12.46830290       3.10135275       23       0.00424279      -0.10590142       0.11557546
Br       6.29591899       3.28496277       3.08616084       24      -0.31362404       0.01883767       0.05934194
Cs       6.28745470      12.38316337       6.36229556       25      -0.02864534      -0.00169111      -0.03493523
Pb       9.43704376       3.14645783       9.34078014       26      -0.27511924       0.30891254       0.38708679
I        9.20242327       3.30026382       6.24263165       27      -0.02750371      -0.05998118       0.49809454
I        9.29697313      12.51466913       9.43752754       28      -0.00657498      -0.18410287      -0.00979279
I        6.24340663       3.19495121       9.47054815       29       0.04819649      -0.00882123      -0.00924575
Cs       6.07786881       6.18781851       0.05624125       30       0.05752113       0.06048465       0.05217027
Pb       9.18263199       9.03540512       3.03214085       31      -0.16210125       0.20425401       0.40697869
I        9.22465122       9.31100117       0.12321316       32       0.02231486      -0.00145417      -0.56454329
Cl       9.19523396       6.22365878       3.00196473       33       0.00820746       0.11950076       0.01107933
Br       6.23141983       9.16654618       3.13318651       34       0.18488774      -0.03934516       0.00042060
Cs       6.09274965       6.24631429       6.27615707       35       0.00575668      -0.03299729      -0.03305923
Pb       9.45725195       9.45364126       9.24308298       36      -0.33953670      -0.37665769       1.06926640
I        9.11367913       9.22763729       6.43096161       37      -0.02880554       0.02525376      -1.05119331
I        9.33698485       6.22715990       9.31956111       38       0.00911346       0.24628357       0.08460464
Br       6.26489394       9.37946674       9.48781957       39      -0.09250119      -0.00000413       0.02718603
40
Lattice="12.479885770650755 0.0 0.0 0.006341934393154383 12.436935852177369 0.0 -0.0005394530553308778 0.0009172818554350887 12.593172900643134" Properties=species:S:1:pos:R:3:spacegroup_kinds:I:1:forces:R:3 spacegroup="P 1" unit_cell=conventional occupancy="_JSON {\"0\": {\"Cs\": 1.0}, \"1\": {\"Pb\": 1.0}, \"2\": {\"I\": 1.0}, \"3\": {\"I\": 1.0}, \"4\": {\"I\": 1.0}, \"5\": {\"Cs\": 1.0}, \"6\": {\"Pb\": 1.0}, \"7\": {\"I\": 1.0}, \"8\": {\"I\": 1.0}, \"9\": {\"I\": 1.0}, \"10\": {\"Cs\": 1.0}, \"11\": {\"Pb\": 1.0}, \"12\": {\"Cl\": 1.0}, \"13\": {\"Br\": 1.0}, \"14\": {\"I\": 1.0}, \"15\": {\"Cs\": 1.0}, \"16\": {\"Pb\": 1.0}, \"17\": {\"I\": 1.0}, \"18\": {\"Br\": 1.0}, \"19\": {\"I\": 1.0}, \"20\": {\"Cs\": 1.0}, \"21\": {\"Pb\": 1.0}, \"22\": {\"I\": 1.0}, \"23\": {\"I\": 1.0}, \"24\": {\"Br\": 1.0}, \"25\": {\"Cs\": 1.0}, \"26\": {\"Pb\": 1.0}, \"27\": {\"I\": 1.0}, \"28\": {\"I\": 1.0}, \"29\": {\"I\": 1.0}, \"30\": {\"Cs\": 1.0}, \"31\": {\"Pb\": 1.0}, \"32\": {\"I\": 1.0}, \"33\": {\"Cl\": 1.0}, \"34\": {\"Br\": 1.0}, \"35\": {\"Cs\": 1.0}, \"36\": {\"Pb\": 1.0}, \"37\": {\"I\": 1.0}, \"38\": {\"I\": 1.0}, \"39\": {\"Br\": 1.0}}" candidate_id=6db9b09ceb625fc4 formula=CsPbBr0.22Cl0.059I0.733 config_index=2 rattle_stdev=0.08 method=PBE fidelity=phase2_force energy=-117.70287569418343 stress="-0.001413386176290479 2.3740116570875775e-05 6.259368300266986e-05 2.3740116570875775e-05 -0.0011043635855363533 -2.962540164140073e-05 6.259368300266986e-05 -2.962540164140073e-05 -0.001978115787041349" pbc="T T T"
Cs      12.47298129      12.32507485       0.18546259        0       0.00215784      -0.00394439      -0.05989452
Pb       3.12709484       3.20156497       3.03760515        1       0.57006253       0.26178723       0.24204465
I        3.23006719       3.22554584      -0.02050696        2      -0.04469164       0.03213952      -0.09723739
I        3.29072759      12.52645797       2.91411209        3      -0.03341273      -0.57956313       0.02428676
I        0.15474219       3.31798009       3.14907450        4      -0.79102810       0.00462771      -0.02234045
Cs      -0.02530952      12.32777524       6.21304139        5      -0.02653373      -0.00770801       0.04679182
Pb       3.07756557       3.31374053       9.39152280        6       0.48338307      -0.05461227       0.02686237
I        3.14339571       3.26310726       6.29490881        7       0.00875308      -0.07849908      -0.12517551
I        3.09633171      12.30384775       9.63736064        8       0.00367770       0.41977321       0.02063004
I        0.04085334       3.09899962       9.24836300        9      -0.19630369      -0.01379494      -0.00139987
Cs       0.00126155       6.15421159       0.01605350       10       0.05093599       0.02048090      -0.04567432
Pb       3.21515355       9.25224271       2.92033365       11       0.24565084      -0.25066725       0.10370363
Cl       3.23775014       9.08949015      -0.03626983       12       0.03295520      -0.00514733       0.32554389
Br       3.28586818       6.15189544       3.23608119       13      -0.00673686       0.48516444      -0.09379782
I       -0.09757561       9.14138795       3.05691428       14       0.49354053       0.00571218       0.00456734
Cs       0.05063171       6.26205528       6.29296823       15       0.01850940       0.01026036       0.02605144
Pb       3.23404217       9.31546198       9.69601376       16      -0.03004309      -0.40123941      -0.13346472
I        3.32135494       9.12834486       6.35232654       17      -0.07257964       0.11335268      -0.25569161
Br       3.26548715       6.16551653       9.48879304       18      -0.03460144       0.04975852       0.03238008
I        0.10170712       9.05311479       9.57569932       19      -0.07559330       0.01644296       0.01717984
Cs       6.33637585      12.25346249       0.11610482       20      -0.01650576       0.02503027      -0.03015124
Pb       9.19587629       3.16488156       3.14118535       21      -0.21199667       0.19269242       0.14405009
I        9.16150952       3.24430647      -0.03046007       22       0.06299686       0.03123605       0.16690785
I        9.33149570      12.35940432       3.15392644       23       0.02008848       0.17148555      -0.02098806
Br       6.23292210       3.41214878       3.12592070       24       0.30726556      -0.08594269      -0.01652247
Cs       6.19341070      12.27859086       6.25465636       25       0.02374288      -0.01547437       0.01601653
Pb       9.44437770       3.15156528       9.50623580       26      -0.39886324      -0.05685327      -0.25158264
I        9.18365661       3.24141129       6.26647804       27       0.05430416      -0.05906738      -0.01554270
I        9.38003819      12.35085410       9.58352941       28       0.05403631       0.59017032       0.02154728
I        6.25360053       3.23063625       9.38694511       29       0.05599011      -0.08312929      -0.00494552
Cs       6.09585648       6.21247702       0.04721352       30      -0.02896131      -0.01772972       0.01911563
Pb       9.28795180       9.01789581       2.96030219       31      -0.38122541      -0.17637651       0.77517852
I        9.24010310       9.20507232      -0.00369075       32       0.00376714      -0.02332798      -0.06291883
Cl       9.02737484       6.21228643       3.22826318       33       0.08997350      -0.03727045      -0.08804684
Br       6.27714104       9.34169961       3.06600860       34      -0.35997346       0.02471197      -0.08514022
Cs       6.19812682       6.21799404       6.29479168       35       0.00943136      -0.02010961      -0.04308776
Pb       9.18189820       9.30505435       9.48959186       36       0.18829959       0.11089576      -0.41388689
I        9.11460040       9.25000161       6.35510426       37       0.06274615       0.08796678      -0.24879556
I        9.27574103       6.31974340       9.31909301       38       0.07352105      -0.73257962       0.01703108
Br       6.30942194       9.21661815       9.48476945       39      -0.20430095       0.05095584       0.08522570
40
Lattice="12.479885770650755 0.0 0.0 0.006341934393154383 12.436935852177369 0.0 -0.0005394530553308778 0.0009172818554350887 12.593172900643134" Properties=species:S:1:pos:R:3:spacegroup_kinds:I:1:forces:R:3 spacegroup="P 1" unit_cell=conventional occupancy="_JSON {\"0\": {\"Cs\": 1.0}, \"1\": {\"Pb\": 1.0}, \"2\": {\"I\": 1.0}, \"3\": {\"I\": 1.0}, \"4\": {\"I\": 1.0}, \"5\": {\"Cs\": 1.0}, \"6\": {\"Pb\": 1.0}, \"7\": {\"I\": 1.0}, \"8\": {\"I\": 1.0}, \"9\": {\"I\": 1.0}, \"10\": {\"Cs\": 1.0}, \"11\": {\"Pb\": 1.0}, \"12\": {\"Cl\": 1.0}, \"13\": {\"Br\": 1.0}, \"14\": {\"I\": 1.0}, \"15\": {\"Cs\": 1.0}, \"16\": {\"Pb\": 1.0}, \"17\": {\"I\": 1.0}, \"18\": {\"Br\": 1.0}, \"19\": {\"I\": 1.0}, \"20\": {\"Cs\": 1.0}, \"21\": {\"Pb\": 1.0}, \"22\": {\"I\": 1.0}, \"23\": {\"I\": 1.0}, \"24\": {\"Br\": 1.0}, \"25\": {\"Cs\": 1.0}, \"26\": {\"Pb\": 1.0}, \"27\": {\"I\": 1.0}, \"28\": {\"I\": 1.0}, \"29\": {\"I\": 1.0}, \"30\": {\"Cs\": 1.0}, \"31\": {\"Pb\": 1.0}, \"32\": {\"I\": 1.0}, \"33\": {\"Cl\": 1.0}, \"34\": {\"Br\": 1.0}, \"35\": {\"Cs\": 1.0}, \"36\": {\"Pb\": 1.0}, \"37\": {\"I\": 1.0}, \"38\": {\"I\": 1.0}, \"39\": {\"Br\": 1.0}}" candidate_id=6db9b09ceb625fc4 formula=CsPbBr0.22Cl0.059I0.733 config_index=3 rattle_stdev=0.08 method=PBE fidelity=phase2_force energy=-117.5369653117627 stress="-0.0017672862059654936 0.00010258371519049862 5.8999535878951885e-05 0.00010258371519049862 -0.0012544939439129777 0.00016099234006063858 5.8999535878951885e-05 0.00016099234006063858 -0.0018149209244664448" pbc="T T T"
Cs      12.37631485      12.57254020       0.04646559        0       0.00513622       0.06300311       0.03439527
Pb       3.22463981       3.23440044       3.21516025        1      -0.25865906      -0.26579047      -0.78705228
I        3.14546999       3.33812326      -0.05450235        2      -0.00354683      -0.00719007      -0.06508091
I        3.37939127      12.41241057       2.93516085        3      -0.00208440      -0.19550595       0.00862380
I       -0.04786293       3.14878848       3.05713353        4       0.14270911       0.03985547       0.03452273
Cs      -0.01100360      12.33762334       6.18997952        5      -0.04260872       0.02429897      -0.02535349
Pb       3.15605295       3.01161362       9.32007613        6      -0.07515096       0.37275058       0.47359118
I        3.13353895       3.07197472       6.18640764        7      -0.04011425      -0.03071714       0.44762273
I        3.24407760      12.32544043       9.50114737        8      -0.04146205       0.40936883      -0.00087649
I       -0.11234998       3.05949794       9.61279996        9       0.57837413       0.01606746       0.01691660
Cs       0.02609865       6.30822605      -0.13580620       10       0.03208515      -0.09941243      -0.01550425
Pb       3.21819192       9.09386339       2.87198119       11       0.07023772       0.30803334       0.01522008
Cl       3.38866432       9.15388586      -0.05314680       12      -0.01710056      -0.07682623       0.42591194
Br       3.20966996       6.17158486       3.18040778       13       0.00849338       0.24797828       0.00275991
I       -0.12536254       9.21319811       3.01199772       14       0.93750185      -0.03634214      -0.01381790
Cs       0.01812668       6.26894734       6.23185280       15      -0.01675058      -0.01634273       0.01037963
Pb       3.29402030       9.23831593       9.63869662       16      -0.13338765      -0.54222171      -0.06286588
I        3.40299491       9.19331147       6.39062729       17      -0.06334128       0.04467086      -0.34900764
Br       3.21750539       6.27783885       9.48122901       18      -0.01447744      -0.22837514      -0.01816281
I        0.00760681       9.13395420       9.55636776       19      -0.12720873       0.04971727      -0.01191420
Cs       6.34916379      12.37691459       0.00326957       20      -0.02650081       0.00546563      -0.00096924
Pb       9.08416238       3.22920109       3.11839290       21       0.37999793       0.15977529       0.09223820
I        9.24857407       3.26208960       0.06519624       22      -0.02911512      -0.02543740      -0.27228358
I        9.43868200      12.41536716       3.07886303       23      -0.08502223      -0.17528062       0.02468579
Br       6.20601000       3.31192120       3.19271246       24      -0.17198290       0.00381522       0.03501550
Cs       6.25793417      12.42392748       6.26293777       25       0.01801866      -0.03049842      -0.00381496
Pb       9.37244704       3.08821517       9.38754757       26      -0.22805415      -0.01970554       0.02976405
I        9.41543570       3.12646700       6.25538280       27       0.02454808      -0.00461549       0.12558786
I        9.33512722      12.56556941       9.33720335       28      -0.03331579      -1.15593873       0.04186719
I        6.20435350       3.15676747       9.48181934       29      -0.14554647      -0.02564252      -0.04052041
Cs       6.12990764       6.28068162       0.10024771       30      -0.02031193      -0.02149459      -0.03956440
Pb       9.27825715       9.08579682       3.19817802       31      -0.06475097      -0.14775302       0.21185315
I        9.20635907       9.19567894       0.06244073       32       0.02376474       0.00559598       0.05252230
Cl       9.13875873       6.10729404       3.29123680       33       0.01423583       0.18884037       0.00849207
Br       6.47430804       9.12284739       2.99932983       34      -0.94661343      -0.00853004      -0.01479112
Cs       6.28233881       6.34593539       6.27456293       35       0.01805742      -0.02914181      -0.00517777
Pb       9.24794695       9.25721723       9.60403874       36       0.07467311       0.00065027      -0.29707814
I        9.18055802       9.21687632       6.39994466       37       0.02328704       0.02952163      -0.10145794
I        9.23600192       6.04331253       9.48530224       38      -0.02684200       1.16148002       0.00230121
Br       6.19819324       9.30468850       9.61639927       39       0.26168363       0.01238370       0.03662230
