Cs Pb I  Cs Pb Cl I  Cs Pb Cl I  Cs Pb I  Cl I  Cs Pb I  Cl Cs Pb Cl I  Cl Cs Pb I  Cl Cs Pb I  Cl
 1.0000000000000000
    12.7799651204531841    0.0000000000000000    0.0000000000000000
     0.0000000000000000   12.7799651204531841    0.0000000000000000
     0.0000000000000000    0.0000000000000000   12.7799651204531841
 Cs  Pb  I   Cs  Pb  Cl  I   Cs  Pb  Cl  I   Cs  Pb  I   Cl  I   Cs  Pb  I   Cl  Cs  Pb  Cl  I   Cl  Cs  Pb  I   Cl  Cs  Pb  I   Cl 
   1   1   3   1   1   2   1   1   1   2   1   1   1   1   1   1   1   1   2   1   1   1   1   1   1   1   1   1   2   1   1   1   2
Cartesian
  0.0000000000000000  0.0000000000000000  0.0000000000000000
  3.1949912801132960  3.1949912801132960  3.1949912801132960
  3.1949912801132960  3.1949912801132960  0.0000000000000000
  3.1949912801132960  0.0000000000000000  3.1949912801132960
  0.0000000000000000  3.1949912801132960  3.1949912801132960
  0.0000000000000000  0.0000000000000000  6.3899825602265912
  3.1949912801132960  3.1949912801132960  9.5849738403398899
  3.1949912801132960  3.1949912801132960  6.3899825602265912
  3.1949912801132960  0.0000000000000000  9.5849738403398899
  0.0000000000000000  3.1949912801132960  9.5849738403398899
  0.0000000000000000  6.3899825602265912  0.0000000000000000
  3.1949912801132960  9.5849738403398899  3.1949912801132960
  3.1949912801132960  9.5849738403398899  0.0000000000000000
  3.1949912801132960  6.3899825602265912  3.1949912801132960
  0.0000000000000000  9.5849738403398899  3.1949912801132960
  0.0000000000000000  6.3899825602265912  6.3899825602265912
  3.1949912801132960  9.5849738403398899  9.5849738403398899
  3.1949912801132960  9.5849738403398899  6.3899825602265912
  3.1949912801132960  6.3899825602265912  9.5849738403398899
  0.0000000000000000  9.5849738403398899  9.5849738403398899
  6.3899825602265912  0.0000000000000000  0.0000000000000000
  9.5849738403398899  3.1949912801132960  3.1949912801132960
  9.5849738403398899  3.1949912801132960  0.0000000000000000
  9.5849738403398899  0.0000000000000000  3.1949912801132960
  6.3899825602265912  3.1949912801132960  3.1949912801132960
  6.3899825602265912  0.0000000000000000  6.3899825602265912
  9.5849738403398899  3.1949912801132960  9.5849738403398899
  9.5849738403398899  3.1949912801132960  6.3899825602265912
  9.5849738403398899  0.0000000000000000  9.5849738403398899
  6.3899825602265912  3.1949912801132960  9.5849738403398899
  6.3899825602265912  6.3899825602265912  0.0000000000000000
  9.5849738403398899  9.5849738403398899  3.1949912801132960
  9.5849738403398899  9.5849738403398899  0.0000000000000000
  9.5849738403398899  6.3899825602265912  3.1949912801132960
  6.3899825602265912  9.5849738403398899  3.1949912801132960
  6.3899825602265912  6.3899825602265912  6.3899825602265912
  9.5849738403398899  9.5849738403398899  9.5849738403398899
  9.5849738403398899  9.5849738403398899  6.3899825602265912
  9.5849738403398899  6.3899825602265912  9.5849738403398899
  6.3899825602265912  9.5849738403398899  9.5849738403398899
