40
Lattice="11.53642444426619 0.0 0.0 0.0 11.537571933449923 0.0 0.0 -3.003280743223064e-14 11.53642444426608" Properties=species:S:1:pos:R:3:spacegroup_kinds:I:1:forces:R:3 spacegroup="P 1" unit_cell=conventional candidate_id=8260404ae2edc21a formula=CsGe0.37Sn0.63Br3 config_index=0 rattle_stdev=0.0 method=PBE fidelity=phase2_force energy=-126.26948695831894 stress="-0.0008887049634834876 -9.90834735199546e-16 -3.864938288192729e-15 -9.90834735199546e-16 -0.0012336313174810634 9.876232191896106e-16 -3.864938288192729e-15 9.876232191896106e-16 -0.0008887049634835053" pbc="T T T"
Cs      11.46061900      11.45733010       0.07580545        0       0.04351622       0.05095564      -0.04351622
Sn       2.88410611       2.88439298       2.88410611        1       0.00000000       0.00000000      -0.00000000
Br       2.88410611       2.88439298       0.00816674        2      -0.00000000      -0.00000000      -0.03768069
Br       2.88410611       0.00811234       2.88410611        3      -0.00000000      -0.09083568      -0.00000000
Br      11.51756740       2.88439298       2.88410611        4      -0.37364593      -0.00000000       0.00000000
Cs      11.46061900      11.45733010       5.69240677        5       0.04351622       0.05095564       0.04351622
Sn       2.88410611       2.88439298       8.65231833        6      -0.00000000       0.00000000       0.00000000
Br       2.88410611       2.88439298       5.76004549        7       0.00000000       0.00000000       0.03768069
Br       2.88410611      11.50571358       8.65231833        8      -0.00000000      -0.28733674       0.00000000
Br      11.52825771       2.88439298       8.65231833        9       0.03768069      -0.00000000       0.00000000
Cs      11.46061900       5.84902780       0.07580545       10       0.04351622      -0.05095564      -0.04351622
Sn       2.88410611       8.65317895       2.88410611       11       0.00000000      -0.00000000      -0.00000000
Br       2.88410611       8.65317895      11.50625468       12       0.00000000       0.00000000      -0.23615298
Br       2.88410611       5.76067363       2.88410611       13      -0.00000000       0.09083568      -0.00000000
Br      11.50323087       8.65317895       2.88410611       14      -0.28627399       0.00000000       0.00000000
Cs      11.46061900       5.84902780       5.69240677       15       0.04351622      -0.05095564       0.04351622
Ge       2.88410611       8.65317895       8.65231833       16      -0.00000000       0.00000000       0.00000000
Br       2.88410611       8.65317895       5.79838199       17       0.00000000       0.00000000       0.23615298
Br       2.88410611       5.80064432       8.65231833       18      -0.00000000       0.28733674       0.00000000
Br       0.03016977       8.65317895       8.65231833       19       0.23615298       0.00000000      -0.00000000
Cs       5.84401767      11.45733010       0.07580545       20      -0.04351622       0.05095564      -0.04351622
Ge       8.65231833       2.88439298       2.88410611       21      -0.00000000      -0.00000000       0.00000000
Br       8.65231833       2.88439298       0.01885705       22      -0.00000000      -0.00000000       0.37364593
Br       8.65231833      11.52995015       2.88410611       23       0.00000000       0.00019281      -0.00000000
Br       5.78706927       2.88439298       2.88410611       24       0.37364593      -0.00000000      -0.00000000
Cs       5.84401767      11.45733010       5.69240677       25      -0.04351622       0.05095564       0.04351622
Sn       8.65231833       2.88439298       8.65231833       26       0.00000000       0.00000000      -0.00000000
Br       8.65231833       2.88439298       5.74935518       27       0.00000000      -0.00000000      -0.37364593
Br       8.65231833       0.00811234       8.65231833       28       0.00000000      -0.09083568       0.00000000
Br       5.77637896       2.88439298       8.65231833       29      -0.03768069       0.00000000      -0.00000000
Cs       5.84401767       5.84902780       0.07580545       30      -0.04351622      -0.05095564      -0.04351622
Ge       8.65231833       8.65317895       2.88410611       31      -0.00000000      -0.00000000       0.00000000
Br       8.65231833       8.65317895       0.03319357       32      -0.00000000       0.00000000       0.28627399
Br       8.65231833       5.77640775       2.88410611       33       0.00000000      -0.00019281      -0.00000000
Br       5.80140580       8.65317895       2.88410611       34       0.28627399       0.00000000       0.00000000
Cs       5.84401767       5.84902780       5.69240677       35      -0.04351622      -0.05095564       0.04351622
Sn       8.65231833       8.65317895       8.65231833       36       0.00000000      -0.00000000      -0.00000000
Br       8.65231833       8.65317895       5.73501865       37      -0.00000000       0.00000000      -0.28627399
Br       8.65231833       5.76067363       8.65231833       38       0.00000000       0.09083568       0.00000000
Br       5.73804246       8.65317895       8.65231833       39      -0.23615298       0.00000000      -0.00000000
40
Lattice="11.53642444426619 0.0 0.0 0.0 11.537571933449923 0.0 0.0 -3.003280743223064e-14 11.53642444426608" Properties=species:S:1:pos:R:3:spacegroup_kinds:I:1:forces:R:3 spacegroup="P 1" unit_cell=conventional candidate_id=8260404ae2edc21a formula=CsGe0.37Sn0.63Br3 config_index=1 rattle_stdev=0.08 method=PBE fidelity=phase2_force energy=-125.73461334917452 stress="-0.0034368841280185487 5.627331680327601e-05 -5.4106238970755354e-05 5.627331680327601e-05 -0.003080980616721271 -9.383327629567551e-05 -5.4106238970755354e-05 -9.383327629567551e-05 -0.0034496246302319023" pbc="T T T"
Cs      11.37370329      11.38564489       0.05130150        0       0.05493503       0.12813460      -0.01401200
Sn       2.77691142       2.78786614       2.83276797        1       0.36007281       0.41694994       0.29400115
Br       2.98874176       3.03202982       0.07449593        2      -0.09285523      -0.08624672      -0.05944564
Br       2.88224221      -0.00857278       2.81077653        3      -0.01813474      -0.10304520      -0.01495541
Br      11.43158799       2.87750150       2.97817319        4      -0.03224551       0.00616383       0.00040610
Cs      11.32981166      11.55558562       5.77851767        5       0.12696074       0.08051002      -0.04285790
Sn       2.91568794       2.85337692       8.69939047        6       0.10893255      -0.00723700      -0.19253145
Br       2.76944221       2.85850701       5.86028426        7       0.06246684       0.01399036      -0.14963202
Br       2.82564670      11.61999238       8.72789064        8      -0.00247545      -0.60503986      -0.02166332
Br      11.50713749       2.87133592       8.57518975        9       0.15398084       0.00487145       0.03052559
Cs      11.43320721       5.85294012       0.03583489       10       0.02930568      -0.08907716      -0.02850286
Sn       2.70715375       8.67796590       2.75693401       11       0.90647491      -0.34338522      -0.12266532
Br       2.94246248       8.64454685      11.45424096       12      -0.09232479       0.02821454      -0.09411320
Br       2.74866159       5.73119571       2.75687637       13      -0.01674883       0.11860677       0.09034316
Br      11.62167134       8.69113417       2.95721522       14      -1.03370987       0.00438899       0.02568660
Cs      11.53745662       5.85579120       5.82978525       15       0.06077252      -0.10020088      -0.02966219
Ge       2.95225753       8.59278813       8.46930799       16       0.37013144      -0.06708042       0.11987813
Br       2.89284521       8.61716630       5.76534419       17      -0.00244418      -0.00312487       0.37333539
Br       2.90962481       5.75735569       8.72821165       18      -0.01978893       0.74429168      -0.12219562
Br       0.04228457       8.65933114       8.64756630       19       0.51830082       0.02031233      -0.06474187
Cs       5.83840658      11.41203818       0.10068588       20      -0.01488766       0.08503487      -0.01617511
Ge       8.71025504       2.92570899       2.96618857       21      -0.32697460      -0.23071211      -0.56675137
Br       8.69393054       2.81480590       0.13890226       22       0.06513761       0.05547694      -0.02700032
Br       8.74563611      11.56930331       2.82552513       23      -0.05389300      -0.05954228       0.17504074
Br       5.84149376       2.92511273       2.81710321       24      -0.01713497      -0.03122936       0.10651150
Cs       5.89582926      11.45833326       5.81717390       25      -0.11278010       0.08300899      -0.04605761
Sn       8.73508596       2.91140840       8.54810950       26      -0.27474276       0.34037085       0.43245473
Br       8.56283479       2.98915419       5.70789782       27       0.02130234      -0.05458872      -0.04165201
Br       8.62086839       0.09154982       8.65829555       28       0.05208783      -0.29948888      -0.07993247
Br       5.78353392       2.88870557       8.68579409       29      -0.07321711      -0.01257276      -0.03165659
Cs       5.74579927       5.76186447       0.10117540       30       0.00687600      -0.02850008      -0.03674581
Ge       8.58988589       8.58468847       2.77851640       31      -0.37314356       0.10401064      -0.29188247
Br       8.68862087       8.73332094       0.14629235       32      -0.04332272      -0.09644708       0.33564649
Br       8.63710370       5.77881659       2.73423277       33       0.04785575       0.20766415       0.10106351
Br       5.79206364       8.64297972       2.95628085       34       0.64806999      -0.00878862      -0.05160178
Cs       5.73886790       5.84106374       5.70365076       35      -0.04378327      -0.07687488       0.01407761
Sn       8.86262281       8.79364126       8.44146651       36      -0.62095288      -0.40386531       1.08307802
Br       8.54938677       8.63944117       5.87905495       37       0.07569348       0.02709148      -1.06275764
Br       8.70101398       5.76319568       8.53500536       38       0.02473344       0.28452742       0.04742578
Br       5.76279772       8.74455638       8.61145080       39      -0.42622786      -0.04697005      -0.01893186
40
Lattice="11.53642444426619 0.0 0.0 0.0 11.537571933449923 0.0 0.0 -3.003280743223064e-14 11.53642444426608" Properties=species:S:1:pos:R:3:spacegroup_kinds:I:1:forces:R:3 spacegroup="P 1" unit_cell=conventional candidate_id=8260404ae2edc21a formula=CsGe0.37Sn0.63Br3 config_index=2 rattle_stdev=0.08 method=PBE fidelity=phase2_force energy=-125.71534486986765 stress="-0.0027840788641912526 1.695975628010744e-05 1.2436506120068716e-05 1.695975628010744e-05 -0.0029412441624947936 1.840392403506518e-07 1.2436506120068716e-05 1.840392403506518e-07 -0.0022710260054200075" pbc="T T T"
Cs      11.45160195      11.37120499       0.21860760        0       0.08178999       0.06616737      -0.17610069
Sn       2.76754745       2.85828732       2.78331439        1       0.84303199       0.37684682       0.20223838
Br       2.91417543       2.81414119      -0.01983133        2      -0.08503237       0.06957274      -0.05112751
Br       2.90783893       0.10418529       2.75858649        3      -0.02569477      -0.78527012       0.06163999
Br      11.66588970       2.92390993       2.87364920        4      -1.21261015      -0.01042112      -0.03945570
Cs      11.42836934      11.37943712       5.65500943        5       0.02845514       0.04270895       0.13790896
Sn       2.82667239       2.98210445       8.59014233        6       0.49502296      -0.03450005      -0.05374425
Br       2.83702406       2.87978348       5.76641188        7       0.00863351      -0.09686598      -0.05649993
Br       2.78945003      11.38181418       8.72529883        8       0.02333129      -0.19036170      -0.02248219
Br      11.56127137       2.82873146       8.46921658        9      -0.11324467       0.03940546       0.05561928
Cs      11.39763967       5.76674646       0.08327010       10       0.07010806      -0.01564380      -0.05156831
Sn       2.84177058       8.71559854       2.86804094       11       0.28006967      -0.28897155       0.08631770
Br       2.84565742       8.57035798      11.46603593       12       0.01947242      -0.00927826       0.13683832
Br       2.94729733       5.68667382       3.06090894       13      -0.06163930       0.64312267      -0.11021085
Br      11.39121198       8.63405116       2.90149337       14       0.12373028      -0.04589037      -0.02087694
Cs      11.43242817       5.85589784       5.70093893       15       0.02860988      -0.03641229       0.04876139
Ge       2.86834361       8.76093366       8.67993225       16      -0.28212609       0.00455058      -0.10106156
Br       2.92871766       8.60555614       5.85700856       17      -0.04885556       0.11659671      -0.11288238
Br       2.99060633       5.74224169       8.61345787       18      -0.05979728       0.04746744       0.04549797
Br       0.11632290       8.44555036       8.66567259       19       0.24346547       0.09149307      -0.00516538
Cs       5.92713444      11.31264420       0.13649672       20      -0.09843386       0.15260008      -0.11435870
Ge       8.61230931       2.69684953       2.87547270       21      -0.49454016       0.25247396       0.24644311
Br       8.53209532       2.92349528      -0.02539724       22       0.12012193      -0.00666949       0.52477085
Br       8.73691894      11.46040473       2.87809882       23      -0.04295413       0.32211713      -0.02457030
Br       5.77849687       3.05229874       2.85686308       24       0.77278286      -0.26685306      -0.00939746
Cs       5.80178526      11.35376076       5.70953470       25      -0.01576648       0.10947786       0.08118018
Sn       8.74241990       2.91651585       8.71356516       26      -0.51087935      -0.10389429      -0.31571166
Br       8.54406814       2.93030166       5.73174421       27       0.09248659      -0.14939284      -0.47490883
Br       8.70393345      -0.07226521       8.80429742       28       0.02178613       0.46211621      -0.01136366
Br       5.79372782       2.92439061       8.60219105       29       0.05515196      -0.06370251       0.00983415
Cs       5.76378693       5.78652298       0.09214767       30      -0.05439046      -0.06928138      -0.03611823
Ge       8.69520569       8.56717915       2.70667773       31      -0.29445393      -0.29420393       0.34694888
Br       8.70407275       8.62739209       0.01938844       32       0.00133023      -0.07916471       0.56299309
Br       8.46924459       5.76744424       2.96053122       33       0.21448515       0.19185986      -0.16411103
Br       5.83778485       8.81813315       2.88910295       34      -0.15690877      -0.06518584      -0.07273581
Cs       5.84424507       5.81274349       5.72228537       35      -0.05520687      -0.05973224       0.03425782
Sn       8.58726905       8.64505435       8.68797539       36       0.22241573       0.07666009      -0.54071643
Br       8.55030804       8.66180550       5.80319760       37       0.09852119       0.06823993      -0.21081955
Br       8.63977017       5.85577917       8.53453726       38       0.05450347      -0.53716982       0.08643946
Br       5.80732572       8.58170779       8.60840068       39      -0.28788518       0.07917096       0.10871858
40
Lattice="11.53642444426619 0.0 0.0 0.0 11.537571933449923 0.0 0.0 -3.003280743223064e-14 11.53642444426608" Properties=species:S:1:pos:R:3:spacegroup_kinds:I:1:forces:R:3 spacegroup="P 1" unit_cell=conventional candidate_id=8260404ae2edc21a formula=CsGe0.37Sn0.63Br3 config_index=3 rattle_stdev=0.08 method=PBE fidelity=phase2_force energy=-125.63518389083639 stress="-0.002208105662293589 0.0001428546620738248 7.113719457594141e-05 0.0001428546620738248 -0.003357340679323152 -9.052296932195798e-06 7.113719457594141e-05 -9.052296932195798e-06 -0.002089291581631591" pbc="T T T"
Cs      11.35493551      11.61867034       0.07961061        0       0.13888515       0.05840568      -0.05298295
Sn       2.86509242       2.89112280       2.96086949        1      -0.33002530      -0.39259938      -0.88225984
Br       2.82957823       2.92671862      -0.05382672        2       0.04694099      -0.02421008      -0.14501115
Br       2.99650261      -0.00986210       2.77963526        3       0.01641361      -0.28571447       0.01284706
Br      11.46328458       2.75471832       2.78170823        4      -0.10410298       0.09030949       0.08181575
Cs      11.44267526      11.38928522       5.63194757        5       0.03219061       0.06562420       0.04618030
Sn       2.90515977       2.67997754       8.51869566        6       0.00511734       0.54464469       0.65806516
Br       2.82716730       2.68865093       5.65791070        7      -0.03097308      -0.03027932       0.45773383
Br       2.93719592      11.40340686       8.58908556        8      -0.03108786       0.10424422       0.02564940
Br      11.40806804       2.78922979       8.83365355        9       0.48556743       0.02918580      -0.05618688
Cs      11.42247677       5.92076092      -0.06858961       10       0.09478451      -0.16856119      -0.00581537
Sn       2.84480894       8.55721922       2.81968848       11       0.07576421       0.40579982       0.00042909
Br       2.99657160       8.63475370      11.44915896       12      -0.07905250      -0.03497992       0.31491492
Br       2.87109911       5.70636324       3.00523553       13      -0.02529479       0.36198208       0.01487206
Br      11.36342504       8.70586132       2.85657681       14       0.70246214      -0.10447207       0.01257829
Cs      11.39992314       5.86278990       5.63982349       15       0.02655479      -0.06294060       0.06915196
Ge       2.92832175       8.68378761       8.62261510       16       0.03231460      -0.60968254      -0.08856124
Br       3.01035763       8.67052275       5.89530932       17      -0.03830951       0.01822406      -0.21151365
Br       2.94262456       5.85456401       8.60589384       18      -0.02306443       0.01486845      -0.04658866
Br       0.02222260       8.52638976       8.64634102       19      -0.00494558       0.06634212       0.00485490
Cs       5.93992238      11.43609629       0.02366148       20      -0.10388616       0.08148189      -0.00886303
Ge       8.50059541       2.76116906       2.85268025       21       0.32778739       0.29010520      -0.08592931
Br       8.61915987       2.94127841       0.07025908       22      -0.09865710      -0.07010749       0.28995726
Br       8.84410524      11.51636757       2.80303542       23      -0.26898478      -0.13564677       0.07244593
Br       5.75158477       2.95207116       2.92365483       24       0.37777571      -0.09129905       0.02368463
Cs       5.86630873      11.49909738       5.71781611       25      -0.01881827      -0.01320951       0.01207710
Sn       8.67048924       2.85316574       8.59487693       26      -0.15539462      -0.04419450       0.04106732
Br       8.77584723       2.81535737       5.72064897       27      -0.05461906      -0.00764905      -0.20322943
Br       8.65902248       0.14245010       8.55797136       28      -0.02271365      -1.16098464       0.07983348
Br       5.74448079       2.85052184       8.69706528       29      -0.29166279      -0.06390730      -0.07842218
Cs       5.79783809       5.85472759       0.14518186       30      -0.04716024      -0.11278693      -0.10166394
Ge       8.68551105       8.63508017       2.94455356       31      -0.21774934      -0.14860961       0.09547042
Br       8.67032872       8.61799871       0.08551992       32       0.03047781       0.00414638       0.31521220
Br       8.58062847       5.66245185       3.02350484       33       0.09711576       0.15652388      -0.07923577
Br       6.03495184       8.59928093       2.82242417       34      -0.56837504       0.07083344       0.04806852
Cs       5.92845705       5.94068484       5.70205662       35      -0.07077223      -0.05533896       0.08948372
Sn       8.65331781       8.59721723       8.80242226       36       0.07953673       0.01661783      -0.37097345
Br       8.61626566       8.62868021       5.84803800       37       0.03306486       0.03603534      -0.32492695
Br       8.60003105       5.57934831       8.70074649       38       0.00353593       1.18204096      -0.00397964
Br       5.69609701       8.66977813       8.74003050       39      -0.02540859       0.01812419      -0.02145886
