Cs Pb I  Cs Pb I  Cs Pb Cl Br I  Cs Pb I  Br I  Cs Pb I  Br Cs Pb I  Cs Pb I  Cl Br Cs Pb I  Br
 1.0000000000000000
    13.2615048384412226    0.0000000000000000    0.0000000000000000
     0.0000000000000000   13.2615048384412226    0.0000000000000000
     0.0000000000000000    0.0000000000000000   13.2615048384412226
 Cs  Pb  I   Cs  Pb  I   Cs  Pb  Cl  Br  I   Cs  Pb  I   Br  I   Cs  Pb  I   Br  Cs  Pb  I   Cs  Pb  I   Cl  Br  Cs  Pb  I   Br 
   1   1   3   1   1   3   1   1   1   1   1   1   1   1   1   1   1   1   2   1   1   1   3   1   1   1   1   1   1   1   2   1
Cartesian
  0.0000000000000000  0.0000000000000000  0.0000000000000000
  3.3153762096103057  3.3153762096103057  3.3153762096103057
  3.3153762096103057  3.3153762096103057  0.0000000000000000
  3.3153762096103057  0.0000000000000000  3.3153762096103057
  0.0000000000000000  3.3153762096103057  3.3153762096103057
  0.0000000000000000  0.0000000000000000  6.6307524192206104
  3.3153762096103057  3.3153762096103057  9.9461286288309161
  3.3153762096103057  3.3153762096103057  6.6307524192206104
  3.3153762096103057  0.0000000000000000  9.9461286288309161
  0.0000000000000000  3.3153762096103057  9.9461286288309161
  0.0000000000000000  6.6307524192206104  0.0000000000000000
  3.3153762096103057  9.9461286288309161  3.3153762096103057
  3.3153762096103057  9.9461286288309161  0.0000000000000000
  3.3153762096103057  6.6307524192206104  3.3153762096103057
  0.0000000000000000  9.9461286288309161  3.3153762096103057
  0.0000000000000000  6.6307524192206104  6.6307524192206104
  3.3153762096103057  9.9461286288309161  9.9461286288309161
  3.3153762096103057  9.9461286288309161  6.6307524192206104
  3.3153762096103057  6.6307524192206104  9.9461286288309161
  0.0000000000000000  9.9461286288309161  9.9461286288309161
  6.6307524192206104  0.0000000000000000  0.0000000000000000
  9.9461286288309161  3.3153762096103057  3.3153762096103057
  9.9461286288309161  3.3153762096103057  0.0000000000000000
  9.9461286288309161  0.0000000000000000  3.3153762096103057
  6.6307524192206104  3.3153762096103057  3.3153762096103057
  6.6307524192206104  0.0000000000000000  6.6307524192206104
  9.9461286288309161  3.3153762096103057  9.9461286288309161
  9.9461286288309161  3.3153762096103057  6.6307524192206104
  9.9461286288309161  0.0000000000000000  9.9461286288309161
  6.6307524192206104  3.3153762096103057  9.9461286288309161
  6.6307524192206104  6.6307524192206104  0.0000000000000000
  9.9461286288309161  9.9461286288309161  3.3153762096103057
  9.9461286288309161  9.9461286288309161  0.0000000000000000
  9.9461286288309161  6.6307524192206104  3.3153762096103057
  6.6307524192206104  9.9461286288309161  3.3153762096103057
  6.6307524192206104  6.6307524192206104  6.6307524192206104
  9.9461286288309161  9.9461286288309161  9.9461286288309161
  9.9461286288309161  9.9461286288309161  6.6307524192206104
  9.9461286288309161  6.6307524192206104  9.9461286288309161
  6.6307524192206104  9.9461286288309161  9.9461286288309161
