40
Lattice="12.610654158812732 0.0 0.0 0.0 12.610654158812464 0.0 0.0 2.3173201626855152e-14 12.610654158812586" Properties=species:S:1:pos:R:3:spacegroup_kinds:I:1:forces:R:3 spacegroup="P 1" unit_cell=conventional occupancy="_JSON {\"0\": {\"Cs\": 1.0}, \"1\": {\"Sn\": 1.0}, \"2\": {\"I\": 1.0}, \"3\": {\"I\": 1.0}, \"4\": {\"I\": 1.0}, \"5\": {\"Cs\": 1.0}, \"6\": {\"Pb\": 1.0}, \"7\": {\"I\": 1.0}, \"8\": {\"I\": 1.0}, \"9\": {\"I\": 1.0}, \"10\": {\"Cs\": 1.0}, \"11\": {\"Sn\": 1.0}, \"12\": {\"I\": 1.0}, \"13\": {\"I\": 1.0}, \"14\": {\"I\": 1.0}, \"15\": {\"Cs\": 1.0}, \"16\": {\"Sn\": 1.0}, \"17\": {\"I\": 1.0}, \"18\": {\"I\": 1.0}, \"19\": {\"I\": 1.0}, \"20\": {\"Cs\": 1.0}, \"21\": {\"Sn\": 1.0}, \"22\": {\"I\": 1.0}, \"23\": {\"I\": 1.0}, \"24\": {\"I\": 1.0}, \"25\": {\"Cs\": 1.0}, \"26\": {\"Sn\": 1.0}, \"27\": {\"I\": 1.0}, \"28\": {\"I\": 1.0}, \"29\": {\"I\": 1.0}, \"30\": {\"Cs\": 1.0}, \"31\": {\"Sn\": 1.0}, \"32\": {\"I\": 1.0}, \"33\": {\"I\": 1.0}, \"34\": {\"I\": 1.0}, \"35\": {\"Cs\": 1.0}, \"36\": {\"Sn\": 1.0}, \"37\": {\"I\": 1.0}, \"38\": {\"I\": 1.0}, \"39\": {\"I\": 1.0}}" candidate_id=c574df78e8736f96 formula=FAPb0.12Sn0.88I3 config_index=0 rattle_stdev=0.0 method=PBE fidelity=phase2_force energy=-112.4909686677889 stress="0.0008142384601452787 -2.153610752696934e-11 2.153610752696917e-11 -2.153610752696934e-11 0.0008142384601453128 2.15361060307338e-11 2.153610752696917e-11 2.15361060307338e-11 0.0008142384601452976" pbc="T T T"
Cs      12.59274929      12.59274929       0.01790487        0       0.00267353       0.00267353      -0.00267353
Sn       3.15266354       3.15266354       3.15266354        1       0.00019933       0.00019933       0.00020757
I        3.15266354       3.15266354       0.06709654        2      -0.00000219      -0.00000219      -0.19913429
I        3.15266354      12.60360611       3.15266354        3      -0.00000310       0.01444973      -0.00000185
I       12.60360611       3.15266354       3.15266354        4       0.01444973      -0.00000310      -0.00000185
Cs      12.59274929      12.59274929       6.28742221        5       0.00267455       0.00267455       0.00267861
Pb       3.15266354       3.15266354       9.45799062        6       0.00016231       0.00016231      -0.00016231
I        3.15266354       3.15266354       6.23823054        7      -0.00000077      -0.00000077       0.19919831
I        3.15266354      12.54355761       9.45799062        8      -0.00000219       0.19913429       0.00000219
I       12.54355761       3.15266354       9.45799062        9       0.19913429      -0.00000219       0.00000219
Cs      12.59274929       6.32323195       0.01790487       10       0.00267455      -0.00267861      -0.00267455
Sn       3.15266354       9.45799062       3.15266354       11       0.00020381      -0.00020535       0.00020535
I        3.15266354       9.45799062       0.00704805       12      -0.00000310       0.00000185      -0.01444973
I        3.15266354       6.31237513       3.15266354       13      -0.00000145      -0.01445055      -0.00000098
I       12.61003468       9.45799062       3.15266354       14      -0.00814122       0.00000321      -0.00000321
Cs      12.59274929       6.32323195       6.28742221       15       0.00267473      -0.00267999       0.00267999
Sn       3.15266354       9.45799062       9.45799062       16       0.00019933      -0.00020757      -0.00019933
I        3.15266354       9.45799062       6.29827903       17      -0.00000145       0.00000098       0.01445055
I        3.15266354       6.37242362       9.45799062       18      -0.00000077      -0.19919831       0.00000077
I       12.60360611       9.45799062       9.45799062       19       0.01444973       0.00000185       0.00000310
Cs       6.32323195      12.59274929       0.01790487       20      -0.00267861       0.00267455      -0.00267455
Sn       9.45799062       3.15266354       3.15266354       21      -0.00020535       0.00020381       0.00020535
I        9.45799062       3.15266354       0.00704805       22       0.00000185      -0.00000310      -0.01444973
I        9.45799062      12.61003468       3.15266354       23       0.00000321      -0.00814122      -0.00000321
I        6.31237513       3.15266354       3.15266354       24      -0.01445055      -0.00000145      -0.00000098
Cs       6.32323195      12.59274929       6.28742221       25      -0.00267999       0.00267473       0.00267999
Sn       9.45799062       3.15266354       9.45799062       26      -0.00020757       0.00019933      -0.00019933
I        9.45799062       3.15266354       6.29827903       27       0.00000098      -0.00000145       0.01445055
I        9.45799062      12.60360611       9.45799062       28       0.00000185       0.01444973       0.00000310
I        6.37242362       3.15266354       9.45799062       29      -0.19919831      -0.00000077       0.00000077
Cs       6.32323195       6.32323195       0.01790487       30      -0.00267999      -0.00267999      -0.00267473
Sn       9.45799062       9.45799062       3.15266354       31      -0.00020148      -0.00020148       0.00020148
I        9.45799062       9.45799062       0.00061947       32       0.00000321       0.00000321       0.00814122
I        9.45799062       6.30594655       3.15266354       33       0.00000143       0.00814066      -0.00000143
I        6.30594655       9.45799062       3.15266354       34       0.00814066       0.00000143      -0.00000143
Cs       6.32323195       6.32323195       6.28742221       35      -0.00268039      -0.00268039       0.00268039
Sn       9.45799062       9.45799062       9.45799062       36      -0.00020535      -0.00020535      -0.00020381
I        9.45799062       9.45799062       6.30470761       37       0.00000143       0.00000143      -0.00814066
I        9.45799062       6.31237513       9.45799062       38       0.00000098      -0.01445055       0.00000145
I        6.31237513       9.45799062       9.45799062       39      -0.01445055       0.00000098       0.00000145
40
Lattice="12.610654158812732 0.0 0.0 0.0 12.610654158812464 0.0 0.0 2.3173201626855152e-14 12.610654158812586" Properties=species:S:1:pos:R:3:spacegroup_kinds:I:1:forces:R:3 spacegroup="P 1" unit_cell=conventional occupancy="_JSON {\"0\": {\"Cs\": 1.0}, \"1\": {\"Sn\": 1.0}, \"2\": {\"I\": 1.0}, \"3\": {\"I\": 1.0}, \"4\": {\"I\": 1.0}, \"5\": {\"Cs\": 1.0}, \"6\": {\"Pb\": 1.0}, \"7\": {\"I\": 1.0}, \"8\": {\"I\": 1.0}, \"9\": {\"I\": 1.0}, \"10\": {\"Cs\": 1.0}, \"11\": {\"Sn\": 1.0}, \"12\": {\"I\": 1.0}, \"13\": {\"I\": 1.0}, \"14\": {\"I\": 1.0}, \"15\": {\"Cs\": 1.0}, \"16\": {\"Sn\": 1.0}, \"17\": {\"I\": 1.0}, \"18\": {\"I\": 1.0}, \"19\": {\"I\": 1.0}, \"20\": {\"Cs\": 1.0}, \"21\": {\"Sn\": 1.0}, \"22\": {\"I\": 1.0}, \"23\": {\"I\": 1.0}, \"24\": {\"I\": 1.0}, \"25\": {\"Cs\": 1.0}, \"26\": {\"Sn\": 1.0}, \"27\": {\"I\": 1.0}, \"28\": {\"I\": 1.0}, \"29\": {\"I\": 1.0}, \"30\": {\"Cs\": 1.0}, \"31\": {\"Sn\": 1.0}, \"32\": {\"I\": 1.0}, \"33\": {\"I\": 1.0}, \"34\": {\"I\": 1.0}, \"35\": {\"Cs\": 1.0}, \"36\": {\"Sn\": 1.0}, \"37\": {\"I\": 1.0}, \"38\": {\"I\": 1.0}, \"39\": {\"I\": 1.0}}" candidate_id=c574df78e8736f96 formula=FAPb0.12Sn0.88I3 config_index=1 rattle_stdev=0.08 method=PBE fidelity=phase2_force energy=-112.07735844536263 stress="-0.0008870352513181227 1.4237426896367683e-05 -2.555738482625359e-06 1.4237426896367683e-05 -2.365546249922788e-05 -5.699385133633911e-05 -2.555738482625359e-06 -5.699385133633911e-05 -0.001245400997146969" pbc="T T T"
Cs      12.50583358      12.52106408      -0.00659908        0      -0.01944192       0.03059259       0.02412148
Sn       3.04546885       3.05613669       3.10132539        1       0.21693227       0.22590809       0.27047260
I        3.25729919       3.30030037       0.13342574        2      -0.06292891      -0.04274174      -0.27050004
I        3.15079963      12.58692099       3.07933396        3       0.00115637       0.04821485      -0.00557867
I       12.51762670       3.14577206       3.24673062        4       0.44842622      -0.00199082       0.00074715
Cs      12.46194195      12.69100481       6.37353311        5       0.04192401       0.03513579      -0.03687340
Pb       3.18424537       3.12164747       9.50506276        6       0.09976711      -0.01675841      -0.16169339
I        3.03799963       3.12677757       6.33846931        7       0.03699145       0.02276109       0.01216760
I        3.09420413      12.65783642       9.53356293        8      -0.01854737      -0.26490370       0.00864286
I       12.52243739       3.13960648       9.38086204        9       0.31670094       0.00783626       0.02485028
Cs      12.56533751       6.32714427      -0.02206569       10      -0.00946297      -0.02488080       0.01634441
Sn       2.97571118       9.48277757       3.02549144       11       0.59717941      -0.24499406      -0.11968286
I        3.21101991       9.44935852      -0.04496567       12      -0.05509672       0.02006286       0.04289973
I        3.01721902       6.28289720       3.02543380       13       0.00222768       0.03274070       0.07419536
I       12.72847515       9.49594584       3.22577264       14      -0.65812601       0.01153527       0.02292337
Cs      12.66958691       6.32999535       6.42480069       15       0.02106144      -0.04036346      -0.02329566
Sn       3.22081496       9.39759979       9.27498027       16       0.25709711       0.12636723       0.19287855
I        3.16140264       9.42197797       6.26524124       17       0.00361158      -0.01366657      -0.00289233
I        3.17818224       6.32913499       9.53388394       18      -0.02210640       0.15421989      -0.04110344
I       12.61572091       9.46414281       9.45323859       19       0.24200140       0.01821812      -0.01501115
Cs       6.31762085      12.54745737       0.04278530       20       0.01776993       0.01842332       0.01896284
Sn       9.51592732       3.19397954       3.23474599       21      -0.37441451      -0.22221984      -0.46726747
I        9.49960283       3.08307646       0.12709326       22       0.04540000       0.02866678      -0.32903312
I        9.55130839      12.64938784       3.09408256       23      -0.01511195      -0.10397406       0.10632921
I        6.36679962       3.19338329       3.08566064       24      -0.28024539      -0.01596843       0.06437368
Cs       6.37504353      12.59375245       6.41218934       25      -0.03309638       0.01440124      -0.02513147
Sn       9.54075825       3.17967895       9.35378179       26      -0.22752121       0.24890030       0.25324476
I        9.36850708       3.25742475       6.25682167       27      -0.00393642      -0.03596979       0.40763145
I        9.42654068      12.68704359       9.46396784       28       0.04355596      -0.14987295      -0.04589734
I        6.37957859       3.15697613       9.49146638       29      -0.21567731       0.00205934      -0.00152603
Cs       6.22501354       6.23606862       0.04327482       30       0.01806779      -0.00546238       0.02289772
Sn       9.39555818       9.38950014       3.04707383       31      -0.20624594       0.19307706       0.04539862
I        9.49429315       9.53813261       0.11371825       32      -0.00084525      -0.02301519      -0.13265130
I        9.44277599       6.30835540       3.00279020       33       0.03143682       0.12496088       0.02277902
I        6.29660440       9.44779139       3.22483828       34       0.29674666      -0.00579242      -0.01118833
Cs       6.21808217       6.31526789       6.29866620       35      -0.00817297      -0.01899937      -0.01404379
Sn       9.66829509       9.59845293       9.24713879       36      -0.43487658      -0.24016510       0.70320583
I        9.35505906       9.44425284       6.44874390       37       0.05373828       0.03755573      -0.69964562
I        9.50668627       6.31489717       9.34067764       38       0.01999432       0.08504943       0.05573473
I        6.33713039       9.54936805       9.41712309       39      -0.16761239      -0.01622779       0.01624397
40
Lattice="12.610654158812732 0.0 0.0 0.0 12.610654158812464 0.0 0.0 2.3173201626855152e-14 12.610654158812586" Properties=species:S:1:pos:R:3:spacegroup_kinds:I:1:forces:R:3 spacegroup="P 1" unit_cell=conventional occupancy="_JSON {\"0\": {\"Cs\": 1.0}, \"1\": {\"Sn\": 1.0}, \"2\": {\"I\": 1.0}, \"3\": {\"I\": 1.0}, \"4\": {\"I\": 1.0}, \"5\": {\"Cs\": 1.0}, \"6\": {\"Pb\": 1.0}, \"7\": {\"I\": 1.0}, \"8\": {\"I\": 1.0}, \"9\": {\"I\": 1.0}, \"10\": {\"Cs\": 1.0}, \"11\": {\"Sn\": 1.0}, \"12\": {\"I\": 1.0}, \"13\": {\"I\": 1.0}, \"14\": {\"I\": 1.0}, \"15\": {\"Cs\": 1.0}, \"16\": {\"Sn\": 1.0}, \"17\": {\"I\": 1.0}, \"18\": {\"I\": 1.0}, \"19\": {\"I\": 1.0}, \"20\": {\"Cs\": 1.0}, \"21\": {\"Sn\": 1.0}, \"22\": {\"I\": 1.0}, \"23\": {\"I\": 1.0}, \"24\": {\"I\": 1.0}, \"25\": {\"Cs\": 1.0}, \"26\": {\"Sn\": 1.0}, \"27\": {\"I\": 1.0}, \"28\": {\"I\": 1.0}, \"29\": {\"I\": 1.0}, \"30\": {\"Cs\": 1.0}, \"31\": {\"Sn\": 1.0}, \"32\": {\"I\": 1.0}, \"33\": {\"I\": 1.0}, \"34\": {\"I\": 1.0}, \"35\": {\"Cs\": 1.0}, \"36\": {\"Sn\": 1.0}, \"37\": {\"I\": 1.0}, \"38\": {\"I\": 1.0}, \"39\": {\"I\": 1.0}}" candidate_id=c574df78e8736f96 formula=FAPb0.12Sn0.88I3 config_index=2 rattle_stdev=0.08 method=PBE fidelity=phase2_force energy=-112.05159605767179 stress="-0.00023351861166465748 4.1073062797879064e-05 1.3325855534161688e-05 4.1073062797879064e-05 -0.0006112578578233216 -1.2574989412894107e-06 1.3325855534161688e-05 -1.2574989412894107e-06 -3.189418768404302e-05" pbc="T T T"
Cs      12.58373225      12.50662417       0.16070702        0       0.02148715      -0.00378381      -0.05533157
Sn       3.03610488       3.12655788       3.05187182        1       0.51316724       0.23128509       0.18471279
I        3.18273286       3.08241175       0.03909848        2      -0.03780483       0.04122865      -0.24047756
I        3.17639636      12.69967906       3.02714392        3      -0.02245739      -0.48747556       0.04555886
I       12.75192841       3.19218048       3.14220663        4      -0.70370631       0.00921558      -0.03547615
Cs      12.56049963      12.51485631       6.25002487        5      -0.01155782      -0.00863557       0.04865449
Pb       3.09522982       3.25037500       9.39581462        6       0.31597288       0.00847262      -0.04978306
I        3.10558149       3.14805403       6.24459693        7       0.01799336      -0.09001043       0.12458096
I        3.05800745      12.41965822       9.53097111        8      -0.00295406       0.71806233       0.00029990
I       12.57657127       3.09700202       9.27488887        9       0.09081300       0.00935790       0.03371775
Cs      12.52976997       6.24095061       0.02536951       10       0.02250232       0.01926025      -0.02057067
Sn       3.11032801       9.52041021       3.13659836       11       0.20874109      -0.17711593       0.04765432
I        3.11421485       9.37516965      -0.03317070       12       0.01378134      -0.02936255       0.31846608
I        3.21585476       6.23837532       3.32946637       13      -0.03533967       0.39555287      -0.08242608
I       12.49801579       9.43886283       3.17005079       14       0.45079794      -0.00827980       0.01791044
Cs      12.56455847       6.33010199       6.29595437       15       0.00078294       0.00826388       0.01601415
Sn       3.13690104       9.56574533       9.48560454       16      -0.09782411      -0.51564581      -0.10122267
I        3.19727509       9.41036781       6.35690561       17      -0.02542747       0.07569955      -0.27303561
I        3.25916375       6.31402099       9.41913016       18      -0.01866124      -0.20049618       0.03234452
I       12.68975925       9.25036203       9.47134487       19      -0.03320988       0.02794049      -0.00958266
Cs       6.40634872      12.44806338       0.07859614       20      -0.02413924       0.03961688      -0.02540435
Sn       9.41798159       2.96512009       3.14403012       21      -0.25166451       0.31247632       0.15407962
I        9.33776761       3.19176583      -0.03720623       22       0.08570218       0.02177378       0.09438253
I        9.54259122      12.54048926       3.14665625       23      -0.00008281       0.13458306      -0.00705735
I        6.30380273       3.32056930       3.12542050       24       0.34107131      -0.15070490      -0.00883965
Cs       6.28099954      12.48917995       6.30455014       25       0.01846151       0.01297253       0.01744916
Sn       9.54809219       3.18478641       9.51923744       26      -0.39457957      -0.05509080      -0.16875667
I        9.34974042       3.19857222       6.28066806       27       0.05447420      -0.08270943      -0.09029636
I        9.50960574      12.52322857       9.60996970       28       0.02288294       0.38916474      -0.00349157
I        6.38977249       3.19266117       9.40786333       29      -0.11241582      -0.05744132       0.00690421
Cs       6.24300121       6.26072713       0.03424708       30      -0.01761770      -0.03506514       0.00323697
Sn       9.50087798       9.37199082       2.97523516       31      -0.33157607      -0.22678803       0.41612611
I        9.50974504       9.43220376      -0.01318566       32       0.00564036      -0.03705597       0.08969464
I        9.27491687       6.29698305       3.22908864       33       0.10379723       0.01601026      -0.06887680
I        6.34232561       9.62294482       3.15766038       34      -0.31827644       0.01160744      -0.04358001
Cs       6.32345934       6.28694764       6.31730081       35       0.00068397      -0.01818280      -0.00432109
Sn       9.39294134       9.44986602       9.49364768       36       0.14897177       0.07154038      -0.43046967
I        9.35598033       9.46661716       6.37288656       37       0.06465465       0.06641503      -0.08054777
I        9.44544245       6.40748067       9.34020955       38       0.05072563      -0.48649955       0.06462140
I        6.38165840       9.38651946       9.41407297       39      -0.11863932       0.05176997       0.08081213
40
Lattice="12.610654158812732 0.0 0.0 0.0 12.610654158812464 0.0 0.0 2.3173201626855152e-14 12.610654158812586" Properties=species:S:1:pos:R:3:spacegroup_kinds:I:1:forces:R:3 spacegroup="P 1" unit_cell=conventional occupancy="_JSON {\"0\": {\"Cs\": 1.0}, \"1\": {\"Sn\": 1.0}, \"2\": {\"I\": 1.0}, \"3\": {\"I\": 1.0}, \"4\": {\"I\": 1.0}, \"5\": {\"Cs\": 1.0}, \"6\": {\"Pb\": 1.0}, \"7\": {\"I\": 1.0}, \"8\": {\"I\": 1.0}, \"9\": {\"I\": 1.0}, \"10\": {\"Cs\": 1.0}, \"11\": {\"Sn\": 1.0}, \"12\": {\"I\": 1.0}, \"13\": {\"I\": 1.0}, \"14\": {\"I\": 1.0}, \"15\": {\"Cs\": 1.0}, \"16\": {\"Sn\": 1.0}, \"17\": {\"I\": 1.0}, \"18\": {\"I\": 1.0}, \"19\": {\"I\": 1.0}, \"20\": {\"Cs\": 1.0}, \"21\": {\"Sn\": 1.0}, \"22\": {\"I\": 1.0}, \"23\": {\"I\": 1.0}, \"24\": {\"I\": 1.0}, \"25\": {\"Cs\": 1.0}, \"26\": {\"Sn\": 1.0}, \"27\": {\"I\": 1.0}, \"28\": {\"I\": 1.0}, \"29\": {\"I\": 1.0}, \"30\": {\"Cs\": 1.0}, \"31\": {\"Sn\": 1.0}, \"32\": {\"I\": 1.0}, \"33\": {\"I\": 1.0}, \"34\": {\"I\": 1.0}, \"35\": {\"Cs\": 1.0}, \"36\": {\"Sn\": 1.0}, \"37\": {\"I\": 1.0}, \"38\": {\"I\": 1.0}, \"39\": {\"I\": 1.0}}" candidate_id=c574df78e8736f96 formula=FAPb0.12Sn0.88I3 config_index=3 rattle_stdev=0.08 method=PBE fidelity=phase2_force energy=-111.80564684910964 stress="-0.0005293932363212978 7.774679604910067e-05 1.992473948230557e-05 7.774679604910067e-05 -0.0006286979528625402 5.3809447129618994e-05 1.992473948230557e-05 5.3809447129618994e-05 3.502018533439641e-06" pbc="T T T"
Cs      12.48706581      12.75408952       0.02171002        0       0.03543855       0.03946963       0.02219621
Sn       3.13364985       3.15939335       3.22942692        1      -0.24426144      -0.24954344      -0.72532976
I        3.09813566       3.19498917       0.00510309        2       0.02466385      -0.00504810      -0.24586250
I        3.26506004      12.58563167       3.04819268        3       0.01202571      -0.13383767       0.00808286
I       12.54932329       3.02298888       3.05026566        4       0.15486924       0.05653791       0.04546698
Cs      12.57480556      12.52470441       6.22696301        5      -0.02376748       0.00988873      -0.01769867
Pb       3.17371720       2.94824810       9.32436795        6       0.04498261       0.37367406       0.42547139
I        3.09572472       2.95692149       6.13609575        7      -0.03506695      -0.02842930       0.61654392
I        3.20575334      12.44125090       9.39475784        8      -0.03306549       0.72574344       0.01348681
I       12.42336795       3.05750034       9.63932583        9       0.61493718       0.03009650      -0.01836527
Cs      12.55460707       6.39496507      -0.12649019       10       0.02397167      -0.06749381      -0.00785321
Sn       3.11336637       9.36203089       3.08824591       11       0.01537595       0.27447807      -0.01444298
I        3.26512903       9.43956537      -0.05004767       12      -0.04511614      -0.04158359       0.43522009
I        3.13965654       6.25806474       3.27379296       13      -0.01893994       0.17155734       0.00899204
I       12.47022886       9.51067299       3.12513424       14       0.95281776      -0.06473052       0.01345598
Cs      12.53205344       6.33699405       6.23483893       15      -0.02653784      -0.00067281       0.00982718
Sn       3.19687918       9.48859928       9.42828739       16      -0.09479716      -0.61864478       0.00449869
I        3.27891506       9.47533442       6.39520636       17      -0.01308123       0.01281064      -0.42520914
I        3.21118199       6.42634331       9.41156613       18      -0.01725329      -0.45343532      -0.03191349
I       12.59565894       9.33120143       9.45201331       19      -0.12200061       0.02625301       0.01124215
Cs       6.41913665      12.57151548      -0.03423910       20      -0.03542025       0.01861377       0.00697457
Sn       9.30626769       3.02943962       3.12123768       21       0.32760613       0.26896654      -0.00454477
I        9.42483215       3.20954896       0.05845008       22      -0.06103225      -0.03642706      -0.11835727
I        9.64977752      12.59645210       3.07159284       23      -0.11171049      -0.22812315       0.01990308
I        6.27689063       3.22034172       3.19221226       24      -0.11730895      -0.04498728       0.02209857
Cs       6.34552301      12.63451657       6.31283155       25       0.01275264      -0.03238756       0.00008173
Sn       9.47616153       3.12143630       9.40054921       26      -0.17041020      -0.05414400      -0.02035261
I        9.58151951       3.08362793       6.26957282       27      -0.01597999      -0.00287699       0.14863387
I        9.46469477      12.73794387       9.36364364       28      -0.02787007      -0.73571448       0.06756564
I        6.34052545       3.11879239       9.50273757       29      -0.40017217      -0.03718927      -0.05345391
Cs       6.27705237       6.32893174       0.08728127       30      -0.01170789      -0.03225425      -0.03362576
Sn       9.49118334       9.43989184       3.21311099       31      -0.15410452      -0.18325341       0.16493561
I        9.47600101       9.42281038       0.05294582       32       0.02353146      -0.00286857       0.01798395
I        9.38630076       6.19199066       3.29206227       33       0.06903690       0.21378538      -0.01038745
I        6.53949260       9.40409260       3.09098160       34      -0.82810210       0.02999792       0.01140425
Cs       6.40767133       6.41488899       6.29707206       35       0.00941498       0.01824138       0.02143975
Sn       9.45899009       9.40202890       9.60809455       36       0.07011489      -0.00590410      -0.25476964
I        9.42193795       9.43349188       6.41772695       37       0.00960525       0.01257758      -0.11272938
I        9.40570334       6.13104980       9.50641878       38      -0.00075273       0.76246970      -0.00347086
I        6.27042969       9.47458980       9.54570279       39       0.20443831       0.01057273       0.00176025
