Cs Sn I  Cs Sn I  Cs Sn Cl I  Cs Sn I  Cl I  Cs Sn I  Cl Cs Sn I  Cs Sn I  Cl Cs Sn I  Cl
 1.0000000000000000
    13.0895364692566538    0.0000000000000000    0.0000000000000000
     0.0000000000000000   13.0895364692566538    0.0000000000000000
     0.0000000000000000    0.0000000000000000   13.0895364692566538
 Cs  Sn  I   Cs  Sn  I   Cs  Sn  Cl  I   Cs  Sn  I   Cl  I   Cs  Sn  I   Cl  Cs  Sn  I   Cs  Sn  I   Cl  Cs  Sn  I   Cl 
   1   1   3   1   1   3   1   1   2   1   1   1   1   1   1   1   1   2   1   1   1   3   1   1   1   2   1   1   2   1
Cartesian
  0.0000000000000000  0.0000000000000000  0.0000000000000000
  3.2723841173141635  3.2723841173141635  3.2723841173141635
  3.2723841173141635  3.2723841173141635  0.0000000000000000
  3.2723841173141635  0.0000000000000000  3.2723841173141635
  0.0000000000000000  3.2723841173141635  3.2723841173141635
  0.0000000000000000  0.0000000000000000  6.5447682346283260
  3.2723841173141635  3.2723841173141635  9.8171523519424895
  3.2723841173141635  3.2723841173141635  6.5447682346283260
  3.2723841173141635  0.0000000000000000  9.8171523519424895
  0.0000000000000000  3.2723841173141635  9.8171523519424895
  0.0000000000000000  6.5447682346283260  0.0000000000000000
  3.2723841173141635  9.8171523519424895  3.2723841173141635
  3.2723841173141635  9.8171523519424895  0.0000000000000000
  3.2723841173141635  6.5447682346283260  3.2723841173141635
  0.0000000000000000  9.8171523519424895  3.2723841173141635
  0.0000000000000000  6.5447682346283260  6.5447682346283260
  3.2723841173141635  9.8171523519424895  9.8171523519424895
  3.2723841173141635  9.8171523519424895  6.5447682346283260
  3.2723841173141635  6.5447682346283260  9.8171523519424895
  0.0000000000000000  9.8171523519424895  9.8171523519424895
  6.5447682346283260  0.0000000000000000  0.0000000000000000
  9.8171523519424895  3.2723841173141635  3.2723841173141635
  9.8171523519424895  3.2723841173141635  0.0000000000000000
  9.8171523519424895  0.0000000000000000  3.2723841173141635
  6.5447682346283260  3.2723841173141635  3.2723841173141635
  6.5447682346283260  0.0000000000000000  6.5447682346283260
  9.8171523519424895  3.2723841173141635  9.8171523519424895
  9.8171523519424895  3.2723841173141635  6.5447682346283260
  9.8171523519424895  0.0000000000000000  9.8171523519424895
  6.5447682346283260  3.2723841173141635  9.8171523519424895
  6.5447682346283260  6.5447682346283260  0.0000000000000000
  9.8171523519424895  9.8171523519424895  3.2723841173141635
  9.8171523519424895  9.8171523519424895  0.0000000000000000
  9.8171523519424895  6.5447682346283260  3.2723841173141635
  6.5447682346283260  9.8171523519424895  3.2723841173141635
  6.5447682346283260  6.5447682346283260  6.5447682346283260
  9.8171523519424895  9.8171523519424895  9.8171523519424895
  9.8171523519424895  9.8171523519424895  6.5447682346283260
  9.8171523519424895  6.5447682346283260  9.8171523519424895
  6.5447682346283260  9.8171523519424895  9.8171523519424895
