Cs Pb I  Cs Pb I  Cs Pb Cl I  Cs Pb I  Cl I  Cs Pb I  Cl Cs Pb I  Cs Pb I  Cl I  Cs Pb I 
 1.0000000000000000
    13.2876677893451252    0.0000000000000000    0.0000000000000000
     0.0000000000000000   13.2876677893451252    0.0000000000000000
     0.0000000000000000    0.0000000000000000   13.2876677893451252
 Cs  Pb  I   Cs  Pb  I   Cs  Pb  Cl  I   Cs  Pb  I   Cl  I   Cs  Pb  I   Cl  Cs  Pb  I   Cs  Pb  I   Cl  I   Cs  Pb  I  
   1   1   3   1   1   3   1   1   1   2   1   1   1   1   1   1   1   2   1   1   1   3   1   1   1   1   1   1   1   3
Cartesian
  0.0000000000000000  0.0000000000000000  0.0000000000000000
  3.3219169473362813  3.3219169473362813  3.3219169473362813
  3.3219169473362813  3.3219169473362813  0.0000000000000000
  3.3219169473362813  0.0000000000000000  3.3219169473362813
  0.0000000000000000  3.3219169473362813  3.3219169473362813
  0.0000000000000000  0.0000000000000000  6.6438338946725617
  3.3219169473362813  3.3219169473362813  9.9657508420088448
  3.3219169473362813  3.3219169473362813  6.6438338946725617
  3.3219169473362813  0.0000000000000000  9.9657508420088448
  0.0000000000000000  3.3219169473362813  9.9657508420088448
  0.0000000000000000  6.6438338946725617  0.0000000000000000
  3.3219169473362813  9.9657508420088448  3.3219169473362813
  3.3219169473362813  9.9657508420088448  0.0000000000000000
  3.3219169473362813  6.6438338946725617  3.3219169473362813
  0.0000000000000000  9.9657508420088448  3.3219169473362813
  0.0000000000000000  6.6438338946725617  6.6438338946725617
  3.3219169473362813  9.9657508420088448  9.9657508420088448
  3.3219169473362813  9.9657508420088448  6.6438338946725617
  3.3219169473362813  6.6438338946725617  9.9657508420088448
  0.0000000000000000  9.9657508420088448  9.9657508420088448
  6.6438338946725617  0.0000000000000000  0.0000000000000000
  9.9657508420088448  3.3219169473362813  3.3219169473362813
  9.9657508420088448  3.3219169473362813  0.0000000000000000
  9.9657508420088448  0.0000000000000000  3.3219169473362813
  6.6438338946725617  3.3219169473362813  3.3219169473362813
  6.6438338946725617  0.0000000000000000  6.6438338946725617
  9.9657508420088448  3.3219169473362813  9.9657508420088448
  9.9657508420088448  3.3219169473362813  6.6438338946725617
  9.9657508420088448  0.0000000000000000  9.9657508420088448
  6.6438338946725617  3.3219169473362813  9.9657508420088448
  6.6438338946725617  6.6438338946725617  0.0000000000000000
  9.9657508420088448  9.9657508420088448  3.3219169473362813
  9.9657508420088448  9.9657508420088448  0.0000000000000000
  9.9657508420088448  6.6438338946725617  3.3219169473362813
  6.6438338946725617  9.9657508420088448  3.3219169473362813
  6.6438338946725617  6.6438338946725617  6.6438338946725617
  9.9657508420088448  9.9657508420088448  9.9657508420088448
  9.9657508420088448  9.9657508420088448  6.6438338946725617
  9.9657508420088448  6.6438338946725617  9.9657508420088448
  6.6438338946725617  9.9657508420088448  9.9657508420088448
