Cs Pb I  Cs Pb I  Cs Pb I  Cs Sn I  Cs Pb I  Cs Pb I  Cs Sn I  Cs Pb I 
 1.0000000000000000
    13.5522671468651321    0.0000000000000000    0.0000000000000000
     0.0000000000000000   13.5522671468651321    0.0000000000000000
     0.0000000000000000    0.0000000000000000   13.5522671468651321
 Cs  Pb  I   Cs  Pb  I   Cs  Pb  I   Cs  Sn  I   Cs  Pb  I   Cs  Pb  I   Cs  Sn  I   Cs  Pb  I  
   1   1   3   1   1   3   1   1   3   1   1   3   1   1   3   1   1   3   1   1   3   1   1   3
Cartesian
  0.0000000000000000  0.0000000000000000  0.0000000000000000
  3.3880667867162830  3.3880667867162830  3.3880667867162830
  3.3880667867162830  3.3880667867162830  0.0000000000000000
  3.3880667867162830  0.0000000000000000  3.3880667867162830
  0.0000000000000000  3.3880667867162830  3.3880667867162830
  0.0000000000000000  0.0000000000000000  6.7761335734325652
  3.3880667867162830  3.3880667867162830 10.1642003601488486
  3.3880667867162830  3.3880667867162830  6.7761335734325652
  3.3880667867162830  0.0000000000000000 10.1642003601488486
  0.0000000000000000  3.3880667867162830 10.1642003601488486
  0.0000000000000000  6.7761335734325652  0.0000000000000000
  3.3880667867162830 10.1642003601488486  3.3880667867162830
  3.3880667867162830 10.1642003601488486  0.0000000000000000
  3.3880667867162830  6.7761335734325652  3.3880667867162830
  0.0000000000000000 10.1642003601488486  3.3880667867162830
  0.0000000000000000  6.7761335734325652  6.7761335734325652
  3.3880667867162830 10.1642003601488486 10.1642003601488486
  3.3880667867162830 10.1642003601488486  6.7761335734325652
  3.3880667867162830  6.7761335734325652 10.1642003601488486
  0.0000000000000000 10.1642003601488486 10.1642003601488486
  6.7761335734325652  0.0000000000000000  0.0000000000000000
 10.1642003601488486  3.3880667867162830  3.3880667867162830
 10.1642003601488486  3.3880667867162830  0.0000000000000000
 10.1642003601488486  0.0000000000000000  3.3880667867162830
  6.7761335734325652  3.3880667867162830  3.3880667867162830
  6.7761335734325652  0.0000000000000000  6.7761335734325652
 10.1642003601488486  3.3880667867162830 10.1642003601488486
 10.1642003601488486  3.3880667867162830  6.7761335734325652
 10.1642003601488486  0.0000000000000000 10.1642003601488486
  6.7761335734325652  3.3880667867162830 10.1642003601488486
  6.7761335734325652  6.7761335734325652  0.0000000000000000
 10.1642003601488486 10.1642003601488486  3.3880667867162830
 10.1642003601488486 10.1642003601488486  0.0000000000000000
 10.1642003601488486  6.7761335734325652  3.3880667867162830
  6.7761335734325652 10.1642003601488486  3.3880667867162830
  6.7761335734325652  6.7761335734325652  6.7761335734325652
 10.1642003601488486 10.1642003601488486 10.1642003601488486
 10.1642003601488486 10.1642003601488486  6.7761335734325652
 10.1642003601488486  6.7761335734325652 10.1642003601488486
  6.7761335734325652 10.1642003601488486 10.1642003601488486
