40
Lattice="11.204250359565894 0.0 0.0 0.0 11.204812714458514 0.0 0.0 -4.160727439072163e-14 11.204250359565865" Properties=species:S:1:pos:R:3:spacegroup_kinds:I:1:forces:R:3 spacegroup="P 1" unit_cell=conventional occupancy="_JSON {\"0\": {\"Cs\": 1.0}, \"1\": {\"Sn\": 1.0}, \"2\": {\"Cl\": 1.0}, \"3\": {\"Cl\": 1.0}, \"4\": {\"Cl\": 1.0}, \"5\": {\"Cs\": 1.0}, \"6\": {\"Sn\": 1.0}, \"7\": {\"Cl\": 1.0}, \"8\": {\"Cl\": 1.0}, \"9\": {\"Cl\": 1.0}, \"10\": {\"Cs\": 1.0}, \"11\": {\"Sn\": 1.0}, \"12\": {\"Cl\": 1.0}, \"13\": {\"Cl\": 1.0}, \"14\": {\"Cl\": 1.0}, \"15\": {\"K\": 1.0}, \"16\": {\"Sn\": 1.0}, \"17\": {\"Cl\": 1.0}, \"18\": {\"Cl\": 1.0}, \"19\": {\"Cl\": 1.0}, \"20\": {\"Cs\": 1.0}, \"21\": {\"Sn\": 1.0}, \"22\": {\"Cl\": 1.0}, \"23\": {\"Cl\": 1.0}, \"24\": {\"Cl\": 1.0}, \"25\": {\"Cs\": 1.0}, \"26\": {\"Sn\": 1.0}, \"27\": {\"Cl\": 1.0}, \"28\": {\"Cl\": 1.0}, \"29\": {\"Cl\": 1.0}, \"30\": {\"K\": 1.0}, \"31\": {\"Sn\": 1.0}, \"32\": {\"Cl\": 1.0}, \"33\": {\"Cl\": 1.0}, \"34\": {\"Cl\": 1.0}, \"35\": {\"Cs\": 1.0}, \"36\": {\"Sn\": 1.0}, \"37\": {\"Cl\": 1.0}, \"38\": {\"Cl\": 1.0}, \"39\": {\"Cl\": 1.0}}" candidate_id=665648902b377d00 formula=FA0.75K0.25SnCl3 config_index=0 rattle_stdev=0.0 method=PBE fidelity=phase2_force energy=-139.5262721966544 stress="0.0012264270469668893 0.0 0.0 0.0 0.0012144306899511176 4.509819874041785e-18 0.0 4.509819874041785e-18 0.0012264270469668959" pbc="T T T"
Cs       0.00000000       0.00000000       0.00000000        0       0.00000000       0.00000000       0.00000000
Sn       2.80106259       2.81815549       2.80106259        1       0.00000000       0.03032745       0.00000000
Cl       2.82684822       2.87322336      11.20425036        2      -0.01101701      -0.00512460       0.00000000
Cl       2.80106259      11.20481271       2.80106259        3       0.00000000      -0.00000000       0.00000000
Cl      11.20425036       2.87322336       2.82684822        4      -0.00000000      -0.00512460      -0.01101701
Cs       0.00000000      -0.00000000       5.60212518        5       0.00000000       0.00000000       0.00000000
Sn       2.80106259       2.81815549       8.40318777        6       0.00000000       0.03032745      -0.00000000
Cl       2.77527696       2.87322336       5.60212518        7       0.01101701      -0.00512460       0.00000000
Cl       2.80106259      11.20481271       8.40318777        8       0.00000000       0.00000000      -0.00000000
Cl      11.20425036       2.87322336       8.37740214        9       0.00000000      -0.00512460       0.01101701
Cs       0.00000000       5.60240636       0.00000000       10       0.00000000       0.00000000       0.00000000
Sn       2.80106259       8.38665722       2.80106259       11       0.00000000      -0.03032745       0.00000000
Cl       2.82684822       8.33158935      11.20425036       12      -0.01101701       0.00512460       0.00000000
Cl       2.80106259       5.60240636       2.80106259       13      -0.00000000       0.00000000      -0.00000000
Cl      11.20425036       8.33158935       2.82684822       14       0.00000000       0.00512460      -0.01101701
K       11.20425036       5.60240636       5.60212518       15       0.00000000       0.00000000       0.00000000
Sn       2.80106259       8.38665722       8.40318777       16       0.00000000      -0.03032745      -0.00000000
Cl       2.77527696       8.33158935       5.60212518       17       0.01101701       0.00512460       0.00000000
Cl       2.80106259       5.60240636       8.40318777       18      -0.00000000      -0.00000000       0.00000000
Cl      11.20425036       8.33158935       8.37740214       19      -0.00000000       0.00512460       0.01101701
Cs       5.60212518       0.00000000       0.00000000       20       0.00000000       0.00000000       0.00000000
Sn       8.40318777       2.81815549       2.80106259       21      -0.00000000       0.03032745       0.00000000
Cl       8.37740214       2.87322336      11.20425036       22       0.01101701      -0.00512460       0.00000000
Cl       8.40318777      11.20481271       2.80106259       23      -0.00000000      -0.00000000       0.00000000
Cl       5.60212518       2.87322336       2.77527696       24       0.00000000      -0.00512460       0.01101701
Cs       5.60212518      -0.00000000       5.60212518       25       0.00000000       0.00000000       0.00000000
Sn       8.40318777       2.81815549       8.40318777       26      -0.00000000       0.03032745      -0.00000000
Cl       8.42897340       2.87322336       5.60212518       27      -0.01101701      -0.00512460       0.00000000
Cl       8.40318777      11.20481271       8.40318777       28      -0.00000000       0.00000000      -0.00000000
Cl       5.60212518       2.87322336       8.42897340       29       0.00000000      -0.00512460      -0.01101701
K        5.60212518       5.60240636      11.20425036       30       0.00000000       0.00000000       0.00000000
Sn       8.40318777       8.38665722       2.80106259       31      -0.00000000      -0.03032745       0.00000000
Cl       8.37740214       8.33158935      11.20425036       32       0.01101701       0.00512460       0.00000000
Cl       8.40318777       5.60240636       2.80106259       33       0.00000000       0.00000000      -0.00000000
Cl       5.60212518       8.33158935       2.77527696       34       0.00000000       0.00512460       0.01101701
Cs       5.60212518       5.60240636       5.60212518       35       0.00000000       0.00000000       0.00000000
Sn       8.40318777       8.38665722       8.40318777       36      -0.00000000      -0.03032745      -0.00000000
Cl       8.42897340       8.33158935       5.60212518       37      -0.01101701       0.00512460       0.00000000
Cl       8.40318777       5.60240636       8.40318777       38       0.00000000      -0.00000000       0.00000000
Cl       5.60212518       8.33158935       8.42897340       39       0.00000000       0.00512460      -0.01101701
40
Lattice="11.204250359565894 0.0 0.0 0.0 11.204812714458514 0.0 0.0 -4.160727439072163e-14 11.204250359565865" Properties=species:S:1:pos:R:3:spacegroup_kinds:I:1:forces:R:3 spacegroup="P 1" unit_cell=conventional occupancy="_JSON {\"0\": {\"Cs\": 1.0}, \"1\": {\"Sn\": 1.0}, \"2\": {\"Cl\": 1.0}, \"3\": {\"Cl\": 1.0}, \"4\": {\"Cl\": 1.0}, \"5\": {\"Cs\": 1.0}, \"6\": {\"Sn\": 1.0}, \"7\": {\"Cl\": 1.0}, \"8\": {\"Cl\": 1.0}, \"9\": {\"Cl\": 1.0}, \"10\": {\"Cs\": 1.0}, \"11\": {\"Sn\": 1.0}, \"12\": {\"Cl\": 1.0}, \"13\": {\"Cl\": 1.0}, \"14\": {\"Cl\": 1.0}, \"15\": {\"K\": 1.0}, \"16\": {\"Sn\": 1.0}, \"17\": {\"Cl\": 1.0}, \"18\": {\"Cl\": 1.0}, \"19\": {\"Cl\": 1.0}, \"20\": {\"Cs\": 1.0}, \"21\": {\"Sn\": 1.0}, \"22\": {\"Cl\": 1.0}, \"23\": {\"Cl\": 1.0}, \"24\": {\"Cl\": 1.0}, \"25\": {\"Cs\": 1.0}, \"26\": {\"Sn\": 1.0}, \"27\": {\"Cl\": 1.0}, \"28\": {\"Cl\": 1.0}, \"29\": {\"Cl\": 1.0}, \"30\": {\"K\": 1.0}, \"31\": {\"Sn\": 1.0}, \"32\": {\"Cl\": 1.0}, \"33\": {\"Cl\": 1.0}, \"34\": {\"Cl\": 1.0}, \"35\": {\"Cs\": 1.0}, \"36\": {\"Sn\": 1.0}, \"37\": {\"Cl\": 1.0}, \"38\": {\"Cl\": 1.0}, \"39\": {\"Cl\": 1.0}}" candidate_id=665648902b377d00 formula=FA0.75K0.25SnCl3 config_index=1 rattle_stdev=0.08 method=PBE fidelity=phase2_force energy=-138.8784673398131 stress="-0.0014101541871814794 0.00017086981567248488 1.15985383834089e-05 0.00017086981567248488 -0.000250780566366631 -0.00019450189467241043 1.15985383834089e-05 -0.00019450189467241043 -0.0019591029539216963" pbc="T T T"
Cs      -0.08691571      -0.07168521      -0.02450395        0      -0.04146292       0.05045492       0.03007374
Sn       2.69386790       2.72162864       2.74972444        1       0.42637332       0.45581385       0.17353232
Cl       2.93148387       3.02086020      11.27057956        2      -0.08671364      -0.10032838       0.06403243
Cl       2.79919868      11.18812760       2.72773301        3      -0.07217444       0.02988398      -0.04684495
Cl      11.11827095       2.86633188       2.92091530        4       0.53542187      -0.02055042      -0.01175723
Cs      -0.13080734       0.09825552       5.68823608        5       0.09952630       0.04710895      -0.09397243
Sn       2.83264442       2.78713942       8.45025991        6       0.11692706       0.03439624      -0.15422078
Cl       2.66061305       2.84733739       5.70236395        7       0.04911296       0.00255531      -0.11194357
Cl       2.74260318      11.31909152       8.47876008        8      -0.00141114      -0.43679479      -0.03676369
Cl      11.18313014       2.86016630       8.30027356        9       0.05816487       0.00246367      -0.00666880
Cs      -0.02741179       5.60631868      -0.03997056       10      -0.01075838      -0.04473493       0.01371339
Sn       2.62411023       8.41144417       2.67389049       11       0.93468010      -0.34698438      -0.07232051
Cl       2.88520459       8.32295725      11.15223664       12      -0.10749052       0.03044023      -0.00613749
Cl       2.66561807       5.57292843       2.67383285       13      -0.03188186       0.01007013       0.07560429
Cl      11.32269083       8.36954457       2.89995733       14      -0.79606838       0.01372776      -0.00052950
K       11.28108798       5.60916976       5.73950365       15       0.04796496      -0.07542632       0.00389968
Sn       2.86921401       8.32626640       8.22017742       16       0.31621054       0.08311009       0.47368644
Cl       2.78401605       8.29557670       5.56908738       17      -0.03800607      -0.03745388      -0.05599779
Cl       2.82658129       5.55911772       8.47908109       18      -0.01765857       0.46478798      -0.11515060
Cl      11.21636516       8.33774155       8.37265011       19       0.31709551       0.00480364      -0.12473208
Cs       5.59651408      -0.04529192       0.02488043       20       0.04130905       0.03162247       0.02313797
Sn       8.46112447       2.85947149       2.88314504       21      -0.57287527      -0.26802683      -0.71918792
Cl       8.41901435       2.80363628      11.32429557       22       0.10370191       0.01558813      -0.36064116
Cl       8.49650554      11.24416587       2.74248161       23      -0.00783270      -0.14044049       0.09707042
Cl       5.65654967       2.91394311       2.70827406       24      -0.37256884      -0.02924493       0.07146952
Cs       5.65393677       0.00100316       5.72689231       25      -0.05498004       0.01395625      -0.07217132
Sn       8.48595540       2.84517090       8.29897894       26      -0.29847902       0.36736637       0.45488418
Cl       8.33948986       2.97798457       5.56066782       27       0.02517830      -0.06088665       0.56038197
Cl       8.37173783      11.28825019       8.40916499       28       0.09744530      -0.15513119      -0.15823415
Cl       5.60928014       2.87753595       8.46244916       29      -0.06065227      -0.03239671      -0.05760201
K        5.50390678       5.51524303      11.22962031       30      -0.03825228      -0.06943510       0.05404618
Sn       8.34075533       8.31816674       2.69547288       31      -0.27101572       0.23924451       0.09183045
Cl       8.41370467       8.41173134      11.31734913       32       0.01276874      -0.00910946      -0.08701552
Cl       8.38797314       5.60481520       2.65118925       33       0.02239410       0.18007698      -0.01399349
Cl       5.59278302       8.32139013       2.84745170       34       0.37624013       0.00402285      -0.05612398
Cs       5.49697540       5.59444230       5.61336917       35       0.01341384      -0.02929879      -0.04481669
Sn       8.61349225       8.52711953       8.19233595       36      -0.75650227      -0.44412359       1.04653360
Cl       8.32604184       8.31785158       5.74616148       37       0.08466424       0.05877337      -0.75159076
Cl       8.45188342       5.60492840       8.28587480       38       0.09877296       0.15672070      -0.00747641
Cl       5.62688044       8.42296678       8.38810587       39      -0.14284078       0.00421969      -0.07525892
40
Lattice="11.204250359565894 0.0 0.0 0.0 11.204812714458514 0.0 0.0 -4.160727439072163e-14 11.204250359565865" Properties=species:S:1:pos:R:3:spacegroup_kinds:I:1:forces:R:3 spacegroup="P 1" unit_cell=conventional occupancy="_JSON {\"0\": {\"Cs\": 1.0}, \"1\": {\"Sn\": 1.0}, \"2\": {\"Cl\": 1.0}, \"3\": {\"Cl\": 1.0}, \"4\": {\"Cl\": 1.0}, \"5\": {\"Cs\": 1.0}, \"6\": {\"Sn\": 1.0}, \"7\": {\"Cl\": 1.0}, \"8\": {\"Cl\": 1.0}, \"9\": {\"Cl\": 1.0}, \"10\": {\"Cs\": 1.0}, \"11\": {\"Sn\": 1.0}, \"12\": {\"Cl\": 1.0}, \"13\": {\"Cl\": 1.0}, \"14\": {\"Cl\": 1.0}, \"15\": {\"K\": 1.0}, \"16\": {\"Sn\": 1.0}, \"17\": {\"Cl\": 1.0}, \"18\": {\"Cl\": 1.0}, \"19\": {\"Cl\": 1.0}, \"20\": {\"Cs\": 1.0}, \"21\": {\"Sn\": 1.0}, \"22\": {\"Cl\": 1.0}, \"23\": {\"Cl\": 1.0}, \"24\": {\"Cl\": 1.0}, \"25\": {\"Cs\": 1.0}, \"26\": {\"Sn\": 1.0}, \"27\": {\"Cl\": 1.0}, \"28\": {\"Cl\": 1.0}, \"29\": {\"Cl\": 1.0}, \"30\": {\"K\": 1.0}, \"31\": {\"Sn\": 1.0}, \"32\": {\"Cl\": 1.0}, \"33\": {\"Cl\": 1.0}, \"34\": {\"Cl\": 1.0}, \"35\": {\"Cs\": 1.0}, \"36\": {\"Sn\": 1.0}, \"37\": {\"Cl\": 1.0}, \"38\": {\"Cl\": 1.0}, \"39\": {\"Cl\": 1.0}}" candidate_id=665648902b377d00 formula=FA0.75K0.25SnCl3 config_index=2 rattle_stdev=0.08 method=PBE fidelity=phase2_force energy=-138.85135126569887 stress="-0.00042637425148180465 -1.794533242898084e-05 1.5444533945762983e-05 -1.794533242898084e-05 -0.0005544709448617374 -1.773177807939066e-05 1.5444533945762983e-05 -1.773177807939066e-05 1.3024442708603276e-05" pbc="T T T"
Cs      -0.00901704      -0.08612512       0.14280215        0       0.03904311      -0.00251240      -0.12956620
Sn       2.68450393       2.79204983       2.70027087        1       0.88171824       0.38422321       0.22912988
Cl       2.85691754       2.80297157      11.17625230        2      -0.13832078       0.08262784       0.02772202
Cl       2.82479541      11.30088567       2.67554297        3      -0.07852560      -0.65116803       0.03359964
Cl      11.35257266       2.91274031       2.81639131        4      -0.91290928      -0.02438236      -0.06755570
Cs      -0.03224966      -0.07789298       5.56472784        5      -0.02112665      -0.01223486       0.09902067
Sn       2.74362887       2.91586695       8.34101177        6       0.49503606      -0.07998970      -0.10296798
Cl       2.72819491       2.86861385       5.60849157        7      -0.02375955      -0.10099137      -0.00954646
Cl       2.70640651      11.08091332       8.47616826        8      -0.03677748       0.34193754      -0.01525652
Cl      11.23726402       2.81756184       8.19430039        9      -0.15064632       0.08402360       0.07859450
Cs      -0.06297932       5.52012502       0.00746465       10       0.05011079       0.04501370      -0.04009588
Sn       2.75872706       8.44907681       2.78499741       11       0.33145769      -0.37492037       0.12825687
Cl       2.78839953       8.24876838      11.16403161       12      -0.00428452       0.01441809       0.45496961
Cl       2.86425381       5.52840655       2.97786542       13      -0.11860454       0.56058010      -0.14914803
Cl      11.09223146       8.31246156       2.84423548       14       0.57479803       0.00090481      -0.02669844
K       11.17605954       5.60927640       5.61065734       15       0.00006823       0.02240956       0.04093521
Sn       2.78530009       8.49441193       8.43080169       16      -0.10648022      -0.49188231      -0.17172356
Cl       2.81988851       8.28396654       5.66075176       17      -0.06597084       0.17872322      -0.38292419
Cl       2.90756280       5.54400372       8.36432731       18      -0.08406688      -0.11002779       0.07140291
Cl      11.29040350       8.12396076       8.39075639       19       0.00053057       0.07927730      -0.00878723
Cs       5.68524195      -0.14468591       0.06069128       20      -0.06277222       0.08970134      -0.06071246
Sn       8.36317875       2.63061204       2.79242917       21      -0.39712802       0.67033688       0.24033884
Cl       8.25717913       2.91232565      11.15999608       22       0.11069276       0.00275896       0.16517632
Cl       8.48778837      11.13526729       2.79505530       23      -0.00188368       0.13865757      -0.04047861
Cl       5.59355278       3.04112912       2.74803392       24       0.51152807      -0.26389424      -0.04494143
Cs       5.55989277      -0.10356935       5.61925310       25       0.03377528       0.02369527       0.03061570
Sn       8.49328934       2.85027836       8.46443460       26      -0.56172241      -0.05091596      -0.35804605
Cl       8.32072320       2.91913204       5.58451421       27       0.07881715      -0.17604308      -0.13821366
Cl       8.45480289      11.12443517       8.55516685       28       0.00890754       0.50330512       0.01235006
Cl       5.61947405       2.91322099       8.37884611       29       0.13173347      -0.07276230       0.02190011
K        5.52189444       5.53990154      11.22059258       30      -0.03977515      -0.10883204       0.01697574
Sn       8.44607513       8.30065743       2.62363421       31      -0.51000136      -0.28766471       0.75756776
Cl       8.42915656       8.30580249      11.19044522       32       0.01097395      -0.04495240       0.11099032
Cl       8.22011403       5.59344285       2.87748769       33       0.17264056      -0.06844857      -0.15572614
Cl       5.63850423       8.49654355       2.78027380       34      -0.44682365       0.05790991      -0.09097884
Cs       5.60235257       5.56612205       5.63200378       35       0.00731096      -0.01788185      -0.03172650
Sn       8.33813849       8.37853262       8.43884483       36       0.23929219       0.00450972      -0.63026605
Cl       8.32696311       8.34021590       5.67030413       37       0.07039545       0.12159726      -0.10302226
Cl       8.39063960       5.69751190       8.28540670       38       0.08500551      -0.58511292       0.11307467
Cl       5.67140845       8.26011819       8.38505575       39      -0.06413727       0.11659064       0.11764329
40
Lattice="11.204250359565894 0.0 0.0 0.0 11.204812714458514 0.0 0.0 -4.160727439072163e-14 11.204250359565865" Properties=species:S:1:pos:R:3:spacegroup_kinds:I:1:forces:R:3 spacegroup="P 1" unit_cell=conventional occupancy="_JSON {\"0\": {\"Cs\": 1.0}, \"1\": {\"Sn\": 1.0}, \"2\": {\"Cl\": 1.0}, \"3\": {\"Cl\": 1.0}, \"4\": {\"Cl\": 1.0}, \"5\": {\"Cs\": 1.0}, \"6\": {\"Sn\": 1.0}, \"7\": {\"Cl\": 1.0}, \"8\": {\"Cl\": 1.0}, \"9\": {\"Cl\": 1.0}, \"10\": {\"Cs\": 1.0}, \"11\": {\"Sn\": 1.0}, \"12\": {\"Cl\": 1.0}, \"13\": {\"Cl\": 1.0}, \"14\": {\"Cl\": 1.0}, \"15\": {\"K\": 1.0}, \"16\": {\"Sn\": 1.0}, \"17\": {\"Cl\": 1.0}, \"18\": {\"Cl\": 1.0}, \"19\": {\"Cl\": 1.0}, \"20\": {\"Cs\": 1.0}, \"21\": {\"Sn\": 1.0}, \"22\": {\"Cl\": 1.0}, \"23\": {\"Cl\": 1.0}, \"24\": {\"Cl\": 1.0}, \"25\": {\"Cs\": 1.0}, \"26\": {\"Sn\": 1.0}, \"27\": {\"Cl\": 1.0}, \"28\": {\"Cl\": 1.0}, \"29\": {\"Cl\": 1.0}, \"30\": {\"K\": 1.0}, \"31\": {\"Sn\": 1.0}, \"32\": {\"Cl\": 1.0}, \"33\": {\"Cl\": 1.0}, \"34\": {\"Cl\": 1.0}, \"35\": {\"Cs\": 1.0}, \"36\": {\"Sn\": 1.0}, \"37\": {\"Cl\": 1.0}, \"38\": {\"Cl\": 1.0}, \"39\": {\"Cl\": 1.0}}" candidate_id=665648902b377d00 formula=FA0.75K0.25SnCl3 config_index=3 rattle_stdev=0.08 method=PBE fidelity=phase2_force energy=-138.69560804490933 stress="-0.0006547747175716309 0.00025680248797418 4.723024633421819e-05 0.00025680248797418 -0.0007281584289872514 0.00020221815602970215 4.723024633421819e-05 0.00020221815602970215 8.672376390800656e-05" pbc="T T T"
Cs      -0.10568348       0.16134023       0.00380516        0       0.06930653       0.06249778       0.03878804
Sn       2.78204890       2.82488530       2.87782597        1      -0.30008286      -0.34966934      -0.81413977
Cl       2.77232034       2.91554899      11.14225690        2       0.06280151      -0.06908800      -0.16905342
Cl       2.91345909      11.18683828       2.69659173        3       0.01228866      -0.21672788       0.05091072
Cl      11.14996754       2.74354870       2.72445034        4       0.11391723       0.04757642       0.06917153
Cs      -0.01794374      -0.06804488       5.54166597        5      -0.04455931       0.01991955      -0.02040874
Sn       2.82211625       2.61374005       8.26956510        6       0.05254816       0.67179973       0.70969636
Cl       2.71833814       2.67748131       5.49999039        7       0.00771163      -0.03986092       0.33982149
Cl       2.85415239      11.10250600       8.33995499        8       0.02061757       0.56796143      -0.02054548
Cl      11.08406069       2.77806016       8.55873735        9       0.37411884      -0.03147945      -0.08635205
Cs      -0.03814223       5.67413948      -0.14439506       10       0.05121610      -0.14466234       0.01984369
Sn       2.76176542       8.29069750       2.73664496       11       0.12258028       0.36227783      -0.00632859
Cl       2.93931371       8.31316410      11.14715464       12      -0.04973485      -0.06017492       0.61709686
Cl       2.78805559       5.54809596       2.92219201       13      -0.05249461       0.29912771       0.03538255
Cl      11.06444453       8.38427172       2.79931892       14       1.17959294      -0.08947080      -0.00014821
K       11.14355451       5.61616846       5.54954190       15      -0.06907595       0.00170802       0.00294753
Sn       2.84527823       8.41726588       8.37348454       16      -0.13881308      -0.75418069       0.05433330
Cl       2.90152848       8.34893315       5.69905251       17      -0.00673712       0.04637034      -0.56864615
Cl       2.85958104       5.65632604       8.35676328       18      -0.01041320      -0.28606979      -0.08165141
Cl      11.19630319       8.20480016       8.37142483       19      -0.24318417       0.04557042       0.00214690
Cs       5.69802989      -0.02123382      -0.05214397       20      -0.07181155       0.02966194       0.02569284
Sn       8.25146484       2.69493157       2.76963673       21       0.55038892       0.46624022       0.00039958
Cl       8.34424367       2.93010878      11.25565239       22      -0.07506099      -0.08430495      -0.10479307
Cl       8.59497467      11.19123013       2.71999189       23      -0.14985905      -0.31593697       0.00557901
Cl       5.56664069       2.94090154       2.81482568       24      -0.20466980      -0.05897510       0.04980778
Cs       5.62441624       0.04176727       5.62753452       25       0.02532222      -0.05890664      -0.01500957
Sn       8.42135868       2.78692825       8.34574636       26      -0.09695748      -0.03828030       0.07105310
Cl       8.55250229       2.80418775       5.57341897       27      -0.02004967      -0.02275274       0.14638506
Cl       8.40989192      11.33915048       8.30884079       28      -0.00766098      -0.90355889       0.07659556
Cl       5.57022701       2.83935222       8.47372035       29      -0.37993783      -0.13533567      -0.12514652
K        5.55594560       5.60810615      11.27362677       30      -0.02225328      -0.04812314      -0.04406534
Sn       8.43638049       8.36855844       2.86151004       31      -0.18603331      -0.24614882       0.15951052
Cl       8.39541253       8.29640911      11.25657670       32       0.03956589       0.00905723       0.05320187
Cl       8.33149791       5.48845046       2.94046132       33       0.09831085       0.22798155      -0.00786904
Cl       5.83567123       8.27769133       2.71359502       34      -1.06524541       0.02809056      -0.01608737
Cs       5.68656456       5.69406340       5.61177502       35       0.00280315      -0.00636375       0.04039879
Sn       8.40418724       8.33069551       8.55329170       36       0.08979880      -0.03436311      -0.42957340
Cl       8.39292073       8.30709061       5.71514453       37       0.01655544       0.02495324      -0.02982665
Cl       8.35090049       5.42108103       8.45161593       38       0.01494869       1.04122626      -0.00897805
Cl       5.56017974       8.34818854       8.51668557       39       0.26162279       0.03768650      -0.01390876
