Cs Pb I  Br Cl Cs Pb Cl Cs Pb Cl I  Cs Pb I  Cl I  Cs Pb Cl Br Cl Cs Pb Cl I  Cl Cs Pb I  Cl Cs Pb Br Cl
 1.0000000000000000
    12.4650197601126962    0.0000000000000000    0.0000000000000000
     0.0000000000000000   12.4650197601126962    0.0000000000000000
     0.0000000000000000    0.0000000000000000   12.4650197601126962
 Cs  Pb  I   Br  Cl  Cs  Pb  Cl  Cs  Pb  Cl  I   Cs  Pb  I   Cl  I   Cs  Pb  Cl  Br  Cl  Cs  Pb  Cl  I   Cl  Cs  Pb  I   Cl  Cs  Pb  Br  Cl 
   1   1   1   1   1   1   1   3   1   1   2   1   1   1   1   1   1   1   1   1   1   1   1   1   1   1   1   1   1   1   2   1   1   1   2
Cartesian
  0.0000000000000000  0.0000000000000000  0.0000000000000000
  3.1162549400281740  3.1162549400281740  3.1162549400281740
  3.1162549400281740  3.1162549400281740  0.0000000000000000
  3.1162549400281740  0.0000000000000000  3.1162549400281740
  0.0000000000000000  3.1162549400281740  3.1162549400281740
  0.0000000000000000  0.0000000000000000  6.2325098800563472
  3.1162549400281740  3.1162549400281740  9.3487648200845221
  3.1162549400281740  3.1162549400281740  6.2325098800563472
  3.1162549400281740  0.0000000000000000  9.3487648200845221
  0.0000000000000000  3.1162549400281740  9.3487648200845221
  0.0000000000000000  6.2325098800563472  0.0000000000000000
  3.1162549400281740  9.3487648200845221  3.1162549400281740
  3.1162549400281740  9.3487648200845221  0.0000000000000000
  3.1162549400281740  6.2325098800563472  3.1162549400281740
  0.0000000000000000  9.3487648200845221  3.1162549400281740
  0.0000000000000000  6.2325098800563472  6.2325098800563472
  3.1162549400281740  9.3487648200845221  9.3487648200845221
  3.1162549400281740  9.3487648200845221  6.2325098800563472
  3.1162549400281740  6.2325098800563472  9.3487648200845221
  0.0000000000000000  9.3487648200845221  9.3487648200845221
  6.2325098800563472  0.0000000000000000  0.0000000000000000
  9.3487648200845221  3.1162549400281740  3.1162549400281740
  9.3487648200845221  3.1162549400281740  0.0000000000000000
  9.3487648200845221  0.0000000000000000  3.1162549400281740
  6.2325098800563472  3.1162549400281740  3.1162549400281740
  6.2325098800563472  0.0000000000000000  6.2325098800563472
  9.3487648200845221  3.1162549400281740  9.3487648200845221
  9.3487648200845221  3.1162549400281740  6.2325098800563472
  9.3487648200845221  0.0000000000000000  9.3487648200845221
  6.2325098800563472  3.1162549400281740  9.3487648200845221
  6.2325098800563472  6.2325098800563472  0.0000000000000000
  9.3487648200845221  9.3487648200845221  3.1162549400281740
  9.3487648200845221  9.3487648200845221  0.0000000000000000
  9.3487648200845221  6.2325098800563472  3.1162549400281740
  6.2325098800563472  9.3487648200845221  3.1162549400281740
  6.2325098800563472  6.2325098800563472  6.2325098800563472
  9.3487648200845221  9.3487648200845221  9.3487648200845221
  9.3487648200845221  9.3487648200845221  6.2325098800563472
  9.3487648200845221  6.2325098800563472  9.3487648200845221
  6.2325098800563472  9.3487648200845221  9.3487648200845221
