Rb Sn Br Rb Sn Br Rb Sn Br Rb Ge Br Rb Sn Br Rb Sn Br Rb Ge Br Rb Sn Br
 1.0000000000000000
    12.0095015716723239    0.0000000000000000    0.0000000000000000
     0.0000000000000000   12.0095015716723239    0.0000000000000000
     0.0000000000000000    0.0000000000000000   12.0095015716723239
 Rb  Sn  Br  Rb  Sn  Br  Rb  Sn  Br  Rb  Ge  Br  Rb  Sn  Br  Rb  Sn  Br  Rb  Ge  Br  Rb  Sn  Br 
   1   1   3   1   1   3   1   1   3   1   1   3   1   1   3   1   1   3   1   1   3   1   1   3
Cartesian
  0.0000000000000000  0.0000000000000000  0.0000000000000000
  3.0023753929180810  3.0023753929180810  3.0023753929180810
  3.0023753929180810  3.0023753929180810  0.0000000000000000
  3.0023753929180810  0.0000000000000000  3.0023753929180810
  0.0000000000000000  3.0023753929180810  3.0023753929180810
  0.0000000000000000  0.0000000000000000  6.0047507858361611
  3.0023753929180810  3.0023753929180810  9.0071261787542429
  3.0023753929180810  3.0023753929180810  6.0047507858361611
  3.0023753929180810  0.0000000000000000  9.0071261787542429
  0.0000000000000000  3.0023753929180810  9.0071261787542429
  0.0000000000000000  6.0047507858361611  0.0000000000000000
  3.0023753929180810  9.0071261787542429  3.0023753929180810
  3.0023753929180810  9.0071261787542429  0.0000000000000000
  3.0023753929180810  6.0047507858361611  3.0023753929180810
  0.0000000000000000  9.0071261787542429  3.0023753929180810
  0.0000000000000000  6.0047507858361611  6.0047507858361611
  3.0023753929180810  9.0071261787542429  9.0071261787542429
  3.0023753929180810  9.0071261787542429  6.0047507858361611
  3.0023753929180810  6.0047507858361611  9.0071261787542429
  0.0000000000000000  9.0071261787542429  9.0071261787542429
  6.0047507858361611  0.0000000000000000  0.0000000000000000
  9.0071261787542429  3.0023753929180810  3.0023753929180810
  9.0071261787542429  3.0023753929180810  0.0000000000000000
  9.0071261787542429  0.0000000000000000  3.0023753929180810
  6.0047507858361611  3.0023753929180810  3.0023753929180810
  6.0047507858361611  0.0000000000000000  6.0047507858361611
  9.0071261787542429  3.0023753929180810  9.0071261787542429
  9.0071261787542429  3.0023753929180810  6.0047507858361611
  9.0071261787542429  0.0000000000000000  9.0071261787542429
  6.0047507858361611  3.0023753929180810  9.0071261787542429
  6.0047507858361611  6.0047507858361611  0.0000000000000000
  9.0071261787542429  9.0071261787542429  3.0023753929180810
  9.0071261787542429  9.0071261787542429  0.0000000000000000
  9.0071261787542429  6.0047507858361611  3.0023753929180810
  6.0047507858361611  9.0071261787542429  3.0023753929180810
  6.0047507858361611  6.0047507858361611  6.0047507858361611
  9.0071261787542429  9.0071261787542429  9.0071261787542429
  9.0071261787542429  9.0071261787542429  6.0047507858361611
  9.0071261787542429  6.0047507858361611  9.0071261787542429
  6.0047507858361611  9.0071261787542429  9.0071261787542429
