Cs Pb Br Cs Pb Br Cs Pb Br Cs Pb Br Cs Pb Br Cs Pb Br Cs Ge Br Cs Pb Br
 1.0000000000000000
    12.3699846087212251    0.0000000000000000    0.0000000000000000
     0.0000000000000000   12.3699846087212251    0.0000000000000000
     0.0000000000000000    0.0000000000000000   12.3699846087212251
 Cs  Pb  Br  Cs  Pb  Br  Cs  Pb  Br  Cs  Pb  Br  Cs  Pb  Br  Cs  Pb  Br  Cs  Ge  Br  Cs  Pb  Br 
   1   1   3   1   1   3   1   1   3   1   1   3   1   1   3   1   1   3   1   1   3   1   1   3
Cartesian
  0.0000000000000000  0.0000000000000000  0.0000000000000000
  3.0924961521803063  3.0924961521803063  3.0924961521803063
  3.0924961521803063  3.0924961521803063  0.0000000000000000
  3.0924961521803063  0.0000000000000000  3.0924961521803063
  0.0000000000000000  3.0924961521803063  3.0924961521803063
  0.0000000000000000  0.0000000000000000  6.1849923043606116
  3.0924961521803063  3.0924961521803063  9.2774884565409206
  3.0924961521803063  3.0924961521803063  6.1849923043606116
  3.0924961521803063  0.0000000000000000  9.2774884565409206
  0.0000000000000000  3.0924961521803063  9.2774884565409206
  0.0000000000000000  6.1849923043606116  0.0000000000000000
  3.0924961521803063  9.2774884565409206  3.0924961521803063
  3.0924961521803063  9.2774884565409206  0.0000000000000000
  3.0924961521803063  6.1849923043606116  3.0924961521803063
  0.0000000000000000  9.2774884565409206  3.0924961521803063
  0.0000000000000000  6.1849923043606116  6.1849923043606116
  3.0924961521803063  9.2774884565409206  9.2774884565409206
  3.0924961521803063  9.2774884565409206  6.1849923043606116
  3.0924961521803063  6.1849923043606116  9.2774884565409206
  0.0000000000000000  9.2774884565409206  9.2774884565409206
  6.1849923043606116  0.0000000000000000  0.0000000000000000
  9.2774884565409206  3.0924961521803063  3.0924961521803063
  9.2774884565409206  3.0924961521803063  0.0000000000000000
  9.2774884565409206  0.0000000000000000  3.0924961521803063
  6.1849923043606116  3.0924961521803063  3.0924961521803063
  6.1849923043606116  0.0000000000000000  6.1849923043606116
  9.2774884565409206  3.0924961521803063  9.2774884565409206
  9.2774884565409206  3.0924961521803063  6.1849923043606116
  9.2774884565409206  0.0000000000000000  9.2774884565409206
  6.1849923043606116  3.0924961521803063  9.2774884565409206
  6.1849923043606116  6.1849923043606116  0.0000000000000000
  9.2774884565409206  9.2774884565409206  3.0924961521803063
  9.2774884565409206  9.2774884565409206  0.0000000000000000
  9.2774884565409206  6.1849923043606116  3.0924961521803063
  6.1849923043606116  9.2774884565409206  3.0924961521803063
  6.1849923043606116  6.1849923043606116  6.1849923043606116
  9.2774884565409206  9.2774884565409206  9.2774884565409206
  9.2774884565409206  9.2774884565409206  6.1849923043606116
  9.2774884565409206  6.1849923043606116  9.2774884565409206
  6.1849923043606116  9.2774884565409206  9.2774884565409206
