Cs Sn I  Cs Sn I  Br I  Cs Sn Br I  Cs Sn I  Br I  Cs Sn I  Br Cs Sn I  Br Cs Sn I  Br Cs Sn I  Br
 1.0000000000000000
    13.1045271330178092    0.0000000000000000    0.0000000000000000
     0.0000000000000000   13.1045271330178092    0.0000000000000000
     0.0000000000000000    0.0000000000000000   13.1045271330178092
 Cs  Sn  I   Cs  Sn  I   Br  I   Cs  Sn  Br  I   Cs  Sn  I   Br  I   Cs  Sn  I   Br  Cs  Sn  I   Br  Cs  Sn  I   Br  Cs  Sn  I   Br 
   1   1   3   1   1   1   1   1   1   1   2   1   1   1   1   1   1   1   1   2   1   1   1   2   1   1   1   1   2   1   1   1   2
Cartesian
  0.0000000000000000  0.0000000000000000  0.0000000000000000
  3.2761317832544514  3.2761317832544514  3.2761317832544514
  3.2761317832544514  3.2761317832544514  0.0000000000000000
  3.2761317832544514  0.0000000000000000  3.2761317832544514
  0.0000000000000000  3.2761317832544514  3.2761317832544514
  0.0000000000000000  0.0000000000000000  6.5522635665089037
  3.2761317832544514  3.2761317832544514  9.8283953497633547
  3.2761317832544514  3.2761317832544514  6.5522635665089037
  3.2761317832544514  0.0000000000000000  9.8283953497633547
  0.0000000000000000  3.2761317832544514  9.8283953497633547
  0.0000000000000000  6.5522635665089037  0.0000000000000000
  3.2761317832544514  9.8283953497633547  3.2761317832544514
  3.2761317832544514  9.8283953497633547  0.0000000000000000
  3.2761317832544514  6.5522635665089037  3.2761317832544514
  0.0000000000000000  9.8283953497633547  3.2761317832544514
  0.0000000000000000  6.5522635665089037  6.5522635665089037
  3.2761317832544514  9.8283953497633547  9.8283953497633547
  3.2761317832544514  9.8283953497633547  6.5522635665089037
  3.2761317832544514  6.5522635665089037  9.8283953497633547
  0.0000000000000000  9.8283953497633547  9.8283953497633547
  6.5522635665089037  0.0000000000000000  0.0000000000000000
  9.8283953497633547  3.2761317832544514  3.2761317832544514
  9.8283953497633547  3.2761317832544514  0.0000000000000000
  9.8283953497633547  0.0000000000000000  3.2761317832544514
  6.5522635665089037  3.2761317832544514  3.2761317832544514
  6.5522635665089037  0.0000000000000000  6.5522635665089037
  9.8283953497633547  3.2761317832544514  9.8283953497633547
  9.8283953497633547  3.2761317832544514  6.5522635665089037
  9.8283953497633547  0.0000000000000000  9.8283953497633547
  6.5522635665089037  3.2761317832544514  9.8283953497633547
  6.5522635665089037  6.5522635665089037  0.0000000000000000
  9.8283953497633547  9.8283953497633547  3.2761317832544514
  9.8283953497633547  9.8283953497633547  0.0000000000000000
  9.8283953497633547  6.5522635665089037  3.2761317832544514
  6.5522635665089037  9.8283953497633547  3.2761317832544514
  6.5522635665089037  6.5522635665089037  6.5522635665089037
  9.8283953497633547  9.8283953497633547  9.8283953497633547
  9.8283953497633547  9.8283953497633547  6.5522635665089037
  9.8283953497633547  6.5522635665089037  9.8283953497633547
  6.5522635665089037  9.8283953497633547  9.8283953497633547
