40
Lattice="12.620716016686847 0.0 0.0 0.0 12.618843992627227 0.0 0.0 1.4086999279290259e-13 12.618843992627333" Properties=species:S:1:pos:R:3:spacegroup_kinds:I:1:forces:R:3 spacegroup="P 1" unit_cell=conventional occupancy="_JSON {\"0\": {\"Cs\": 1.0}, \"1\": {\"Sn\": 1.0}, \"2\": {\"I\": 1.0}, \"3\": {\"I\": 1.0}, \"4\": {\"I\": 1.0}, \"5\": {\"Cs\": 1.0}, \"6\": {\"Pb\": 1.0}, \"7\": {\"I\": 1.0}, \"8\": {\"I\": 1.0}, \"9\": {\"I\": 1.0}, \"10\": {\"Cs\": 1.0}, \"11\": {\"Sn\": 1.0}, \"12\": {\"I\": 1.0}, \"13\": {\"I\": 1.0}, \"14\": {\"I\": 1.0}, \"15\": {\"Cs\": 1.0}, \"16\": {\"Sn\": 1.0}, \"17\": {\"I\": 1.0}, \"18\": {\"I\": 1.0}, \"19\": {\"I\": 1.0}, \"20\": {\"Cs\": 1.0}, \"21\": {\"Sn\": 1.0}, \"22\": {\"I\": 1.0}, \"23\": {\"I\": 1.0}, \"24\": {\"I\": 1.0}, \"25\": {\"Cs\": 1.0}, \"26\": {\"Pb\": 1.0}, \"27\": {\"I\": 1.0}, \"28\": {\"I\": 1.0}, \"29\": {\"I\": 1.0}, \"30\": {\"Cs\": 1.0}, \"31\": {\"Sn\": 1.0}, \"32\": {\"I\": 1.0}, \"33\": {\"I\": 1.0}, \"34\": {\"I\": 1.0}, \"35\": {\"Cs\": 1.0}, \"36\": {\"Sn\": 1.0}, \"37\": {\"I\": 1.0}, \"38\": {\"I\": 1.0}, \"39\": {\"I\": 1.0}}" candidate_id=d74e9605a8f3ffaa formula=MAPb0.25Sn0.75I3 config_index=0 rattle_stdev=0.0 method=PBE fidelity=phase2_force energy=-112.54803255269437 stress="0.00036192841922644286 0.0 1.4146458903277683e-31 0.0 0.00023991548192162164 2.6720009113367502e-11 1.4146458903277683e-31 2.6720009113367502e-11 0.0002399154819216183" pbc="T T T"
Cs      12.62071602      12.59120896       0.02763504        0       0.00000000      -0.00152040       0.00152040
Sn       3.15517900       3.15471100       3.15471100        1       0.00020796       0.00020480       0.00020670
I        3.15517900       3.15471100       0.07759391        2      -0.00000149      -0.00000236      -0.23976080
I        3.15517900      12.60994382       3.15471100        3      -0.00000312       0.01273009      -0.00000230
I       12.62071602       3.15471100       3.15471100        4       0.00000000      -0.00000305      -0.00000230
Cs      12.62071602      12.59120896       6.28178696        5       0.00000000      -0.00152055      -0.00151164
Pb       3.15517900       3.15471100       9.46413299        6       0.00030213       0.00014098      -0.00014098
I        3.15517900       3.15471100       6.23182809        7      -0.00000030      -0.00000142       0.23983339
I        3.15517900      12.54125009       9.46413299        8      -0.00000149       0.23976080       0.00000236
I       12.62071602       3.15471100       9.46413299        9       0.00000000      -0.00000127       0.00000127
Cs      12.62071602       6.33705703       0.02763504       10       0.00000000       0.00151164       0.00152055
Sn       3.15517900       9.46413299       3.15471100       11       0.00020691      -0.00021072       0.00021072
I        3.15517900       9.46413299       0.00890017       12      -0.00000312       0.00000230      -0.01273009
I        3.15517900       6.31832217       3.15471100       13      -0.00000172      -0.01273154      -0.00000189
I       12.62071602       9.46413299       3.15471100       14       0.00000000       0.00000302      -0.00000302
Cs      12.62071602       6.33705703       6.28178696       15       0.00000000       0.00151126      -0.00151126
Sn       3.15517900       9.46413299       9.46413299       16       0.00020796      -0.00020670      -0.00020480
I        3.15517900       9.46413299       6.30052182       17      -0.00000172       0.00000189       0.01273154
I        3.15517900       6.38701590       9.46413299       18      -0.00000030      -0.23983339       0.00000142
I       12.62071602       9.46413299       9.46413299       19      -0.00000000       0.00000230       0.00000305
Cs       6.31035801      12.59120896       0.02763504       20       0.00000000      -0.00151844       0.00151844
Sn       9.46553701       3.15471100       3.15471100       21      -0.00020796       0.00020480       0.00020670
I        9.46553701       3.15471100       0.07759391       22       0.00000149      -0.00000236      -0.23976080
I        9.46553701      12.60994382       3.15471100       23       0.00000312       0.01273009      -0.00000230
I        6.31035801       3.15471100       3.15471100       24      -0.00000000      -0.00000183      -0.00000131
Cs       6.31035801      12.59120896       6.28178696       25       0.00000000      -0.00151879      -0.00150920
Pb       9.46553701       3.15471100       9.46413299       26      -0.00030213       0.00014098      -0.00014098
I        9.46553701       3.15471100       6.23182809       27       0.00000030      -0.00000142       0.23983339
I        9.46553701      12.54125009       9.46413299       28       0.00000149       0.23976080       0.00000236
I        6.31035801       3.15471100       9.46413299       29       0.00000000      -0.00000019       0.00000019
Cs       6.31035801       6.33705703       0.02763504       30       0.00000000       0.00150920       0.00151879
Sn       9.46553701       9.46413299       3.15471100       31      -0.00020691      -0.00021072       0.00021072
I        9.46553701       9.46413299       0.00890017       32       0.00000312       0.00000230      -0.01273009
I        9.46553701       6.31832217       3.15471100       33       0.00000172      -0.01273154      -0.00000189
I        6.31035801       9.46413299       3.15471100       34       0.00000000       0.00000161      -0.00000161
Cs       6.31035801       6.33705703       6.28178696       35       0.00000000       0.00150914      -0.00150914
Sn       9.46553701       9.46413299       9.46413299       36      -0.00020796      -0.00020670      -0.00020480
I        9.46553701       9.46413299       6.30052182       37       0.00000172       0.00000189       0.01273154
I        9.46553701       6.38701590       9.46413299       38       0.00000030      -0.23983339       0.00000142
I        6.31035801       9.46413299       9.46413299       39      -0.00000000       0.00000131       0.00000183
40
Lattice="12.620716016686847 0.0 0.0 0.0 12.618843992627227 0.0 0.0 1.4086999279290259e-13 12.618843992627333" Properties=species:S:1:pos:R:3:spacegroup_kinds:I:1:forces:R:3 spacegroup="P 1" unit_cell=conventional occupancy="_JSON {\"0\": {\"Cs\": 1.0}, \"1\": {\"Sn\": 1.0}, \"2\": {\"I\": 1.0}, \"3\": {\"I\": 1.0}, \"4\": {\"I\": 1.0}, \"5\": {\"Cs\": 1.0}, \"6\": {\"Pb\": 1.0}, \"7\": {\"I\": 1.0}, \"8\": {\"I\": 1.0}, \"9\": {\"I\": 1.0}, \"10\": {\"Cs\": 1.0}, \"11\": {\"Sn\": 1.0}, \"12\": {\"I\": 1.0}, \"13\": {\"I\": 1.0}, \"14\": {\"I\": 1.0}, \"15\": {\"Cs\": 1.0}, \"16\": {\"Sn\": 1.0}, \"17\": {\"I\": 1.0}, \"18\": {\"I\": 1.0}, \"19\": {\"I\": 1.0}, \"20\": {\"Cs\": 1.0}, \"21\": {\"Sn\": 1.0}, \"22\": {\"I\": 1.0}, \"23\": {\"I\": 1.0}, \"24\": {\"I\": 1.0}, \"25\": {\"Cs\": 1.0}, \"26\": {\"Pb\": 1.0}, \"27\": {\"I\": 1.0}, \"28\": {\"I\": 1.0}, \"29\": {\"I\": 1.0}, \"30\": {\"Cs\": 1.0}, \"31\": {\"Sn\": 1.0}, \"32\": {\"I\": 1.0}, \"33\": {\"I\": 1.0}, \"34\": {\"I\": 1.0}, \"35\": {\"Cs\": 1.0}, \"36\": {\"Sn\": 1.0}, \"37\": {\"I\": 1.0}, \"38\": {\"I\": 1.0}, \"39\": {\"I\": 1.0}}" candidate_id=d74e9605a8f3ffaa formula=MAPb0.25Sn0.75I3 config_index=1 rattle_stdev=0.08 method=PBE fidelity=phase2_force energy=-112.12592306997294 stress="-0.0012819281203324915 2.1733749737575784e-05 1.7675747166070594e-05 2.1733749737575784e-05 -0.00045928396942545495 -5.9003379989990487e-05 1.7675747166070594e-05 -5.9003379989990487e-05 -0.0019544571072346753" pbc="T T T"
Cs      12.53380031      12.51952375       0.00313109        0      -0.01698392       0.02573149       0.02725074
Sn       3.04798431       3.05818415       3.10337285        1       0.21700103       0.21975246       0.28714052
I        3.25981465       3.30234783       0.14392310        2      -0.06286799      -0.04216056      -0.32189632
I        3.15331510      12.59325870       3.08138142        3       0.00014943       0.05065656      -0.00617986
I       12.53473661       3.14781952       3.24877808        4       0.42310021      -0.00302372       0.00115427
Cs      12.48990868      12.68946448       6.36789786        5       0.04189400       0.03018725      -0.04007487
Pb       3.18676083       3.12369493       9.51120513        6       0.05148265      -0.02822989      -0.15759295
I        3.04051510       3.12882502       6.33206687        7       0.04387732       0.02232904       0.04644098
I        3.09671960      12.65552889       9.53970531        8      -0.01455144      -0.22175942       0.00847583
I       12.59959579       3.14165393       9.38700441        9       0.14668682       0.00845946       0.02764358
Cs      12.59330423       6.34096936      -0.01233552       10      -0.00856343      -0.02040349       0.01916431
Sn       2.97822664       9.48891994       3.02753890       11       0.59224798      -0.24261213      -0.11541457
I        3.21353537       9.45550089      -0.04311355       12      -0.05577116       0.02014642       0.04199346
I        3.01973448       6.28884425       3.02748126       13       0.00241351       0.03292779       0.07491427
I       12.73915648       9.50208821       3.22782010       14      -0.64688677       0.01112731       0.02142082
Cs      12.69755364       6.34382044       6.41916543       15       0.01892280      -0.03606221      -0.02452005
Sn       3.22333042       9.40374217       9.28112265       16       0.25106638       0.13839194       0.18851647
I        3.16391810       9.42812035       6.26748403       17       0.00312104      -0.01294350      -0.00067028
I        3.18069770       6.34372726       9.54002631       18      -0.02014250       0.10805211      -0.03944481
I       12.63283082       9.47028519       9.45938096       19       0.21783170       0.02316904      -0.01610044
Cs       6.30474691      12.54591703       0.05251547       20       0.01517811       0.01297699       0.02410330
Sn       9.52347372       3.19602700       3.23679345       21      -0.35108635      -0.21539060      -0.52641764
I        9.50714922       3.08512391       0.19763912       22       0.04138348       0.01754748      -0.59674299
I        9.55885478      12.64929698       3.09613002       23      -0.01309058      -0.08530112       0.11167657
I        6.36478250       3.19543075       3.08770810       24      -0.26876767      -0.01535260       0.06553692
Cs       6.36216960      12.59221211       6.40655409       25      -0.03228689       0.00757941      -0.03012805
Pb       9.54830464       3.18172641       9.35992416       26      -0.22481014       0.24233529       0.24689802
I        9.37605347       3.25947221       6.19037073       27      -0.02317066      -0.02483034       0.72035072
I        9.43408707      12.62468757       9.47011021       28       0.02555133       0.11067063      -0.02762772
I        6.31751297       3.15902359       9.49760875       29       0.01179222      -0.00107564      -0.00285307
Cs       6.21213960       6.24989371       0.05300499       30       0.01687838      -0.00048318       0.02915338
Sn       9.40310457       9.39564251       3.04912129       31      -0.20478630       0.19612260       0.07080379
I        9.50183954       9.54427498       0.12199895       32       0.00075136      -0.02163165      -0.16537255
I        9.45032238       6.32073101       3.00483766       33       0.03160166       0.09697674       0.02423354
I        6.30101585       9.45393377       3.22688574       34       0.28780274      -0.00571716      -0.01287984
Cs       6.20520823       6.32909297       6.29303095       35      -0.00558161      -0.01454605      -0.01915084
Sn       9.67584149       9.60459530       9.25328117       36      -0.40371911      -0.34202838       0.64670335
I        9.36260545       9.45039522       6.44455812       37       0.05558136       0.04755516      -0.65179682
I        9.51423266       6.38953795       9.34682002       38       0.01275350      -0.07553491       0.05609366
I        6.33511327       9.55551042       9.42326546       39      -0.15509029      -0.01598410       0.01377046
40
Lattice="12.620716016686847 0.0 0.0 0.0 12.618843992627227 0.0 0.0 1.4086999279290259e-13 12.618843992627333" Properties=species:S:1:pos:R:3:spacegroup_kinds:I:1:forces:R:3 spacegroup="P 1" unit_cell=conventional occupancy="_JSON {\"0\": {\"Cs\": 1.0}, \"1\": {\"Sn\": 1.0}, \"2\": {\"I\": 1.0}, \"3\": {\"I\": 1.0}, \"4\": {\"I\": 1.0}, \"5\": {\"Cs\": 1.0}, \"6\": {\"Pb\": 1.0}, \"7\": {\"I\": 1.0}, \"8\": {\"I\": 1.0}, \"9\": {\"I\": 1.0}, \"10\": {\"Cs\": 1.0}, \"11\": {\"Sn\": 1.0}, \"12\": {\"I\": 1.0}, \"13\": {\"I\": 1.0}, \"14\": {\"I\": 1.0}, \"15\": {\"Cs\": 1.0}, \"16\": {\"Sn\": 1.0}, \"17\": {\"I\": 1.0}, \"18\": {\"I\": 1.0}, \"19\": {\"I\": 1.0}, \"20\": {\"Cs\": 1.0}, \"21\": {\"Sn\": 1.0}, \"22\": {\"I\": 1.0}, \"23\": {\"I\": 1.0}, \"24\": {\"I\": 1.0}, \"25\": {\"Cs\": 1.0}, \"26\": {\"Pb\": 1.0}, \"27\": {\"I\": 1.0}, \"28\": {\"I\": 1.0}, \"29\": {\"I\": 1.0}, \"30\": {\"Cs\": 1.0}, \"31\": {\"Sn\": 1.0}, \"32\": {\"I\": 1.0}, \"33\": {\"I\": 1.0}, \"34\": {\"I\": 1.0}, \"35\": {\"Cs\": 1.0}, \"36\": {\"Sn\": 1.0}, \"37\": {\"I\": 1.0}, \"38\": {\"I\": 1.0}, \"39\": {\"I\": 1.0}}" candidate_id=d74e9605a8f3ffaa formula=MAPb0.25Sn0.75I3 config_index=2 rattle_stdev=0.08 method=PBE fidelity=phase2_force energy=-112.06062732720531 stress="-0.0007242011975846788 4.1178449849556475e-05 9.973851122973294e-06 4.1178449849556475e-05 -0.0013909114450698977 -1.3875238176348392e-05 9.973851122973294e-06 -1.3875238176348392e-05 -0.0005355504493919056" pbc="T T T"
Cs      12.61169897      12.50508384       0.17043719        0       0.01901447      -0.00768614      -0.04929127
Sn       3.03862034       3.12860534       3.05391928        1       0.53209369       0.22826338       0.20021270
I        3.18524832       3.08445921       0.04959584        2      -0.03908360       0.04162097      -0.28829017
I        3.17891182      12.70601677       3.02919138        3      -0.02341212      -0.48193911       0.04662650
I       12.76903832       3.19422794       3.14425408        4      -0.73126044       0.00966772      -0.03512428
Cs      12.58846636      12.51331597       6.24438962        5      -0.01030565      -0.01406533       0.04208383
Pb       3.09774529       3.25242246       9.40195699        6       0.40603321       0.03764525      -0.04793702
I        3.10809695       3.15010149       6.23819448        7       0.01998618      -0.08985202       0.15994764
I        3.06052292      12.41735069       9.53711349        8      -0.00396225       0.77997634       0.00118910
I       12.65372968       3.09904948       9.28103124        9      -0.17134588      -0.00389356       0.01776710
Cs      12.55773669       6.25477570       0.03509969       10       0.02487489       0.02436524      -0.01448363
Sn       3.11284347       9.52655258       3.13864582       11       0.20780803      -0.17784687       0.04797674
I        3.11673032       9.38131202      -0.03131858       12       0.01326068      -0.02838607       0.31483186
I        3.21837022       6.24432236       3.33151382       13      -0.03759850       0.39347047      -0.08480977
I       12.50869712       9.44500520       3.17209825       14       0.45442499      -0.00947245       0.01752949
Cs      12.59252519       6.34392708       6.29031912       15       0.00410926       0.01364832       0.01255355
Sn       3.13941651       9.57188770       9.49174691       16      -0.08651767      -0.55581271      -0.10053067
I        3.19979056       9.41651018       6.35914840       17      -0.02698653       0.07717155      -0.27046969
I        3.26167922       6.32861327       9.42527253       18      -0.02305216      -0.24100384       0.03208887
I       12.70686915       9.25650440       9.47748725       19      -0.05064632       0.02949732      -0.00932508
Cs       6.39347478      12.44652305       0.08832631       20      -0.02174724       0.03612483      -0.02081079
Sn       9.42552799       2.96716755       3.14607758       21      -0.24600598       0.27850653       0.13103766
I        9.34531400       3.19381329       0.03333962       22       0.07309272       0.02641278      -0.11212037
I        9.55013761      12.54039839       3.14870371       23       0.00211756       0.16298458      -0.00679440
I        6.30178561       3.32261676       3.12746796       24       0.34778744      -0.14729333      -0.00746274
Cs       6.26812560      12.48763961       6.29891488       25       0.01792353       0.00749458       0.01266873
Pb       9.55563858       3.18683387       9.52537982       26      -0.37045826      -0.05351712      -0.15321825
I        9.35728682       3.20061968       6.21421712       27       0.04908625      -0.06676691       0.14232963
I        9.51715213      12.46087254       9.61611208       28       0.03367154       0.67165426       0.00465637
I        6.32770687       3.19470863       9.41400571       29       0.05769487      -0.06019345       0.00197203
Cs       6.23012727       6.27455222       0.04397726       30      -0.01766248      -0.03265736       0.00856724
Sn       9.50842437       9.37813320       2.97728262       31      -0.32921019      -0.22035051       0.43084673
I        9.51729143       9.43834613      -0.00490496       32       0.00616138      -0.04045458       0.05223541
I        9.28246327       6.30935866       3.23113610       33       0.10084893      -0.00385001      -0.06809869
I        6.34673706       9.62908719       3.15970784       34      -0.32283569       0.00971332      -0.04393166
Cs       6.31058540       6.30077273       6.31166556       35       0.00040689      -0.01382860      -0.00779169
Sn       9.40048773       9.45600839       9.49979005       36       0.12681083       0.08926344      -0.42061629
I        9.36352672       9.47275954       6.36870077       37       0.06366714       0.07032086      -0.06343805
I        9.45298885       6.48212144       9.34635192       38       0.05048271      -0.79314065       0.04696767
I        6.37964128       9.39266183       9.42021535       39      -0.10234221       0.05613588       0.07976252
40
Lattice="12.620716016686847 0.0 0.0 0.0 12.618843992627227 0.0 0.0 1.4086999279290259e-13 12.618843992627333" Properties=species:S:1:pos:R:3:spacegroup_kinds:I:1:forces:R:3 spacegroup="P 1" unit_cell=conventional occupancy="_JSON {\"0\": {\"Cs\": 1.0}, \"1\": {\"Sn\": 1.0}, \"2\": {\"I\": 1.0}, \"3\": {\"I\": 1.0}, \"4\": {\"I\": 1.0}, \"5\": {\"Cs\": 1.0}, \"6\": {\"Pb\": 1.0}, \"7\": {\"I\": 1.0}, \"8\": {\"I\": 1.0}, \"9\": {\"I\": 1.0}, \"10\": {\"Cs\": 1.0}, \"11\": {\"Sn\": 1.0}, \"12\": {\"I\": 1.0}, \"13\": {\"I\": 1.0}, \"14\": {\"I\": 1.0}, \"15\": {\"Cs\": 1.0}, \"16\": {\"Sn\": 1.0}, \"17\": {\"I\": 1.0}, \"18\": {\"I\": 1.0}, \"19\": {\"I\": 1.0}, \"20\": {\"Cs\": 1.0}, \"21\": {\"Sn\": 1.0}, \"22\": {\"I\": 1.0}, \"23\": {\"I\": 1.0}, \"24\": {\"I\": 1.0}, \"25\": {\"Cs\": 1.0}, \"26\": {\"Pb\": 1.0}, \"27\": {\"I\": 1.0}, \"28\": {\"I\": 1.0}, \"29\": {\"I\": 1.0}, \"30\": {\"Cs\": 1.0}, \"31\": {\"Sn\": 1.0}, \"32\": {\"I\": 1.0}, \"33\": {\"I\": 1.0}, \"34\": {\"I\": 1.0}, \"35\": {\"Cs\": 1.0}, \"36\": {\"Sn\": 1.0}, \"37\": {\"I\": 1.0}, \"38\": {\"I\": 1.0}, \"39\": {\"I\": 1.0}}" candidate_id=d74e9605a8f3ffaa formula=MAPb0.25Sn0.75I3 config_index=3 rattle_stdev=0.08 method=PBE fidelity=phase2_force energy=-111.91917872199288 stress="-0.0008766638820299487 7.720080706747667e-05 1.423421498049824e-06 7.720080706747667e-05 -0.0009338427022977318 4.992976438261764e-05 1.423421498049824e-06 4.992976438261764e-05 -0.0006295679046065009" pbc="T T T"
Cs      12.51503253      12.75254919       0.03144019        0       0.03399659       0.03804989       0.02318391
Sn       3.13616531       3.16144081       3.23147438        1      -0.24183232      -0.24413819      -0.75101990
I        3.10065112       3.19703663       0.01560045        2       0.02971308      -0.00430957      -0.26829465
I        3.26757550      12.59196938       3.05024014        3       0.01149866      -0.13446594       0.00854474
I       12.56643320       3.02503634       3.05231312        4       0.14532895       0.05412433       0.04359568
Cs      12.60277228      12.52316407       6.22132775        5      -0.02776598       0.00922698      -0.01856956
Pb       3.17623267       2.95029555       9.33051032        6      -0.05319268       0.34496389       0.40305809
I        3.09824019       2.95896895       6.12969331        7      -0.03453898      -0.03155206       0.67756499
I        3.20826881      12.43894337       9.40090022        8      -0.03314657       0.78300212       0.01227973
I       12.50052635       3.05954780       9.64546821        9       0.50472101       0.02327704      -0.00269259
Cs      12.58257379       6.40879015      -0.11676002       10       0.02302266      -0.06352873      -0.00820274
Sn       3.11588183       9.36817327       3.09029337       11       0.01452979       0.27470817      -0.01261113
I        3.26764449       9.44570774      -0.04819555       12      -0.04631381      -0.04118445       0.43064353
I        3.14217200       6.26401178       3.27584041       13      -0.01914584       0.17014606       0.00836061
I       12.48091019       9.51681536       3.12718170       14       0.95166444      -0.06615125       0.01343470
Cs      12.56002017       6.35081914       6.22920368       15      -0.02946002       0.00162720       0.00830721
Sn       3.19939464       9.49474165       9.43442977       16      -0.09891706      -0.62553775       0.00430184
I        3.28143052       9.48147679       6.39744915       17      -0.01414901       0.01247393      -0.42199909
I        3.21369745       6.44093559       9.41770851       18      -0.01640869      -0.48538203      -0.03149018
I       12.61276885       9.33734380       9.45815568       19      -0.13549269       0.02637498       0.01144010
Cs       6.40626272      12.56997514      -0.02450893       20      -0.03399624       0.01197575       0.01099396
Sn       9.31381408       3.03148708       3.12328514       21       0.29719146       0.24673582       0.05550075
I        9.43237855       3.21159642       0.12899594       22      -0.05167425      -0.01530625      -0.39720597
I        9.65732392      12.59636123       3.07364030       23      -0.10913498      -0.20129281       0.01865324
I        6.27487351       3.22238917       3.19425972       24      -0.09844487      -0.04317586       0.02149136
Cs       6.33264907      12.63297623       6.30719629       25       0.01551013      -0.03684249      -0.00443773
Pb       9.48370792       3.12348376       9.40669159       26      -0.18184405      -0.04578954      -0.03108835
I        9.58906591       3.08567539       6.20312188       27      -0.00303498      -0.01077069       0.35800779
I        9.47224116      12.67558785       9.36978602       28      -0.02512697      -0.61013881       0.05989743
I        6.27845984       3.12083985       9.50887994       29      -0.18199749      -0.02627487      -0.03714047
Cs       6.26417843       6.34275682       0.09701145       30      -0.00942407      -0.02801948      -0.02947237
Sn       9.49872973       9.44603421       3.21515845       31      -0.15314781      -0.18476670       0.16471363
I        9.48354740       9.42895275       0.06122652       32       0.02334731      -0.00374646      -0.01179836
I        9.39384715       6.20436628       3.29410973       33       0.06735693       0.19806541      -0.01129820
I        6.54390406       9.41023497       3.09302906       34      -0.82652286       0.03095775       0.01215415
Cs       6.39479739       6.42871407       6.29143680       35       0.01346114       0.02327566       0.01629258
Sn       9.46653649       9.40817128       9.61423692       36       0.07160079       0.02359494      -0.24142617
I        9.42948434       9.43963425       6.41354117       37       0.00920539       0.00985792      -0.09358884
I        9.41324973       6.20569058       9.51256115       38      -0.01071003       0.60643385       0.00522363
I        6.26841257       9.48073218       9.55184516       39       0.22105153       0.00940688       0.00241440
