40
Lattice="12.588666260097362 0.0 0.0 0.006047083556273936 12.511792265255583 0.0 -0.005523843425661346 0.001368723038647581 12.661082096266794" Properties=species:S:1:pos:R:3:spacegroup_kinds:I:1:forces:R:3 spacegroup="P 1" unit_cell=conventional occupancy="_JSON {\"0\": {\"Cs\": 1.0}, \"1\": {\"Pb\": 1.0}, \"2\": {\"I\": 1.0}, \"3\": {\"I\": 1.0}, \"4\": {\"I\": 1.0}, \"5\": {\"Cs\": 1.0}, \"6\": {\"Pb\": 1.0}, \"7\": {\"I\": 1.0}, \"8\": {\"I\": 1.0}, \"9\": {\"I\": 1.0}, \"10\": {\"Cs\": 1.0}, \"11\": {\"Pb\": 1.0}, \"12\": {\"Br\": 1.0}, \"13\": {\"Br\": 1.0}, \"14\": {\"I\": 1.0}, \"15\": {\"Cs\": 1.0}, \"16\": {\"Pb\": 1.0}, \"17\": {\"I\": 1.0}, \"18\": {\"Br\": 1.0}, \"19\": {\"I\": 1.0}, \"20\": {\"Cs\": 1.0}, \"21\": {\"Pb\": 1.0}, \"22\": {\"I\": 1.0}, \"23\": {\"I\": 1.0}, \"24\": {\"Br\": 1.0}, \"25\": {\"Cs\": 1.0}, \"26\": {\"Pb\": 1.0}, \"27\": {\"I\": 1.0}, \"28\": {\"I\": 1.0}, \"29\": {\"I\": 1.0}, \"30\": {\"Cs\": 1.0}, \"31\": {\"Pb\": 1.0}, \"32\": {\"I\": 1.0}, \"33\": {\"Br\": 1.0}, \"34\": {\"I\": 1.0}, \"35\": {\"Cs\": 1.0}, \"36\": {\"Pb\": 1.0}, \"37\": {\"I\": 1.0}, \"38\": {\"I\": 1.0}, \"39\": {\"Br\": 1.0}}" candidate_id=4a169380bf18f863 formula=CsPbBr0.24I0.763 config_index=0 rattle_stdev=0.0 method=PBE fidelity=phase2_force energy=-116.68439481095578 stress="-0.00014896399800191972 -1.4740491504324312e-05 6.479043494677589e-06 -1.4740491504324312e-05 0.00039431249657347577 -1.916619903736827e-05 6.479043494677589e-06 -1.916619903736827e-05 -0.0006456119447090544" pbc="T T T"
Cs       0.04711045      12.47448969       0.01094074        0       0.00675660      -0.01503534      -0.00507866
Pb       3.25901378       3.24984917       3.15939334        1       0.00855867       0.02722688      -0.00560075
I        3.23486795       3.30919563       0.00727225        2      -0.00731561       0.00377952      -0.01273843
I        3.20973896      12.51069830       3.10234597        3      -0.00446241      -0.00100443       0.00122421
I        0.00263056       3.28237134       3.17644270        4      -0.00174507      -0.01059616       0.00189414
Cs       0.01499350      12.50748194       6.31482722        5      -0.00913983       0.00385775       0.00116313
Pb       3.15746780       3.25139793       9.50234742        6       0.01504675       0.00957055       0.00634543
I        3.22559202       3.27129893       6.32464068        7      -0.00525900      -0.00151735       0.01430809
I        3.23387173      12.50123234       9.58297360        8      -0.00606153      -0.01523196       0.00201734
I        0.00350982       3.17045997       9.48394300        9      -0.00737440      -0.00875866      -0.00436457
Cs       0.04164953       6.27738732       0.02184993       10       0.01621399       0.00686038       0.00428757
Pb       3.16415146       9.26070457       3.03837719       11       0.01178224      -0.02060262      -0.01449378
Br       3.19377727       9.29801214       0.01800842       12       0.00961525      -0.02661201      -0.01979457
Br       3.19039409       6.25837064       3.12404358       13       0.00747862      -0.00326021      -0.01382611
I        0.01058921       9.23701007       3.09057757       14      -0.01591489      -0.00017721       0.00068636
Cs       0.03801049       6.26483625       6.30746864       15       0.00351411      -0.00201155      -0.00844540
Pb       3.23892538       9.27513302       9.58987706       16      -0.00094356      -0.02211269       0.01500727
I        3.23205619       9.22829785       6.34643023       17      -0.01007163       0.01630921       0.00785568
Br       3.19057810       6.24860024       9.54721196       18       0.00960144       0.04456621       0.01752586
I        0.02244915       9.31327910       9.59247694       19       0.01714995       0.01005553      -0.00217482
Cs       6.26862947      12.49463415       0.01680050       20      -0.00323822      -0.00765838      -0.00382606
Pb       9.32939200       3.24379869       3.16526515       21      -0.00731761       0.02678783       0.00495019
I        9.35215533       3.21239067       0.00972452       22       0.00311375      -0.00910776      -0.01412037
I        9.37828575       0.00083346       3.17853424       23       0.00316389       0.01456346       0.00145462
Br       6.28934467       3.20923788       3.17002300       24       0.00162295       0.02521556       0.00498960
Cs       6.28044414      12.50777152       6.31936977       25       0.00553206       0.00662379       0.00361879
Pb       9.43208277       3.13779132       9.49788612       26      -0.01182765       0.00789275      -0.00223591
I        9.35693961       3.20204753       6.32222106       27       0.00224302      -0.00693708       0.01401352
I        9.39299653      12.50973233       9.48105182       28       0.00441664       0.00799154      -0.00459266
I        6.28601627       3.19787485       9.48841112       29       0.00716980      -0.01055844      -0.00668104
Cs       6.26421785       6.27260194       0.00957212       30      -0.01350942       0.00712886       0.00147825
Pb       9.43417439       9.26618857       3.16045972       31      -0.01007989      -0.01320825      -0.00194144
I        9.37591567       9.31747648       0.00041647       32       0.00392379       0.01399691      -0.00474271
Br       9.40313710       6.26501821       3.16890549       33      -0.00977163      -0.03400128       0.00682897
I        6.28982738       9.18867991       3.07147097       34       0.01572330      -0.00443759       0.00083548
Cs       6.26607228       6.26403880       6.31714385       35       0.00177390      -0.00584757      -0.00926445
Pb       9.30252191       9.37389052       9.50160810       36       0.00015345      -0.01270617       0.01164450
I        9.38921630       9.32646429       6.32733999       37       0.00555546       0.00881216       0.00084479
I        9.35917526       6.26215912       9.48908612       38       0.00487254      -0.00467459      -0.00767979
Br       6.30743944       9.35038499       9.54057497       39      -0.04145421      -0.00472255       0.01595706
40
Lattice="12.588666260097362 0.0 0.0 0.006047083556273936 12.511792265255583 0.0 -0.005523843425661346 0.001368723038647581 12.661082096266794" Properties=species:S:1:pos:R:3:spacegroup_kinds:I:1:forces:R:3 spacegroup="P 1" unit_cell=conventional occupancy="_JSON {\"0\": {\"Cs\": 1.0}, \"1\": {\"Pb\": 1.0}, \"2\": {\"I\": 1.0}, \"3\": {\"I\": 1.0}, \"4\": {\"I\": 1.0}, \"5\": {\"Cs\": 1.0}, \"6\": {\"Pb\": 1.0}, \"7\": {\"I\": 1.0}, \"8\": {\"I\": 1.0}, \"9\": {\"I\": 1.0}, \"10\": {\"Cs\": 1.0}, \"11\": {\"Pb\": 1.0}, \"12\": {\"Br\": 1.0}, \"13\": {\"Br\": 1.0}, \"14\": {\"I\": 1.0}, \"15\": {\"Cs\": 1.0}, \"16\": {\"Pb\": 1.0}, \"17\": {\"I\": 1.0}, \"18\": {\"Br\": 1.0}, \"19\": {\"I\": 1.0}, \"20\": {\"Cs\": 1.0}, \"21\": {\"Pb\": 1.0}, \"22\": {\"I\": 1.0}, \"23\": {\"I\": 1.0}, \"24\": {\"Br\": 1.0}, \"25\": {\"Cs\": 1.0}, \"26\": {\"Pb\": 1.0}, \"27\": {\"I\": 1.0}, \"28\": {\"I\": 1.0}, \"29\": {\"I\": 1.0}, \"30\": {\"Cs\": 1.0}, \"31\": {\"Pb\": 1.0}, \"32\": {\"I\": 1.0}, \"33\": {\"Br\": 1.0}, \"34\": {\"I\": 1.0}, \"35\": {\"Cs\": 1.0}, \"36\": {\"Pb\": 1.0}, \"37\": {\"I\": 1.0}, \"38\": {\"I\": 1.0}, \"39\": {\"Br\": 1.0}}" candidate_id=4a169380bf18f863 formula=CsPbBr0.24I0.763 config_index=1 rattle_stdev=0.08 method=PBE fidelity=phase2_force energy=-116.06367582465073 stress="-0.0016149060788427203 -2.0378432765380196e-05 1.237657796261901e-05 -2.0378432765380196e-05 -0.0005272059042479192 -0.0001466182610299091 1.237657796261901e-05 -0.0001466182610299091 -0.0030639060861374842" pbc="T T T"
Cs      -0.03980526      12.40280448      -0.01356321        0      -0.02905870       0.01462959       0.02304941
Pb       3.15181909       3.15332233       3.10805519        1       0.21953390       0.25272376       0.25623840
I        3.33950360       3.45683247       0.07360145        2      -0.08858814      -0.06581044      -0.10064351
I        3.20787505      12.49401319       3.02901639        3      -0.00905027       0.02309052      -0.00235016
I       -0.08334885       3.27547986       3.27050979        4       0.40985886      -0.01122560       0.01453679
Cs      -0.11581384      12.60573746       6.40093812        5       0.02361544       0.04515527      -0.04197216
Pb       3.18904962       3.22038186       9.54941956        6       0.05366324      -0.03292024      -0.07541216
I        3.11092811       3.24541296       6.42487946        7       0.02578498       0.01003118      -0.21162025
I        3.17541232      12.61551114       9.65854591        8      -0.01993135      -0.40739851       0.00264236
I       -0.01761040       3.15740291       9.40681442        9       0.15615820      -0.00703254       0.01470086
Cs       0.01423774       6.28129964      -0.01812063       10       0.00140369      -0.02500291       0.03029999
Pb       2.98719910       9.28549152       2.91120509       11       1.00466547      -0.24571661      -0.15386943
Br       3.25213364       9.28938004      -0.03400530       12      -0.05619840      -0.00598599      -0.01133301
Br       3.05494957       6.22889271       2.99681385       13       0.00088103       0.03984387       0.04795417
I        0.12902967       9.27496529       3.16368667       14      -1.01841248       0.01114027       0.07704220
Cs       0.11484811       6.27159965       6.44484711       15       0.01988749      -0.03979629      -0.01896971
Pb       3.30707680       9.21474219       9.40686672       16       0.22601713       0.06648302       0.26551327
I        3.24079528       9.19228520       6.31339244       17      -0.01676463       0.01049211      -0.03469973
Br       3.21609680       6.20531161       9.62310528       18      -0.01048266       0.39617786      -0.03542942
I        0.03456395       9.31943129       9.58772491       19       0.15594583       0.02746505      -0.01216949
Cs       6.26301838      12.44934223       0.04168093       20       0.01854436       0.00522938       0.01537936
Pb       9.38732871       3.28511469       3.24734761       21      -0.34394123      -0.17445741      -0.50662213
I        9.39376754       3.14280359       0.12976973       22       0.04347280       0.00320962      -0.48356763
I        9.47160352       0.04018662       3.11995326       23       0.00694187      -0.12041341       0.10508674
Br       6.34376915       3.24995763       3.10302010       24      -0.27412934       0.01245933       0.05942248
Cs       6.33225573      12.50877468       6.44413690       25      -0.02456372       0.00782066      -0.01527690
Pb       9.51485040       3.16480674       9.39367728       26      -0.23763708       0.29727787       0.36020287
I        9.26745606       3.30680874       6.28076370       27      -0.02692336      -0.04426191       0.46485559
I        9.36154659      12.59316981       9.48702904       28       0.00129108      -0.17418340      -0.01496750
I        6.29317123       3.20218744       9.52188688       29       0.03133186      -0.00928355      -0.00950986
Cs       6.16599945       6.18543861       0.03494207       30       0.05350488       0.03752233       0.04457890
Pb       9.37174195       9.19769809       3.05487000       31      -0.09205091       0.17244593       0.28829622
I        9.41221821       9.39761846       0.11351525       32       0.03613422       0.01065025      -0.45469655
Br       9.38792247       6.26742705       3.01903215       33       0.03548028       0.06264956       0.01292921
I        6.28048523       9.17848068       3.14364571       34       0.12726123       0.00492139       0.04209968
Cs       6.16092251       6.25607474       6.32838784       35       0.00621697      -0.03273940      -0.02067747
Pb       9.51282639       9.51435282       9.29075627       36      -0.27541973      -0.35009069       1.08648709
I        9.28628474       9.31272651       6.47137628       37      -0.01338949       0.02263423      -1.07381322
I        9.40787091       6.26468116       9.37177315       38       0.00784400       0.21221522       0.07326474
Br       6.33219470       9.44176242       9.49970744       39      -0.13217634       0.00153956      -0.00511181
40
Lattice="12.588666260097362 0.0 0.0 0.006047083556273936 12.511792265255583 0.0 -0.005523843425661346 0.001368723038647581 12.661082096266794" Properties=species:S:1:pos:R:3:spacegroup_kinds:I:1:forces:R:3 spacegroup="P 1" unit_cell=conventional occupancy="_JSON {\"0\": {\"Cs\": 1.0}, \"1\": {\"Pb\": 1.0}, \"2\": {\"I\": 1.0}, \"3\": {\"I\": 1.0}, \"4\": {\"I\": 1.0}, \"5\": {\"Cs\": 1.0}, \"6\": {\"Pb\": 1.0}, \"7\": {\"I\": 1.0}, \"8\": {\"I\": 1.0}, \"9\": {\"I\": 1.0}, \"10\": {\"Cs\": 1.0}, \"11\": {\"Pb\": 1.0}, \"12\": {\"Br\": 1.0}, \"13\": {\"Br\": 1.0}, \"14\": {\"I\": 1.0}, \"15\": {\"Cs\": 1.0}, \"16\": {\"Pb\": 1.0}, \"17\": {\"I\": 1.0}, \"18\": {\"Br\": 1.0}, \"19\": {\"I\": 1.0}, \"20\": {\"Cs\": 1.0}, \"21\": {\"Pb\": 1.0}, \"22\": {\"I\": 1.0}, \"23\": {\"I\": 1.0}, \"24\": {\"Br\": 1.0}, \"25\": {\"Cs\": 1.0}, \"26\": {\"Pb\": 1.0}, \"27\": {\"I\": 1.0}, \"28\": {\"I\": 1.0}, \"29\": {\"I\": 1.0}, \"30\": {\"Cs\": 1.0}, \"31\": {\"Pb\": 1.0}, \"32\": {\"I\": 1.0}, \"33\": {\"Br\": 1.0}, \"34\": {\"I\": 1.0}, \"35\": {\"Cs\": 1.0}, \"36\": {\"Pb\": 1.0}, \"37\": {\"I\": 1.0}, \"38\": {\"I\": 1.0}, \"39\": {\"Br\": 1.0}}" candidate_id=4a169380bf18f863 formula=CsPbBr0.24I0.763 config_index=2 rattle_stdev=0.08 method=PBE fidelity=phase2_force energy=-116.17559063889848 stress="-0.0014090010139467828 1.2625868301107337e-05 -9.32319619685937e-06 1.2625868301107337e-05 -0.0009286762221664024 -1.2141946907538571e-05 -9.32319619685937e-06 -1.2141946907538571e-05 -0.001491915692824302" pbc="T T T"
Cs       0.03809341      12.38836457       0.15374289        0       0.02313693      -0.01887076      -0.06486334
Pb       3.14245512       3.22374351       3.05860162        1       0.53321848       0.27520232       0.21879228
I        3.26493727       3.23894384      -0.02072581        2      -0.04044195       0.02748692      -0.08057332
I        3.23347177      12.60677126       2.97682635        3      -0.03373121      -0.54023112       0.02968498
I        0.15095286       3.32188828       3.16598579        4      -0.73152640      -0.00791010      -0.02567951
Cs      -0.01725616      12.42958896       6.27742987        5      -0.02064770      -0.00503685       0.05078136
Pb       3.10003408       3.34910939       9.44017142        6       0.43874247      -0.05649849       0.00852336
I        3.17850997       3.26668943       6.33100707        7       0.00854531      -0.08140762      -0.09908529
I        3.13921565      12.37733294       9.65595409        8       0.00879427       0.40256630       0.00369622
I        0.03652348       3.11479845       9.30084125        9      -0.18437073      -0.01100527       0.00756387
Cs      -0.02132980       6.19510598       0.02931458       10       0.03675123       0.02481596      -0.02923423
Pb       3.12181592       9.32312416       3.02231202       11       0.25372256      -0.22629574       0.03683871
Br       3.15532859       9.21519117      -0.02221033       12       0.01157430      -0.02858501       0.31207969
Br       3.25358531       6.18437083       3.30084641       13      -0.02349080       0.43471657      -0.08459422
I       -0.10142969       9.21788228       3.10796482       14       0.62972858       0.00409439       0.03371398
Cs       0.00981967       6.27170629       6.31600080       15       0.00596995       0.00698973       0.01401579
Pb       3.22316289       9.38288773       9.61749098       16      -0.02717904      -0.38008830      -0.06635725
I        3.27666774       9.18067504       6.40505681       17      -0.04487380       0.09335617      -0.27386606
Br       3.29707832       6.19019761       9.50835150       18      -0.02316354       0.06714602       0.03554477
I        0.10860229       9.10565050       9.60583120       19      -0.07569628       0.01873369      -0.00422519
Cs       6.35174625      12.34994824       0.07749177       20      -0.02914418       0.03117991      -0.04056331
Pb       9.28938298       3.05625524       3.15663174       21      -0.23175065       0.36009941       0.13206064
I        9.23193232       3.25149297      -0.03452976       22       0.05948336       0.02427286       0.17514589
I        9.46288635      -0.06871196       3.17252695       23       0.02197326       0.11388272      -0.00998710
Br       6.28077227       3.37714364       3.14277997       24       0.33030236      -0.10353061      -0.01848949
Cs       6.23821173      12.40420217       6.33649769       25       0.02046741      -0.00018803       0.03293559
Pb       9.52218434       3.16991419       9.55913294       26      -0.37181789      -0.05978944      -0.24078739
I        9.24868941       3.24795621       6.30461009       27       0.05224866      -0.07214785      -0.04189507
I        9.44461165      12.42935479       9.63303091       28       0.04856954       0.55629683       0.01694668
I        6.30336513       3.23787248       9.43828384       29       0.05376285      -0.08007927      -0.00114556
Cs       6.18398712       6.21009712       0.02591434       30      -0.02432172      -0.02627420       0.01856886
Pb       9.47706175       9.18018877       2.98303134       31      -0.46196712      -0.22903122       0.61075542
I        9.42767009       9.29168961      -0.01338866       32       0.02700660      -0.01560676      -0.01144192
Br       9.22006336       6.25605470       3.24533059       33       0.08422668      -0.09286373      -0.05828770
I        6.32620644       9.35363411       3.07646780       34      -0.39801753       0.05393610      -0.02700792
Cs       6.26629968       6.22775449       6.34702245       35      -0.00085215      -0.01791201      -0.03528899
Pb       9.23747263       9.36576592       9.53726515       36       0.18119280       0.09783594      -0.39660664
I        9.28720601       9.33509083       6.39551894       37       0.05470133       0.08843145      -0.22787535
I        9.34662709       6.35726466       9.37130505       38       0.07024595      -0.67871883       0.02334949
Br       6.37672271       9.27891383       9.49665732       39      -0.22969772       0.05054170       0.07615099
40
Lattice="12.588666260097362 0.0 0.0 0.006047083556273936 12.511792265255583 0.0 -0.005523843425661346 0.001368723038647581 12.661082096266794" Properties=species:S:1:pos:R:3:spacegroup_kinds:I:1:forces:R:3 spacegroup="P 1" unit_cell=conventional occupancy="_JSON {\"0\": {\"Cs\": 1.0}, \"1\": {\"Pb\": 1.0}, \"2\": {\"I\": 1.0}, \"3\": {\"I\": 1.0}, \"4\": {\"I\": 1.0}, \"5\": {\"Cs\": 1.0}, \"6\": {\"Pb\": 1.0}, \"7\": {\"I\": 1.0}, \"8\": {\"I\": 1.0}, \"9\": {\"I\": 1.0}, \"10\": {\"Cs\": 1.0}, \"11\": {\"Pb\": 1.0}, \"12\": {\"Br\": 1.0}, \"13\": {\"Br\": 1.0}, \"14\": {\"I\": 1.0}, \"15\": {\"Cs\": 1.0}, \"16\": {\"Pb\": 1.0}, \"17\": {\"I\": 1.0}, \"18\": {\"Br\": 1.0}, \"19\": {\"I\": 1.0}, \"20\": {\"Cs\": 1.0}, \"21\": {\"Pb\": 1.0}, \"22\": {\"I\": 1.0}, \"23\": {\"I\": 1.0}, \"24\": {\"Br\": 1.0}, \"25\": {\"Cs\": 1.0}, \"26\": {\"Pb\": 1.0}, \"27\": {\"I\": 1.0}, \"28\": {\"I\": 1.0}, \"29\": {\"I\": 1.0}, \"30\": {\"Cs\": 1.0}, \"31\": {\"Pb\": 1.0}, \"32\": {\"I\": 1.0}, \"33\": {\"Br\": 1.0}, \"34\": {\"I\": 1.0}, \"35\": {\"Cs\": 1.0}, \"36\": {\"Pb\": 1.0}, \"37\": {\"I\": 1.0}, \"38\": {\"I\": 1.0}, \"39\": {\"Br\": 1.0}}" candidate_id=4a169380bf18f863 formula=CsPbBr0.24I0.763 config_index=3 rattle_stdev=0.08 method=PBE fidelity=phase2_force energy=-115.97558197249559 stress="-0.0014475269008479826 9.9278503736255e-05 1.920138527815574e-05 9.9278503736255e-05 -0.0007898911474401975 6.305348957639587e-05 1.920138527815574e-05 6.305348957639587e-05 -0.0014485108001144429" pbc="T T T"
Cs      -0.05857303      12.63582992       0.01474589        0       0.02008118       0.05141089       0.02611088
Pb       3.24000009       3.25657899       3.23615672        1      -0.22952144      -0.22615722      -0.72709648
I        3.18034007       3.35152126      -0.05472120        2       0.00145888      -0.01011888      -0.07939731
I        3.32213546      12.49272387       2.99787512        3       0.00390633      -0.17939220       0.01401489
I       -0.05165226       3.15269668       3.07404482        4       0.13097638       0.03087165       0.03662528
Cs      -0.00295024      12.43943705       6.25436801        5      -0.03644458       0.02752921      -0.01433598
Pb       3.17852146       3.04698249       9.36872474        6      -0.04500806       0.36702715       0.45412841
I        3.16865320       3.07555689       6.22250590        7      -0.03335957      -0.02905651       0.43266937
I        3.28696154      12.39892562       9.51974082        8      -0.03339525       0.43488408       0.00205959
I       -0.11667984       3.07529677       9.66527821        9       0.52227303       0.01009637      -0.00021474
Cs       0.00350730       6.34912044      -0.12254513       10       0.03241459      -0.08099824      -0.01338798
Pb       3.12485429       9.16474484       2.97395957       11       0.13089104       0.24367948      -0.03024612
Br       3.30624276       9.27958689      -0.03908730       12      -0.02893784      -0.07377727       0.39561885
Br       3.17738709       6.20406024       3.24517300       13      -0.01017195       0.23120791       0.00747091
I       -0.12921662       9.28969244       3.06304827       14       1.13073629      -0.04436338      -0.01758324
Cs      -0.02268536       6.27859835       6.25488536       15      -0.02862831      -0.02016330      -0.00258332
Pb       3.28314102       9.30574168       9.56017383       16      -0.09400046      -0.56337158       0.06270838
I        3.35830770       9.24564165       6.44335756       17      -0.03310471       0.03292460      -0.44223368
Br       3.24909655       6.30251993       9.50078747       18      -0.00402164      -0.20891324      -0.02704997
I        0.01450198       9.18648991       9.58649963       19      -0.11988515       0.04423947      -0.01267936
Cs       6.36453418      12.47340033      -0.03534347       20      -0.03800233       0.00565840      -0.00442081
Pb       9.17766907       3.12057477       3.13383929       21       0.28060160       0.28540022       0.05772588
I        9.31899687       3.26927610       0.06112655       22      -0.03696032      -0.03240843      -0.20703499
I        9.57007266      -0.01274912       3.09746354       23      -0.06293991      -0.20772269       0.01294173
Br       6.25386017       3.27691605       3.20957172       24      -0.10387634      -0.00918035       0.03252594
Cs       6.30273520      12.54953879       6.34477911       25       0.01506379      -0.01842348       0.00632849
Pb       9.45025368       3.10656408       9.44044471       26      -0.17394799      -0.01800078       0.02623350
I        9.48046850       3.13301192       6.29351485       27       0.01197172      -0.00550749       0.10369930
I        9.39970068      12.64407010       9.38670484       28      -0.03507119      -1.08900068       0.04469267
I        6.25411810       3.16400371       9.53315807       29      -0.17204147      -0.03094844      -0.04899418
Cs       6.21803828       6.27830173       0.07894852       30      -0.02419012      -0.03980394      -0.05472915
Pb       9.46736711       9.24808979       3.22090717       31      -0.11824443      -0.17753819       0.24993715
I        9.39392606       9.28229623       0.05274282       32       0.03766582       0.01125174       0.03902115
Br       9.33144724       6.15106231       3.30830422       33       0.04914765       0.15878270       0.02173918
I        6.52337343       9.13478189       3.00978903       34      -1.18228869       0.01846103      -0.00251824
Cs       6.35051167       6.35569584       6.32679369       35       0.01976842      -0.01659045       0.00822464
Pb       9.30352139       9.31792880       9.65171203       36       0.06376069      -0.00801536      -0.28396130
I        9.35316363       9.30196555       6.44035933       37       0.01542042       0.02121186      -0.10721666
I        9.30688798       6.08083379       9.53751428       38      -0.02830358       1.09786123       0.00010766
Br       6.26549400       9.36698417       9.62828714       39       0.19047844       0.00692612       0.03603589
