40
Lattice="11.915586643142513 0.0 0.0 0.0 11.915586643142461 0.0 0.0 7.216599592504111e-14 11.915586643142452" Properties=species:S:1:pos:R:3:spacegroup_kinds:I:1:forces:R:3 spacegroup="P 1" unit_cell=conventional candidate_id=cf58e82fff579c2c formula=MAGe0.12Pb0.88Br3 config_index=0 rattle_stdev=0.0 method=PBE fidelity=phase2_force energy=-127.49401774079668 stress="0.00039290030864474313 7.157886757024592e-16 -7.157886757024643e-16 7.157886757024592e-16 0.00039290030864474687 -7.181682515405458e-16 -7.157886757024643e-16 -7.181682515405458e-16 0.0003929003086447472" pbc="T T T"
Cs      11.81318850      11.81318850       0.10239814        0       0.03540154       0.03540154      -0.03540154
Pb       2.97889666       2.97889666       2.97889666        1      -0.00000000      -0.00000000      -0.00000000
Br       2.97889666       2.97889666       0.01008823        2       0.00000000       0.00000000       0.01276505
Br       2.97889666      11.90131445       2.97889666        3      -0.00000000      -0.00226512      -0.00000000
Br      11.90131445       2.97889666       2.97889666        4      -0.00226512      -0.00000000      -0.00000000
Cs      11.81318850      11.81318850       5.85539518        5       0.03540154       0.03540154       0.03540154
Pb       2.97889666       2.97889666       8.93668998        6      -0.00000000      -0.00000000       0.00000000
Br       2.97889666       2.97889666       5.94770509        7       0.00000000       0.00000000      -0.01276505
Br       2.97889666      11.90549841       8.93668998        8       0.00000000      -0.01276505      -0.00000000
Br      11.90549841       2.97889666       8.93668998        9      -0.01276505       0.00000000      -0.00000000
Cs      11.81318850       6.06019146       0.10239814       10       0.03540154      -0.03540154      -0.03540154
Pb       2.97889666       8.93668998       2.97889666       11      -0.00000000      -0.00000000       0.00000000
Br       2.97889666       8.93668998       0.01427219       12      -0.00000000       0.00000000       0.00226512
Br       2.97889666       5.97206551       2.97889666       13       0.00000000       0.00226512      -0.00000000
Br      11.78302218       8.93668998       2.97889666       14       0.01893885       0.00000000      -0.00000000
Cs      11.81318850       6.06019146       5.85539518       15       0.03540154      -0.03540154       0.03540154
Pb       2.97889666       8.93668998       8.93668998       16      -0.00000000       0.00000000       0.00000000
Br       2.97889666       8.93668998       5.94352113       17       0.00000000       0.00000000      -0.00226512
Br       2.97889666       5.96788155       8.93668998       18       0.00000000       0.01276505      -0.00000000
Br      11.90131445       8.93668998       8.93668998       19      -0.00226512       0.00000000       0.00000000
Cs       6.06019146      11.81318850       0.10239814       20      -0.03540154       0.03540154      -0.03540154
Pb       8.93668998       2.97889666       2.97889666       21      -0.00000000      -0.00000000       0.00000000
Br       8.93668998       2.97889666       0.01427219       22       0.00000000      -0.00000000       0.00226512
Br       8.93668998      11.78302218       2.97889666       23       0.00000000       0.01893885      -0.00000000
Br       5.97206551       2.97889666       2.97889666       24       0.00226512       0.00000000      -0.00000000
Cs       6.06019146      11.81318850       5.85539518       25      -0.03540154       0.03540154       0.03540154
Pb       8.93668998       2.97889666       8.93668998       26       0.00000000      -0.00000000       0.00000000
Br       8.93668998       2.97889666       5.94352113       27       0.00000000       0.00000000      -0.00226512
Br       8.93668998      11.90131445       8.93668998       28       0.00000000      -0.00226512       0.00000000
Br       5.96788155       2.97889666       8.93668998       29       0.01276505       0.00000000      -0.00000000
Cs       6.06019146       6.06019146       0.10239814       30      -0.03540154      -0.03540154      -0.03540154
Ge       8.93668998       8.93668998       2.97889666       31      -0.00000000      -0.00000000       0.00000000
Br       8.93668998       8.93668998       0.13256446       32       0.00000000       0.00000000      -0.01893885
Br       8.93668998       6.09035779       2.97889666       33       0.00000000      -0.01893885      -0.00000000
Br       6.09035779       8.93668998       2.97889666       34      -0.01893885       0.00000000      -0.00000000
Cs       6.06019146       6.06019146       5.85539518       35      -0.03540154      -0.03540154       0.03540154
Pb       8.93668998       8.93668998       8.93668998       36      -0.00000000      -0.00000000       0.00000000
Br       8.93668998       8.93668998       5.82522886       37       0.00000000       0.00000000       0.01893885
Br       8.93668998       5.97206551       8.93668998       38       0.00000000       0.00226512      -0.00000000
Br       5.97206551       8.93668998       8.93668998       39       0.00226512       0.00000000      -0.00000000
40
Lattice="11.915586643142513 0.0 0.0 0.0 11.915586643142461 0.0 0.0 7.216599592504111e-14 11.915586643142452" Properties=species:S:1:pos:R:3:spacegroup_kinds:I:1:forces:R:3 spacegroup="P 1" unit_cell=conventional occupancy="_JSON {\"0\": {\"Cs\": 1.0}, \"1\": {\"Pb\": 1.0}, \"2\": {\"Br\": 1.0}, \"3\": {\"Br\": 1.0}, \"4\": {\"Br\": 1.0}, \"5\": {\"Cs\": 1.0}, \"6\": {\"Pb\": 1.0}, \"7\": {\"Br\": 1.0}, \"8\": {\"Br\": 1.0}, \"9\": {\"Br\": 1.0}, \"10\": {\"Cs\": 1.0}, \"11\": {\"Pb\": 1.0}, \"12\": {\"Br\": 1.0}, \"13\": {\"Br\": 1.0}, \"14\": {\"Br\": 1.0}, \"15\": {\"Cs\": 1.0}, \"16\": {\"Pb\": 1.0}, \"17\": {\"Br\": 1.0}, \"18\": {\"Br\": 1.0}, \"19\": {\"Br\": 1.0}, \"20\": {\"Cs\": 1.0}, \"21\": {\"Pb\": 1.0}, \"22\": {\"Br\": 1.0}, \"23\": {\"Br\": 1.0}, \"24\": {\"Br\": 1.0}, \"25\": {\"Cs\": 1.0}, \"26\": {\"Pb\": 1.0}, \"27\": {\"Br\": 1.0}, \"28\": {\"Br\": 1.0}, \"29\": {\"Br\": 1.0}, \"30\": {\"Cs\": 1.0}, \"31\": {\"Ge\": 1.0}, \"32\": {\"Br\": 1.0}, \"33\": {\"Br\": 1.0}, \"34\": {\"Br\": 1.0}, \"35\": {\"Cs\": 1.0}, \"36\": {\"Pb\": 1.0}, \"37\": {\"Br\": 1.0}, \"38\": {\"Br\": 1.0}, \"39\": {\"Br\": 1.0}}" candidate_id=cf58e82fff579c2c formula=MAGe0.12Pb0.88Br3 config_index=1 rattle_stdev=0.08 method=PBE fidelity=phase2_force energy=-127.01132740887641 stress="-0.001683062241893268 9.449731022838599e-05 -6.25632026661528e-05 9.449731022838599e-05 -0.0006094708643656989 -5.251485908482262e-05 -6.25632026661528e-05 -5.251485908482262e-05 -0.0019928698625522796" pbc="T T T"
Cs      11.72627279      11.74150329       0.07789419        0       0.02709417       0.09600972       0.00680497
Pb       2.87170197       2.88236981       2.92755852        1       0.34181788       0.33412057       0.28541119
Br       3.08353231       3.12653350       0.07641743        2      -0.05607806      -0.03225937      -0.05919918
Br       2.97703276      11.88462934       2.90556708        3       0.00206930       0.01844569      -0.01657815
Br      11.81533505       2.97200518       3.07296374        4       0.59767966      -0.01457054       0.01152780
Cs      11.68238116      11.91144402       5.94150608        5       0.08724410       0.06694303      -0.03389723
Pb       3.01047849       2.94788060       8.98376212        6       0.09775069       0.06437246      -0.12205048
Br       2.86423276       2.95301069       6.04794387        7       0.03167566       0.02109550      -0.22515776
Br       2.92043725      12.01977722       9.01226229        8      -0.01856415      -0.57959247       0.00497682
Br      11.88437819       2.96583960       8.85956140        9       0.13694531       0.00211207       0.00585958
Cs      11.78577671       6.06410379       0.06242758       10       0.03620430      -0.07653556      -0.00821765
Pb       2.80194430       8.96147693       2.85172456       11       0.40289016      -0.30977009       0.01055388
Br       3.03725303       8.92805788      -0.03774153       12      -0.04132829       0.02005944      -0.07967108
Br       2.84345214       5.94258759       2.85166692       13      -0.00890326       0.02119240       0.06426510
Br      11.90146265       8.97464520       3.05200577       14      -0.39706439      -0.00855887      -0.00150764
Cs      11.89002612       6.06695487       5.99277365       15       0.04898214      -0.07756855      -0.01072327
Pb       3.04704808       8.87629916       8.75367964       16       0.24712010       0.12159459       0.40866293
Br       2.98763576       8.90067733       5.91048334       17       0.00039538      -0.01966230      -0.15750010
Br       3.00441536       5.92459292       9.01258330       18      -0.02227082       0.40664719      -0.06090290
Br      11.91342926       8.94284218       8.93193795       19       0.45405633       0.00886109      -0.00013868
Cs       6.05458037      11.76789658       0.12727857       20      -0.01997438       0.07529516      -0.00670486
Pb       8.99462669       3.02021266       3.06097912       21      -0.54365070      -0.19496053      -0.59104818
Br       8.97830219       2.90930958       0.13431740       22       0.05853870       0.02409921      -0.45882856
Br       9.03000775      11.82237534       2.92031568       23      -0.03702120      -0.05809824       0.12347972
Br       6.02649000       3.01961641       2.91189376       24      -0.38097069      -0.01185614       0.06430984
Cs       6.11200305      11.81419166       5.98016231       25      -0.06578959       0.04927981      -0.01330707
Pb       9.01945761       3.00591207       8.83248115       26      -0.27840705       0.28569740       0.42320996
Br       8.84720644       3.08365787       5.90206377       27      -0.01735375      -0.03520803       0.51757378
Br       8.90524004      11.98475193       8.94266720       28       0.04388038      -0.16958483      -0.05463693
Br       5.97503652       2.98320925       8.97016574       29       0.00777791      -0.00791896      -0.02752778
Cs       5.96197306       5.97302814       0.12776809       30      -0.03505583      -0.06406739      -0.02026203
Ge       8.87425754       8.86819950       2.87330695       31      -0.28862812       0.13901749      -0.15792761
Br       8.97299251       9.01683197       0.24566324       32      -0.02631429      -0.06985489       0.06809133
Br       8.92147535       6.09276663       2.82902332       33       0.02839940       0.18959510       0.04035202
Br       6.08101563       8.92649076       3.05107140       34       0.35545707      -0.00883268      -0.06057788
Cs       5.95504169       6.05222741       5.86663917       35      -0.02519538      -0.05565817       0.02049634
Pb       9.14699446       9.07715229       8.72583816       36      -0.80924660      -0.39507862       0.40760868
Br       8.83375842       8.92295221       5.96926515       37       0.10099229       0.04813418      -0.34412370
Br       8.98538563       5.97458756       8.81937701       38       0.03628072       0.19600206       0.03650098
Br       5.99682077       9.02806741       8.89582245       39      -0.05462805      -0.00542604      -0.00446761
40
Lattice="11.915586643142513 0.0 0.0 0.0 11.915586643142461 0.0 0.0 7.216599592504111e-14 11.915586643142452" Properties=species:S:1:pos:R:3:spacegroup_kinds:I:1:forces:R:3 spacegroup="P 1" unit_cell=conventional occupancy="_JSON {\"0\": {\"Cs\": 1.0}, \"1\": {\"Pb\": 1.0}, \"2\": {\"Br\": 1.0}, \"3\": {\"Br\": 1.0}, \"4\": {\"Br\": 1.0}, \"5\": {\"Cs\": 1.0}, \"6\": {\"Pb\": 1.0}, \"7\": {\"Br\": 1.0}, \"8\": {\"Br\": 1.0}, \"9\": {\"Br\": 1.0}, \"10\": {\"Cs\": 1.0}, \"11\": {\"Pb\": 1.0}, \"12\": {\"Br\": 1.0}, \"13\": {\"Br\": 1.0}, \"14\": {\"Br\": 1.0}, \"15\": {\"Cs\": 1.0}, \"16\": {\"Pb\": 1.0}, \"17\": {\"Br\": 1.0}, \"18\": {\"Br\": 1.0}, \"19\": {\"Br\": 1.0}, \"20\": {\"Cs\": 1.0}, \"21\": {\"Pb\": 1.0}, \"22\": {\"Br\": 1.0}, \"23\": {\"Br\": 1.0}, \"24\": {\"Br\": 1.0}, \"25\": {\"Cs\": 1.0}, \"26\": {\"Pb\": 1.0}, \"27\": {\"Br\": 1.0}, \"28\": {\"Br\": 1.0}, \"29\": {\"Br\": 1.0}, \"30\": {\"Cs\": 1.0}, \"31\": {\"Ge\": 1.0}, \"32\": {\"Br\": 1.0}, \"33\": {\"Br\": 1.0}, \"34\": {\"Br\": 1.0}, \"35\": {\"Cs\": 1.0}, \"36\": {\"Pb\": 1.0}, \"37\": {\"Br\": 1.0}, \"38\": {\"Br\": 1.0}, \"39\": {\"Br\": 1.0}}" candidate_id=cf58e82fff579c2c formula=MAGe0.12Pb0.88Br3 config_index=2 rattle_stdev=0.08 method=PBE fidelity=phase2_force energy=-126.88940831336207 stress="-0.0011299857932100374 7.18782430504528e-05 3.3408104640223e-05 7.18782430504528e-05 -0.0015456135855006678 -0.00011211410754996606 3.3408104640223e-05 -0.00011211410754996606 -0.0005062842541579904" pbc="T T T"
Cs      11.80417146      11.72706338       0.24520030        0       0.07389734       0.04201586      -0.13722245
Pb       2.86233800       2.95279100       2.87810494        1       0.85623581       0.32037159       0.20488821
Br       3.00896598       2.90864487      -0.01790983        2      -0.06161087       0.04992500      -0.06153226
Br       3.00262948      11.99738741       2.85337704        3      -0.02323010      -0.67826249       0.03746127
Br      12.04963675       3.01841361       2.96843975        4      -1.09516692       0.01370856      -0.03175902
Cs      11.78093884      11.73529552       5.81799784        5       0.01780435       0.02740393       0.12576357
Pb       2.92146294       3.07660813       8.87451398        6       0.43937809      -0.15188222      -0.02078813
Br       2.93181461       2.97428715       5.95407148        7       0.00073755      -0.08805690      -0.10469911
Br       2.88424058      11.78159902       9.00967048        8      -0.01469038       0.63637095      -0.00358583
Br      11.93851207       2.92323514       8.75358823        9      -0.17848871       0.02612049       0.02684422
Cs      11.75020918       5.97791013       0.10986279       10       0.06479359      -0.00926736      -0.05889812
Pb       2.93656113       8.99910957       2.96283149       11       0.23315824      -0.26947709       0.10543912
Br       2.94044797       8.85386901      -0.02594656       12       0.00520509      -0.03455375       0.46262129
Br       3.04208788       5.89806570       3.15569949       13      -0.04611311       0.55698186      -0.08481697
Br      11.67100328       8.91756219       2.99628392       14       0.41253233      -0.04469338      -0.02290307
Cs      11.78499768       6.06706151       5.86392734       15       0.02804382      -0.02658148       0.06827205
Pb       2.96313416       9.04444469       8.96430390       16       0.00633289      -0.54876356      -0.14633480
Br       3.02350821       8.88906717       6.00214771       17      -0.03215432       0.09240955      -0.41734850
Br       3.08539688       5.90947892       8.89782952       18      -0.02448624       0.06661482       0.03916607
Br      11.98746759       8.72906139       8.95004424       19      -0.17379601       0.00895389      -0.00197972
Cs       6.14330824      11.66850259       0.16308942       20      -0.07858599       0.10108827      -0.08349802
Pb       8.89668096       2.79135321       2.97026325       21      -0.20826279       0.22751994       0.17153882
Br       8.81646697       3.01799895      -0.02998209       22       0.08028232       0.03369265       0.22427554
Br       9.02129058      11.71347675       2.97288937       23      -0.00288422       0.25936143      -0.03655816
Br       5.96349311       3.14680242       2.95165363       24       0.37357258      -0.13013536      -0.01478072
Cs       6.01795906      11.70961915       5.87252310       25      -0.01158189       0.05598622       0.07066442
Pb       9.02679155       3.01101953       8.99793681       26      -0.42764417      -0.07361286      -0.32183788
Br       8.82843979       3.02480534       5.92591016       27       0.05809163      -0.07871687      -0.09154181
Br       8.98830510      11.82093691       9.08866907       28       0.02705490       0.52256989       0.02173825
Br       5.98523042       3.01889429       8.88656270       29       0.09797949      -0.04704236       0.00386128
Cs       5.97996073       5.99768665       0.11874036       30      -0.06537332      -0.08554602      -0.03023907
Ge       8.97957734       8.85069019       2.80146828       31      -0.31664389      -0.23260878       0.38158240
Br       8.98844440       8.91090312       0.11875933       32       0.00153144      -0.06064499       0.15152807
Br       8.75361624       6.08139428       3.05532177       33       0.15594009       0.04751375      -0.14318257
Br       6.12673684       9.10164418       2.98389350       34      -0.36992533      -0.02774115      -0.09023990
Cs       6.06041886       6.02390716       5.88527378       35      -0.04686042      -0.05913249       0.04329106
Pb       8.87164070       8.92856538       8.97234704       36       0.34976454       0.08400523      -0.44275352
Br       8.83467969       8.94531653       5.89340781       37       0.08813517       0.05824089       0.06344911
Br       8.92414182       6.06717105       8.81890891       38       0.05578462      -0.62203883       0.06338283
Br       6.04134878       8.86521882       8.89277233       39      -0.25392878       0.05260436       0.07376769
40
Lattice="11.915586643142513 0.0 0.0 0.0 11.915586643142461 0.0 0.0 7.216599592504111e-14 11.915586643142452" Properties=species:S:1:pos:R:3:spacegroup_kinds:I:1:forces:R:3 spacegroup="P 1" unit_cell=conventional occupancy="_JSON {\"0\": {\"Cs\": 1.0}, \"1\": {\"Pb\": 1.0}, \"2\": {\"Br\": 1.0}, \"3\": {\"Br\": 1.0}, \"4\": {\"Br\": 1.0}, \"5\": {\"Cs\": 1.0}, \"6\": {\"Pb\": 1.0}, \"7\": {\"Br\": 1.0}, \"8\": {\"Br\": 1.0}, \"9\": {\"Br\": 1.0}, \"10\": {\"Cs\": 1.0}, \"11\": {\"Pb\": 1.0}, \"12\": {\"Br\": 1.0}, \"13\": {\"Br\": 1.0}, \"14\": {\"Br\": 1.0}, \"15\": {\"Cs\": 1.0}, \"16\": {\"Pb\": 1.0}, \"17\": {\"Br\": 1.0}, \"18\": {\"Br\": 1.0}, \"19\": {\"Br\": 1.0}, \"20\": {\"Cs\": 1.0}, \"21\": {\"Pb\": 1.0}, \"22\": {\"Br\": 1.0}, \"23\": {\"Br\": 1.0}, \"24\": {\"Br\": 1.0}, \"25\": {\"Cs\": 1.0}, \"26\": {\"Pb\": 1.0}, \"27\": {\"Br\": 1.0}, \"28\": {\"Br\": 1.0}, \"29\": {\"Br\": 1.0}, \"30\": {\"Cs\": 1.0}, \"31\": {\"Ge\": 1.0}, \"32\": {\"Br\": 1.0}, \"33\": {\"Br\": 1.0}, \"34\": {\"Br\": 1.0}, \"35\": {\"Cs\": 1.0}, \"36\": {\"Pb\": 1.0}, \"37\": {\"Br\": 1.0}, \"38\": {\"Br\": 1.0}, \"39\": {\"Br\": 1.0}}" candidate_id=cf58e82fff579c2c formula=MAGe0.12Pb0.88Br3 config_index=3 rattle_stdev=0.08 method=PBE fidelity=phase2_force energy=-126.73850690833986 stress="-0.0013398988648416206 0.000252571187923807 4.033128920981361e-05 0.000252571187923807 -0.001371531125544069 -1.3270727626403948e-05 4.033128920981361e-05 -1.3270727626403948e-05 -0.0006689693086192948" pbc="T T T"
Cs      11.70750502      11.97452873       0.10620330        0       0.08999564       0.09941567      -0.03716337
Pb       2.95988297       2.98562647       3.05566004        1      -0.29540752      -0.30777316      -0.80619355
Br       2.92436878       3.02122229      -0.05190523        2       0.03546937      -0.01877725      -0.08192082
Br       3.09129316      11.88334001       2.87442581        3       0.02648638      -0.23106707       0.01688946
Br      11.84703164       2.84922200       2.87649878        4       0.11655110       0.04199355       0.04917317
Cs      11.79524476      11.74514362       5.79493597        5       0.00399190       0.06800993       0.02836006
Pb       2.99995032       2.77448122       8.80306731        6      -0.02953214       0.56854133       0.54542430
Br       2.92195785       2.78315461       5.84557031        7      -0.02885656      -0.05341020       0.43165407
Br       3.03198647      11.80319169       8.87345721        8      -0.00735012       0.53295378      -0.00204297
Br      11.78530875       2.88373346       9.11802519        9       0.51752761       0.00045771      -0.01104171
Cs      11.77504627       6.13192459      -0.04199692       10       0.05386113      -0.14089444      -0.03761385
Pb       2.93959949       8.84073026       2.91447903       11      -0.02850015       0.37148709       0.05660161
Br       3.09136215       8.91826473      -0.04282353       12      -0.02422478      -0.04899672       0.53872020
Br       2.96588966       5.91775512       3.10002608       13      -0.01340219       0.26061657       0.01940984
Br      11.64321635       8.98937235       2.95136736       14       0.92640984      -0.11497817       0.02718170
Cs      11.75249265       6.07395357       5.80281190       15      -0.00345713      -0.04954871       0.04685264
Pb       3.02311230       8.96729864       8.90698675       16      -0.20025303      -0.67702059       0.08373122
Br       3.10514818       8.95403378       6.04044846       17       0.00153957       0.01626629      -0.67740723
Br       3.03741511       6.02180124       8.89026549       18      -0.01584707      -0.34151660      -0.04882880
Br      11.89336728       8.80990079       8.93071267       19      -0.16122829       0.01754622       0.01023222
Cs       6.15609617      11.79195468       0.05025417       20      -0.07898029       0.05916019      -0.02743850
Pb       8.78496705       2.85567274       2.94747080       21       0.51749959       0.22193015       0.06301610
Br       8.90353152       3.03578208       0.06567422       22      -0.06006015      -0.03104337      -0.21204796
Br       9.12847689      11.76943959       2.89782597       23      -0.18528291      -0.14943738       0.05373992
Br       5.93658102       3.04657484       3.01844538       24      -0.21868863      -0.01655793       0.03464135
Cs       6.08248252      11.85495577       5.88080451       25      -0.01945805      -0.00066459       0.03657760
Pb       8.95486089       2.94766942       8.87924857       26      -0.18662313      -0.01362464       0.05970438
Br       9.06021888       2.90986105       5.91481492       27      -0.00552335      -0.00171955       0.08955985
Br       8.94339413      12.03565222       8.84234300       28      -0.02639538      -1.03256219       0.06398172
Br       5.93598338       2.94502552       8.98143693       29      -0.24190645      -0.06513446      -0.05864455
Cs       6.01401189       6.06589126       0.17177455       30      -0.03291654      -0.09310607      -0.08815640
Ge       8.96988270       8.91859120       3.03934411       31      -0.18213353      -0.15188550       0.08011286
Br       8.95470037       8.90150974       0.18489081       32       0.02683874      -0.01078411      -0.10735214
Br       8.86500012       5.97640189       3.11829539       33       0.08570795       0.14445556      -0.03557184
Br       6.32390383       8.88279196       2.91721472       34      -0.75042771       0.06477382       0.03698562
Cs       6.14463085       6.15184851       5.86504502       35      -0.03245435      -0.03197037       0.07015129
Pb       8.93768946       8.88072827       9.08679391       36       0.04176265       0.02333338      -0.20788096
Br       8.90063731       8.91219124       5.93824821       37       0.02608091       0.03015127      -0.02666658
Br       8.88440270       5.79074019       8.98511814       38      -0.00213400       1.02656943       0.00557936
Br       5.93012007       8.95328916       9.02440215       39       0.33922301       0.02027715       0.01354425
