Cs Pb I  Cs Pb I  Cs Pb I  Cs Pb I  Cs Pb I  Cs Pb I  Cs Ge I  Cs Pb I 
 1.0000000000000000
    13.3259929768854359    0.0000000000000000    0.0000000000000000
     0.0000000000000000   13.3259929768854359    0.0000000000000000
     0.0000000000000000    0.0000000000000000   13.3259929768854359
 Cs  Pb  I   Cs  Pb  I   Cs  Pb  I   Cs  Pb  I   Cs  Pb  I   Cs  Pb  I   Cs  Ge  I   Cs  Pb  I  
   1   1   3   1   1   3   1   1   3   1   1   3   1   1   3   1   1   3   1   1   3   1   1   3
Cartesian
  0.0000000000000000  0.0000000000000000  0.0000000000000000
  3.3314982442213581  3.3314982442213581  3.3314982442213581
  3.3314982442213581  3.3314982442213581  0.0000000000000000
  3.3314982442213581  0.0000000000000000  3.3314982442213581
  0.0000000000000000  3.3314982442213581  3.3314982442213581
  0.0000000000000000  0.0000000000000000  6.6629964884427171
  3.3314982442213581  3.3314982442213581  9.9944947326640747
  3.3314982442213581  3.3314982442213581  6.6629964884427171
  3.3314982442213581  0.0000000000000000  9.9944947326640747
  0.0000000000000000  3.3314982442213581  9.9944947326640747
  0.0000000000000000  6.6629964884427171  0.0000000000000000
  3.3314982442213581  9.9944947326640747  3.3314982442213581
  3.3314982442213581  9.9944947326640747  0.0000000000000000
  3.3314982442213581  6.6629964884427171  3.3314982442213581
  0.0000000000000000  9.9944947326640747  3.3314982442213581
  0.0000000000000000  6.6629964884427171  6.6629964884427171
  3.3314982442213581  9.9944947326640747  9.9944947326640747
  3.3314982442213581  9.9944947326640747  6.6629964884427171
  3.3314982442213581  6.6629964884427171  9.9944947326640747
  0.0000000000000000  9.9944947326640747  9.9944947326640747
  6.6629964884427171  0.0000000000000000  0.0000000000000000
  9.9944947326640747  3.3314982442213581  3.3314982442213581
  9.9944947326640747  3.3314982442213581  0.0000000000000000
  9.9944947326640747  0.0000000000000000  3.3314982442213581
  6.6629964884427171  3.3314982442213581  3.3314982442213581
  6.6629964884427171  0.0000000000000000  6.6629964884427171
  9.9944947326640747  3.3314982442213581  9.9944947326640747
  9.9944947326640747  3.3314982442213581  6.6629964884427171
  9.9944947326640747  0.0000000000000000  9.9944947326640747
  6.6629964884427171  3.3314982442213581  9.9944947326640747
  6.6629964884427171  6.6629964884427171  0.0000000000000000
  9.9944947326640747  9.9944947326640747  3.3314982442213581
  9.9944947326640747  9.9944947326640747  0.0000000000000000
  9.9944947326640747  6.6629964884427171  3.3314982442213581
  6.6629964884427171  9.9944947326640747  3.3314982442213581
  6.6629964884427171  6.6629964884427171  6.6629964884427171
  9.9944947326640747  9.9944947326640747  9.9944947326640747
  9.9944947326640747  9.9944947326640747  6.6629964884427171
  9.9944947326640747  6.6629964884427171  9.9944947326640747
  6.6629964884427171  9.9944947326640747  9.9944947326640747
