K  Sn I  K  Sn I  K  Ge I  K  Ge I  K  Ge I  K  Sn I  K  Ge I  K  Ge I 
 1.0000000000000000
    12.4122695942361787    0.0000000000000000    0.0000000000000000
     0.0000000000000000   12.4122695942361787    0.0000000000000000
     0.0000000000000000    0.0000000000000000   12.4122695942361787
 K   Sn  I   K   Sn  I   K   Ge  I   K   Ge  I   K   Ge  I   K   Sn  I   K   Ge  I   K   Ge  I  
   1   1   3   1   1   3   1   1   3   1   1   3   1   1   3   1   1   3   1   1   3   1   1   3
Cartesian
  0.0000000000000000  0.0000000000000000  0.0000000000000000
  3.1030673985590447  3.1030673985590447  3.1030673985590447
  3.1030673985590447  3.1030673985590447  0.0000000000000000
  3.1030673985590447  0.0000000000000000  3.1030673985590447
  0.0000000000000000  3.1030673985590447  3.1030673985590447
  0.0000000000000000  0.0000000000000000  6.2061347971180885
  3.1030673985590447  3.1030673985590447  9.3092021956771340
  3.1030673985590447  3.1030673985590447  6.2061347971180885
  3.1030673985590447  0.0000000000000000  9.3092021956771340
  0.0000000000000000  3.1030673985590447  9.3092021956771340
  0.0000000000000000  6.2061347971180885  0.0000000000000000
  3.1030673985590447  9.3092021956771340  3.1030673985590447
  3.1030673985590447  9.3092021956771340  0.0000000000000000
  3.1030673985590447  6.2061347971180885  3.1030673985590447
  0.0000000000000000  9.3092021956771340  3.1030673985590447
  0.0000000000000000  6.2061347971180885  6.2061347971180885
  3.1030673985590447  9.3092021956771340  9.3092021956771340
  3.1030673985590447  9.3092021956771340  6.2061347971180885
  3.1030673985590447  6.2061347971180885  9.3092021956771340
  0.0000000000000000  9.3092021956771340  9.3092021956771340
  6.2061347971180885  0.0000000000000000  0.0000000000000000
  9.3092021956771340  3.1030673985590447  3.1030673985590447
  9.3092021956771340  3.1030673985590447  0.0000000000000000
  9.3092021956771340  0.0000000000000000  3.1030673985590447
  6.2061347971180885  3.1030673985590447  3.1030673985590447
  6.2061347971180885  0.0000000000000000  6.2061347971180885
  9.3092021956771340  3.1030673985590447  9.3092021956771340
  9.3092021956771340  3.1030673985590447  6.2061347971180885
  9.3092021956771340  0.0000000000000000  9.3092021956771340
  6.2061347971180885  3.1030673985590447  9.3092021956771340
  6.2061347971180885  6.2061347971180885  0.0000000000000000
  9.3092021956771340  9.3092021956771340  3.1030673985590447
  9.3092021956771340  9.3092021956771340  0.0000000000000000
  9.3092021956771340  6.2061347971180885  3.1030673985590447
  6.2061347971180885  9.3092021956771340  3.1030673985590447
  6.2061347971180885  6.2061347971180885  6.2061347971180885
  9.3092021956771340  9.3092021956771340  9.3092021956771340
  9.3092021956771340  9.3092021956771340  6.2061347971180885
  9.3092021956771340  6.2061347971180885  9.3092021956771340
  6.2061347971180885  9.3092021956771340  9.3092021956771340
