Cs Pb I  Cs Pb I  Cs Pb Cl Br I  Cs Pb I  Br I  Cs Pb I  Cl Cs Pb I  Br Cs Pb I  Cl Br Cs Pb I  Br
 1.0000000000000000
    13.1230533306848987    0.0000000000000000    0.0000000000000000
     0.0000000000000000   13.1230533306848987    0.0000000000000000
     0.0000000000000000    0.0000000000000000   13.1230533306848987
 Cs  Pb  I   Cs  Pb  I   Cs  Pb  Cl  Br  I   Cs  Pb  I   Br  I   Cs  Pb  I   Cl  Cs  Pb  I   Br  Cs  Pb  I   Cl  Br  Cs  Pb  I   Br 
   1   1   3   1   1   3   1   1   1   1   1   1   1   1   1   1   1   1   2   1   1   1   2   1   1   1   1   1   1   1   1   2   1
Cartesian
  0.0000000000000000  0.0000000000000000  0.0000000000000000
  3.2807633326712247  3.2807633326712247  3.2807633326712247
  3.2807633326712247  3.2807633326712247  0.0000000000000000
  3.2807633326712247  0.0000000000000000  3.2807633326712247
  0.0000000000000000  3.2807633326712247  3.2807633326712247
  0.0000000000000000  0.0000000000000000  6.5615266653424484
  3.2807633326712247  3.2807633326712247  9.8422899980136762
  3.2807633326712247  3.2807633326712247  6.5615266653424484
  3.2807633326712247  0.0000000000000000  9.8422899980136762
  0.0000000000000000  3.2807633326712247  9.8422899980136762
  0.0000000000000000  6.5615266653424484  0.0000000000000000
  3.2807633326712247  9.8422899980136762  3.2807633326712247
  3.2807633326712247  9.8422899980136762  0.0000000000000000
  3.2807633326712247  6.5615266653424484  3.2807633326712247
  0.0000000000000000  9.8422899980136762  3.2807633326712247
  0.0000000000000000  6.5615266653424484  6.5615266653424484
  3.2807633326712247  9.8422899980136762  9.8422899980136762
  3.2807633326712247  9.8422899980136762  6.5615266653424484
  3.2807633326712247  6.5615266653424484  9.8422899980136762
  0.0000000000000000  9.8422899980136762  9.8422899980136762
  6.5615266653424484  0.0000000000000000  0.0000000000000000
  9.8422899980136762  3.2807633326712247  3.2807633326712247
  9.8422899980136762  3.2807633326712247  0.0000000000000000
  9.8422899980136762  0.0000000000000000  3.2807633326712247
  6.5615266653424484  3.2807633326712247  3.2807633326712247
  6.5615266653424484  0.0000000000000000  6.5615266653424484
  9.8422899980136762  3.2807633326712247  9.8422899980136762
  9.8422899980136762  3.2807633326712247  6.5615266653424484
  9.8422899980136762  0.0000000000000000  9.8422899980136762
  6.5615266653424484  3.2807633326712247  9.8422899980136762
  6.5615266653424484  6.5615266653424484  0.0000000000000000
  9.8422899980136762  9.8422899980136762  3.2807633326712247
  9.8422899980136762  9.8422899980136762  0.0000000000000000
  9.8422899980136762  6.5615266653424484  3.2807633326712247
  6.5615266653424484  9.8422899980136762  3.2807633326712247
  6.5615266653424484  6.5615266653424484  6.5615266653424484
  9.8422899980136762  9.8422899980136762  9.8422899980136762
  9.8422899980136762  9.8422899980136762  6.5615266653424484
  9.8422899980136762  6.5615266653424484  9.8422899980136762
  6.5615266653424484  9.8422899980136762  9.8422899980136762
