Rb Sn I  Rb Sn I  Rb Ge I  Rb Ge I  Rb Ge I  Rb Sn I  Rb Ge I  Rb Sn I 
 1.0000000000000000
    12.6419378767655690    0.0000000000000000    0.0000000000000000
     0.0000000000000000   12.6419378767655690    0.0000000000000000
     0.0000000000000000    0.0000000000000000   12.6419378767655690
 Rb  Sn  I   Rb  Sn  I   Rb  Ge  I   Rb  Ge  I   Rb  Ge  I   Rb  Sn  I   Rb  Ge  I   Rb  Sn  I  
   1   1   3   1   1   3   1   1   3   1   1   3   1   1   3   1   1   3   1   1   3   1   1   3
Cartesian
  0.0000000000000000  0.0000000000000000  0.0000000000000000
  3.1604844691913923  3.1604844691913923  3.1604844691913923
  3.1604844691913923  3.1604844691913923  0.0000000000000000
  3.1604844691913923  0.0000000000000000  3.1604844691913923
  0.0000000000000000  3.1604844691913923  3.1604844691913923
  0.0000000000000000  0.0000000000000000  6.3209689383827836
  3.1604844691913923  3.1604844691913923  9.4814534075741772
  3.1604844691913923  3.1604844691913923  6.3209689383827836
  3.1604844691913923  0.0000000000000000  9.4814534075741772
  0.0000000000000000  3.1604844691913923  9.4814534075741772
  0.0000000000000000  6.3209689383827836  0.0000000000000000
  3.1604844691913923  9.4814534075741772  3.1604844691913923
  3.1604844691913923  9.4814534075741772  0.0000000000000000
  3.1604844691913923  6.3209689383827836  3.1604844691913923
  0.0000000000000000  9.4814534075741772  3.1604844691913923
  0.0000000000000000  6.3209689383827836  6.3209689383827836
  3.1604844691913923  9.4814534075741772  9.4814534075741772
  3.1604844691913923  9.4814534075741772  6.3209689383827836
  3.1604844691913923  6.3209689383827836  9.4814534075741772
  0.0000000000000000  9.4814534075741772  9.4814534075741772
  6.3209689383827836  0.0000000000000000  0.0000000000000000
  9.4814534075741772  3.1604844691913923  3.1604844691913923
  9.4814534075741772  3.1604844691913923  0.0000000000000000
  9.4814534075741772  0.0000000000000000  3.1604844691913923
  6.3209689383827836  3.1604844691913923  3.1604844691913923
  6.3209689383827836  0.0000000000000000  6.3209689383827836
  9.4814534075741772  3.1604844691913923  9.4814534075741772
  9.4814534075741772  3.1604844691913923  6.3209689383827836
  9.4814534075741772  0.0000000000000000  9.4814534075741772
  6.3209689383827836  3.1604844691913923  9.4814534075741772
  6.3209689383827836  6.3209689383827836  0.0000000000000000
  9.4814534075741772  9.4814534075741772  3.1604844691913923
  9.4814534075741772  9.4814534075741772  0.0000000000000000
  9.4814534075741772  6.3209689383827836  3.1604844691913923
  6.3209689383827836  9.4814534075741772  3.1604844691913923
  6.3209689383827836  6.3209689383827836  6.3209689383827836
  9.4814534075741772  9.4814534075741772  9.4814534075741772
  9.4814534075741772  9.4814534075741772  6.3209689383827836
  9.4814534075741772  6.3209689383827836  9.4814534075741772
  6.3209689383827836  9.4814534075741772  9.4814534075741772
